c q00r00-s033 canonical compact 12-color CNF
c Variables are ordered by ascending vertex then ascending allowed color.
c Greedy clique order is descending degree then ascending vertex.
p cnf 1859 64083
1 0
2 3 4 5 6 7 8 0
-2 -3 0
-2 -4 0
-2 -5 0
-2 -6 0
-2 -7 0
-2 -8 0
-3 -4 0
-3 -5 0
-3 -6 0
-3 -7 0
-3 -8 0
-4 -5 0
-4 -6 0
-4 -7 0
-4 -8 0
-5 -6 0
-5 -7 0
-5 -8 0
-6 -7 0
-6 -8 0
-7 -8 0
9 10 11 12 13 14 0
-9 -10 0
-9 -11 0
-9 -12 0
-9 -13 0
-9 -14 0
-10 -11 0
-10 -12 0
-10 -13 0
-10 -14 0
-11 -12 0
-11 -13 0
-11 -14 0
-12 -13 0
-12 -14 0
-13 -14 0
15 16 17 18 19 20 21 0
-15 -16 0
-15 -17 0
-15 -18 0
-15 -19 0
-15 -20 0
-15 -21 0
-16 -17 0
-16 -18 0
-16 -19 0
-16 -20 0
-16 -21 0
-17 -18 0
-17 -19 0
-17 -20 0
-17 -21 0
-18 -19 0
-18 -20 0
-18 -21 0
-19 -20 0
-19 -21 0
-20 -21 0
22 23 24 25 26 27 28 0
-22 -23 0
-22 -24 0
-22 -25 0
-22 -26 0
-22 -27 0
-22 -28 0
-23 -24 0
-23 -25 0
-23 -26 0
-23 -27 0
-23 -28 0
-24 -25 0
-24 -26 0
-24 -27 0
-24 -28 0
-25 -26 0
-25 -27 0
-25 -28 0
-26 -27 0
-26 -28 0
-27 -28 0
29 30 31 32 33 34 0
-29 -30 0
-29 -31 0
-29 -32 0
-29 -33 0
-29 -34 0
-30 -31 0
-30 -32 0
-30 -33 0
-30 -34 0
-31 -32 0
-31 -33 0
-31 -34 0
-32 -33 0
-32 -34 0
-33 -34 0
35 36 37 38 39 40 41 42 0
-35 -36 0
-35 -37 0
-35 -38 0
-35 -39 0
-35 -40 0
-35 -41 0
-35 -42 0
-36 -37 0
-36 -38 0
-36 -39 0
-36 -40 0
-36 -41 0
-36 -42 0
-37 -38 0
-37 -39 0
-37 -40 0
-37 -41 0
-37 -42 0
-38 -39 0
-38 -40 0
-38 -41 0
-38 -42 0
-39 -40 0
-39 -41 0
-39 -42 0
-40 -41 0
-40 -42 0
-41 -42 0
43 44 45 46 47 48 49 0
-43 -44 0
-43 -45 0
-43 -46 0
-43 -47 0
-43 -48 0
-43 -49 0
-44 -45 0
-44 -46 0
-44 -47 0
-44 -48 0
-44 -49 0
-45 -46 0
-45 -47 0
-45 -48 0
-45 -49 0
-46 -47 0
-46 -48 0
-46 -49 0
-47 -48 0
-47 -49 0
-48 -49 0
50 51 52 53 54 55 56 0
-50 -51 0
-50 -52 0
-50 -53 0
-50 -54 0
-50 -55 0
-50 -56 0
-51 -52 0
-51 -53 0
-51 -54 0
-51 -55 0
-51 -56 0
-52 -53 0
-52 -54 0
-52 -55 0
-52 -56 0
-53 -54 0
-53 -55 0
-53 -56 0
-54 -55 0
-54 -56 0
-55 -56 0
57 58 59 60 61 62 63 0
-57 -58 0
-57 -59 0
-57 -60 0
-57 -61 0
-57 -62 0
-57 -63 0
-58 -59 0
-58 -60 0
-58 -61 0
-58 -62 0
-58 -63 0
-59 -60 0
-59 -61 0
-59 -62 0
-59 -63 0
-60 -61 0
-60 -62 0
-60 -63 0
-61 -62 0
-61 -63 0
-62 -63 0
64 65 66 67 68 69 70 71 0
-64 -65 0
-64 -66 0
-64 -67 0
-64 -68 0
-64 -69 0
-64 -70 0
-64 -71 0
-65 -66 0
-65 -67 0
-65 -68 0
-65 -69 0
-65 -70 0
-65 -71 0
-66 -67 0
-66 -68 0
-66 -69 0
-66 -70 0
-66 -71 0
-67 -68 0
-67 -69 0
-67 -70 0
-67 -71 0
-68 -69 0
-68 -70 0
-68 -71 0
-69 -70 0
-69 -71 0
-70 -71 0
72 0
73 74 75 76 77 78 79 0
-73 -74 0
-73 -75 0
-73 -76 0
-73 -77 0
-73 -78 0
-73 -79 0
-74 -75 0
-74 -76 0
-74 -77 0
-74 -78 0
-74 -79 0
-75 -76 0
-75 -77 0
-75 -78 0
-75 -79 0
-76 -77 0
-76 -78 0
-76 -79 0
-77 -78 0
-77 -79 0
-78 -79 0
80 81 82 83 84 85 86 87 0
-80 -81 0
-80 -82 0
-80 -83 0
-80 -84 0
-80 -85 0
-80 -86 0
-80 -87 0
-81 -82 0
-81 -83 0
-81 -84 0
-81 -85 0
-81 -86 0
-81 -87 0
-82 -83 0
-82 -84 0
-82 -85 0
-82 -86 0
-82 -87 0
-83 -84 0
-83 -85 0
-83 -86 0
-83 -87 0
-84 -85 0
-84 -86 0
-84 -87 0
-85 -86 0
-85 -87 0
-86 -87 0
88 89 90 91 92 93 0
-88 -89 0
-88 -90 0
-88 -91 0
-88 -92 0
-88 -93 0
-89 -90 0
-89 -91 0
-89 -92 0
-89 -93 0
-90 -91 0
-90 -92 0
-90 -93 0
-91 -92 0
-91 -93 0
-92 -93 0
94 95 96 97 98 99 100 0
-94 -95 0
-94 -96 0
-94 -97 0
-94 -98 0
-94 -99 0
-94 -100 0
-95 -96 0
-95 -97 0
-95 -98 0
-95 -99 0
-95 -100 0
-96 -97 0
-96 -98 0
-96 -99 0
-96 -100 0
-97 -98 0
-97 -99 0
-97 -100 0
-98 -99 0
-98 -100 0
-99 -100 0
101 102 103 104 105 106 107 0
-101 -102 0
-101 -103 0
-101 -104 0
-101 -105 0
-101 -106 0
-101 -107 0
-102 -103 0
-102 -104 0
-102 -105 0
-102 -106 0
-102 -107 0
-103 -104 0
-103 -105 0
-103 -106 0
-103 -107 0
-104 -105 0
-104 -106 0
-104 -107 0
-105 -106 0
-105 -107 0
-106 -107 0
108 109 110 111 112 113 114 115 116 0
-108 -109 0
-108 -110 0
-108 -111 0
-108 -112 0
-108 -113 0
-108 -114 0
-108 -115 0
-108 -116 0
-109 -110 0
-109 -111 0
-109 -112 0
-109 -113 0
-109 -114 0
-109 -115 0
-109 -116 0
-110 -111 0
-110 -112 0
-110 -113 0
-110 -114 0
-110 -115 0
-110 -116 0
-111 -112 0
-111 -113 0
-111 -114 0
-111 -115 0
-111 -116 0
-112 -113 0
-112 -114 0
-112 -115 0
-112 -116 0
-113 -114 0
-113 -115 0
-113 -116 0
-114 -115 0
-114 -116 0
-115 -116 0
117 118 119 120 121 122 123 0
-117 -118 0
-117 -119 0
-117 -120 0
-117 -121 0
-117 -122 0
-117 -123 0
-118 -119 0
-118 -120 0
-118 -121 0
-118 -122 0
-118 -123 0
-119 -120 0
-119 -121 0
-119 -122 0
-119 -123 0
-120 -121 0
-120 -122 0
-120 -123 0
-121 -122 0
-121 -123 0
-122 -123 0
124 125 126 127 128 129 130 131 132 133 0
-124 -125 0
-124 -126 0
-124 -127 0
-124 -128 0
-124 -129 0
-124 -130 0
-124 -131 0
-124 -132 0
-124 -133 0
-125 -126 0
-125 -127 0
-125 -128 0
-125 -129 0
-125 -130 0
-125 -131 0
-125 -132 0
-125 -133 0
-126 -127 0
-126 -128 0
-126 -129 0
-126 -130 0
-126 -131 0
-126 -132 0
-126 -133 0
-127 -128 0
-127 -129 0
-127 -130 0
-127 -131 0
-127 -132 0
-127 -133 0
-128 -129 0
-128 -130 0
-128 -131 0
-128 -132 0
-128 -133 0
-129 -130 0
-129 -131 0
-129 -132 0
-129 -133 0
-130 -131 0
-130 -132 0
-130 -133 0
-131 -132 0
-131 -133 0
-132 -133 0
134 135 136 137 138 139 140 0
-134 -135 0
-134 -136 0
-134 -137 0
-134 -138 0
-134 -139 0
-134 -140 0
-135 -136 0
-135 -137 0
-135 -138 0
-135 -139 0
-135 -140 0
-136 -137 0
-136 -138 0
-136 -139 0
-136 -140 0
-137 -138 0
-137 -139 0
-137 -140 0
-138 -139 0
-138 -140 0
-139 -140 0
141 142 143 144 145 146 147 148 0
-141 -142 0
-141 -143 0
-141 -144 0
-141 -145 0
-141 -146 0
-141 -147 0
-141 -148 0
-142 -143 0
-142 -144 0
-142 -145 0
-142 -146 0
-142 -147 0
-142 -148 0
-143 -144 0
-143 -145 0
-143 -146 0
-143 -147 0
-143 -148 0
-144 -145 0
-144 -146 0
-144 -147 0
-144 -148 0
-145 -146 0
-145 -147 0
-145 -148 0
-146 -147 0
-146 -148 0
-147 -148 0
149 150 151 152 153 154 155 156 157 0
-149 -150 0
-149 -151 0
-149 -152 0
-149 -153 0
-149 -154 0
-149 -155 0
-149 -156 0
-149 -157 0
-150 -151 0
-150 -152 0
-150 -153 0
-150 -154 0
-150 -155 0
-150 -156 0
-150 -157 0
-151 -152 0
-151 -153 0
-151 -154 0
-151 -155 0
-151 -156 0
-151 -157 0
-152 -153 0
-152 -154 0
-152 -155 0
-152 -156 0
-152 -157 0
-153 -154 0
-153 -155 0
-153 -156 0
-153 -157 0
-154 -155 0
-154 -156 0
-154 -157 0
-155 -156 0
-155 -157 0
-156 -157 0
158 159 160 161 162 163 164 165 166 167 0
-158 -159 0
-158 -160 0
-158 -161 0
-158 -162 0
-158 -163 0
-158 -164 0
-158 -165 0
-158 -166 0
-158 -167 0
-159 -160 0
-159 -161 0
-159 -162 0
-159 -163 0
-159 -164 0
-159 -165 0
-159 -166 0
-159 -167 0
-160 -161 0
-160 -162 0
-160 -163 0
-160 -164 0
-160 -165 0
-160 -166 0
-160 -167 0
-161 -162 0
-161 -163 0
-161 -164 0
-161 -165 0
-161 -166 0
-161 -167 0
-162 -163 0
-162 -164 0
-162 -165 0
-162 -166 0
-162 -167 0
-163 -164 0
-163 -165 0
-163 -166 0
-163 -167 0
-164 -165 0
-164 -166 0
-164 -167 0
-165 -166 0
-165 -167 0
-166 -167 0
168 169 170 171 172 173 174 175 0
-168 -169 0
-168 -170 0
-168 -171 0
-168 -172 0
-168 -173 0
-168 -174 0
-168 -175 0
-169 -170 0
-169 -171 0
-169 -172 0
-169 -173 0
-169 -174 0
-169 -175 0
-170 -171 0
-170 -172 0
-170 -173 0
-170 -174 0
-170 -175 0
-171 -172 0
-171 -173 0
-171 -174 0
-171 -175 0
-172 -173 0
-172 -174 0
-172 -175 0
-173 -174 0
-173 -175 0
-174 -175 0
176 177 178 179 180 181 0
-176 -177 0
-176 -178 0
-176 -179 0
-176 -180 0
-176 -181 0
-177 -178 0
-177 -179 0
-177 -180 0
-177 -181 0
-178 -179 0
-178 -180 0
-178 -181 0
-179 -180 0
-179 -181 0
-180 -181 0
182 183 184 185 186 187 188 0
-182 -183 0
-182 -184 0
-182 -185 0
-182 -186 0
-182 -187 0
-182 -188 0
-183 -184 0
-183 -185 0
-183 -186 0
-183 -187 0
-183 -188 0
-184 -185 0
-184 -186 0
-184 -187 0
-184 -188 0
-185 -186 0
-185 -187 0
-185 -188 0
-186 -187 0
-186 -188 0
-187 -188 0
189 190 191 192 193 194 195 0
-189 -190 0
-189 -191 0
-189 -192 0
-189 -193 0
-189 -194 0
-189 -195 0
-190 -191 0
-190 -192 0
-190 -193 0
-190 -194 0
-190 -195 0
-191 -192 0
-191 -193 0
-191 -194 0
-191 -195 0
-192 -193 0
-192 -194 0
-192 -195 0
-193 -194 0
-193 -195 0
-194 -195 0
196 197 198 199 200 201 202 203 204 0
-196 -197 0
-196 -198 0
-196 -199 0
-196 -200 0
-196 -201 0
-196 -202 0
-196 -203 0
-196 -204 0
-197 -198 0
-197 -199 0
-197 -200 0
-197 -201 0
-197 -202 0
-197 -203 0
-197 -204 0
-198 -199 0
-198 -200 0
-198 -201 0
-198 -202 0
-198 -203 0
-198 -204 0
-199 -200 0
-199 -201 0
-199 -202 0
-199 -203 0
-199 -204 0
-200 -201 0
-200 -202 0
-200 -203 0
-200 -204 0
-201 -202 0
-201 -203 0
-201 -204 0
-202 -203 0
-202 -204 0
-203 -204 0
205 206 207 208 209 210 211 0
-205 -206 0
-205 -207 0
-205 -208 0
-205 -209 0
-205 -210 0
-205 -211 0
-206 -207 0
-206 -208 0
-206 -209 0
-206 -210 0
-206 -211 0
-207 -208 0
-207 -209 0
-207 -210 0
-207 -211 0
-208 -209 0
-208 -210 0
-208 -211 0
-209 -210 0
-209 -211 0
-210 -211 0
212 213 214 215 216 217 218 0
-212 -213 0
-212 -214 0
-212 -215 0
-212 -216 0
-212 -217 0
-212 -218 0
-213 -214 0
-213 -215 0
-213 -216 0
-213 -217 0
-213 -218 0
-214 -215 0
-214 -216 0
-214 -217 0
-214 -218 0
-215 -216 0
-215 -217 0
-215 -218 0
-216 -217 0
-216 -218 0
-217 -218 0
219 220 221 222 223 224 225 226 0
-219 -220 0
-219 -221 0
-219 -222 0
-219 -223 0
-219 -224 0
-219 -225 0
-219 -226 0
-220 -221 0
-220 -222 0
-220 -223 0
-220 -224 0
-220 -225 0
-220 -226 0
-221 -222 0
-221 -223 0
-221 -224 0
-221 -225 0
-221 -226 0
-222 -223 0
-222 -224 0
-222 -225 0
-222 -226 0
-223 -224 0
-223 -225 0
-223 -226 0
-224 -225 0
-224 -226 0
-225 -226 0
227 228 229 230 231 232 233 234 235 0
-227 -228 0
-227 -229 0
-227 -230 0
-227 -231 0
-227 -232 0
-227 -233 0
-227 -234 0
-227 -235 0
-228 -229 0
-228 -230 0
-228 -231 0
-228 -232 0
-228 -233 0
-228 -234 0
-228 -235 0
-229 -230 0
-229 -231 0
-229 -232 0
-229 -233 0
-229 -234 0
-229 -235 0
-230 -231 0
-230 -232 0
-230 -233 0
-230 -234 0
-230 -235 0
-231 -232 0
-231 -233 0
-231 -234 0
-231 -235 0
-232 -233 0
-232 -234 0
-232 -235 0
-233 -234 0
-233 -235 0
-234 -235 0
236 237 238 239 240 241 242 0
-236 -237 0
-236 -238 0
-236 -239 0
-236 -240 0
-236 -241 0
-236 -242 0
-237 -238 0
-237 -239 0
-237 -240 0
-237 -241 0
-237 -242 0
-238 -239 0
-238 -240 0
-238 -241 0
-238 -242 0
-239 -240 0
-239 -241 0
-239 -242 0
-240 -241 0
-240 -242 0
-241 -242 0
243 244 245 246 247 248 249 0
-243 -244 0
-243 -245 0
-243 -246 0
-243 -247 0
-243 -248 0
-243 -249 0
-244 -245 0
-244 -246 0
-244 -247 0
-244 -248 0
-244 -249 0
-245 -246 0
-245 -247 0
-245 -248 0
-245 -249 0
-246 -247 0
-246 -248 0
-246 -249 0
-247 -248 0
-247 -249 0
-248 -249 0
250 251 252 253 254 255 256 257 258 0
-250 -251 0
-250 -252 0
-250 -253 0
-250 -254 0
-250 -255 0
-250 -256 0
-250 -257 0
-250 -258 0
-251 -252 0
-251 -253 0
-251 -254 0
-251 -255 0
-251 -256 0
-251 -257 0
-251 -258 0
-252 -253 0
-252 -254 0
-252 -255 0
-252 -256 0
-252 -257 0
-252 -258 0
-253 -254 0
-253 -255 0
-253 -256 0
-253 -257 0
-253 -258 0
-254 -255 0
-254 -256 0
-254 -257 0
-254 -258 0
-255 -256 0
-255 -257 0
-255 -258 0
-256 -257 0
-256 -258 0
-257 -258 0
259 260 261 262 263 264 265 0
-259 -260 0
-259 -261 0
-259 -262 0
-259 -263 0
-259 -264 0
-259 -265 0
-260 -261 0
-260 -262 0
-260 -263 0
-260 -264 0
-260 -265 0
-261 -262 0
-261 -263 0
-261 -264 0
-261 -265 0
-262 -263 0
-262 -264 0
-262 -265 0
-263 -264 0
-263 -265 0
-264 -265 0
266 267 268 269 270 271 272 273 0
-266 -267 0
-266 -268 0
-266 -269 0
-266 -270 0
-266 -271 0
-266 -272 0
-266 -273 0
-267 -268 0
-267 -269 0
-267 -270 0
-267 -271 0
-267 -272 0
-267 -273 0
-268 -269 0
-268 -270 0
-268 -271 0
-268 -272 0
-268 -273 0
-269 -270 0
-269 -271 0
-269 -272 0
-269 -273 0
-270 -271 0
-270 -272 0
-270 -273 0
-271 -272 0
-271 -273 0
-272 -273 0
274 275 276 277 278 279 0
-274 -275 0
-274 -276 0
-274 -277 0
-274 -278 0
-274 -279 0
-275 -276 0
-275 -277 0
-275 -278 0
-275 -279 0
-276 -277 0
-276 -278 0
-276 -279 0
-277 -278 0
-277 -279 0
-278 -279 0
280 281 282 283 284 285 286 0
-280 -281 0
-280 -282 0
-280 -283 0
-280 -284 0
-280 -285 0
-280 -286 0
-281 -282 0
-281 -283 0
-281 -284 0
-281 -285 0
-281 -286 0
-282 -283 0
-282 -284 0
-282 -285 0
-282 -286 0
-283 -284 0
-283 -285 0
-283 -286 0
-284 -285 0
-284 -286 0
-285 -286 0
287 288 289 290 291 292 293 0
-287 -288 0
-287 -289 0
-287 -290 0
-287 -291 0
-287 -292 0
-287 -293 0
-288 -289 0
-288 -290 0
-288 -291 0
-288 -292 0
-288 -293 0
-289 -290 0
-289 -291 0
-289 -292 0
-289 -293 0
-290 -291 0
-290 -292 0
-290 -293 0
-291 -292 0
-291 -293 0
-292 -293 0
294 295 296 297 298 299 300 0
-294 -295 0
-294 -296 0
-294 -297 0
-294 -298 0
-294 -299 0
-294 -300 0
-295 -296 0
-295 -297 0
-295 -298 0
-295 -299 0
-295 -300 0
-296 -297 0
-296 -298 0
-296 -299 0
-296 -300 0
-297 -298 0
-297 -299 0
-297 -300 0
-298 -299 0
-298 -300 0
-299 -300 0
301 302 303 304 305 306 307 0
-301 -302 0
-301 -303 0
-301 -304 0
-301 -305 0
-301 -306 0
-301 -307 0
-302 -303 0
-302 -304 0
-302 -305 0
-302 -306 0
-302 -307 0
-303 -304 0
-303 -305 0
-303 -306 0
-303 -307 0
-304 -305 0
-304 -306 0
-304 -307 0
-305 -306 0
-305 -307 0
-306 -307 0
308 309 310 311 312 313 314 315 316 0
-308 -309 0
-308 -310 0
-308 -311 0
-308 -312 0
-308 -313 0
-308 -314 0
-308 -315 0
-308 -316 0
-309 -310 0
-309 -311 0
-309 -312 0
-309 -313 0
-309 -314 0
-309 -315 0
-309 -316 0
-310 -311 0
-310 -312 0
-310 -313 0
-310 -314 0
-310 -315 0
-310 -316 0
-311 -312 0
-311 -313 0
-311 -314 0
-311 -315 0
-311 -316 0
-312 -313 0
-312 -314 0
-312 -315 0
-312 -316 0
-313 -314 0
-313 -315 0
-313 -316 0
-314 -315 0
-314 -316 0
-315 -316 0
317 318 319 320 321 322 323 0
-317 -318 0
-317 -319 0
-317 -320 0
-317 -321 0
-317 -322 0
-317 -323 0
-318 -319 0
-318 -320 0
-318 -321 0
-318 -322 0
-318 -323 0
-319 -320 0
-319 -321 0
-319 -322 0
-319 -323 0
-320 -321 0
-320 -322 0
-320 -323 0
-321 -322 0
-321 -323 0
-322 -323 0
324 325 326 327 328 329 330 331 332 333 0
-324 -325 0
-324 -326 0
-324 -327 0
-324 -328 0
-324 -329 0
-324 -330 0
-324 -331 0
-324 -332 0
-324 -333 0
-325 -326 0
-325 -327 0
-325 -328 0
-325 -329 0
-325 -330 0
-325 -331 0
-325 -332 0
-325 -333 0
-326 -327 0
-326 -328 0
-326 -329 0
-326 -330 0
-326 -331 0
-326 -332 0
-326 -333 0
-327 -328 0
-327 -329 0
-327 -330 0
-327 -331 0
-327 -332 0
-327 -333 0
-328 -329 0
-328 -330 0
-328 -331 0
-328 -332 0
-328 -333 0
-329 -330 0
-329 -331 0
-329 -332 0
-329 -333 0
-330 -331 0
-330 -332 0
-330 -333 0
-331 -332 0
-331 -333 0
-332 -333 0
334 335 336 337 338 339 0
-334 -335 0
-334 -336 0
-334 -337 0
-334 -338 0
-334 -339 0
-335 -336 0
-335 -337 0
-335 -338 0
-335 -339 0
-336 -337 0
-336 -338 0
-336 -339 0
-337 -338 0
-337 -339 0
-338 -339 0
340 341 342 343 344 345 346 0
-340 -341 0
-340 -342 0
-340 -343 0
-340 -344 0
-340 -345 0
-340 -346 0
-341 -342 0
-341 -343 0
-341 -344 0
-341 -345 0
-341 -346 0
-342 -343 0
-342 -344 0
-342 -345 0
-342 -346 0
-343 -344 0
-343 -345 0
-343 -346 0
-344 -345 0
-344 -346 0
-345 -346 0
347 348 349 350 351 352 0
-347 -348 0
-347 -349 0
-347 -350 0
-347 -351 0
-347 -352 0
-348 -349 0
-348 -350 0
-348 -351 0
-348 -352 0
-349 -350 0
-349 -351 0
-349 -352 0
-350 -351 0
-350 -352 0
-351 -352 0
353 354 355 356 357 358 359 0
-353 -354 0
-353 -355 0
-353 -356 0
-353 -357 0
-353 -358 0
-353 -359 0
-354 -355 0
-354 -356 0
-354 -357 0
-354 -358 0
-354 -359 0
-355 -356 0
-355 -357 0
-355 -358 0
-355 -359 0
-356 -357 0
-356 -358 0
-356 -359 0
-357 -358 0
-357 -359 0
-358 -359 0
360 361 362 363 364 365 366 0
-360 -361 0
-360 -362 0
-360 -363 0
-360 -364 0
-360 -365 0
-360 -366 0
-361 -362 0
-361 -363 0
-361 -364 0
-361 -365 0
-361 -366 0
-362 -363 0
-362 -364 0
-362 -365 0
-362 -366 0
-363 -364 0
-363 -365 0
-363 -366 0
-364 -365 0
-364 -366 0
-365 -366 0
367 368 369 370 371 372 373 374 375 0
-367 -368 0
-367 -369 0
-367 -370 0
-367 -371 0
-367 -372 0
-367 -373 0
-367 -374 0
-367 -375 0
-368 -369 0
-368 -370 0
-368 -371 0
-368 -372 0
-368 -373 0
-368 -374 0
-368 -375 0
-369 -370 0
-369 -371 0
-369 -372 0
-369 -373 0
-369 -374 0
-369 -375 0
-370 -371 0
-370 -372 0
-370 -373 0
-370 -374 0
-370 -375 0
-371 -372 0
-371 -373 0
-371 -374 0
-371 -375 0
-372 -373 0
-372 -374 0
-372 -375 0
-373 -374 0
-373 -375 0
-374 -375 0
376 377 378 379 380 381 382 0
-376 -377 0
-376 -378 0
-376 -379 0
-376 -380 0
-376 -381 0
-376 -382 0
-377 -378 0
-377 -379 0
-377 -380 0
-377 -381 0
-377 -382 0
-378 -379 0
-378 -380 0
-378 -381 0
-378 -382 0
-379 -380 0
-379 -381 0
-379 -382 0
-380 -381 0
-380 -382 0
-381 -382 0
383 384 385 386 387 388 389 0
-383 -384 0
-383 -385 0
-383 -386 0
-383 -387 0
-383 -388 0
-383 -389 0
-384 -385 0
-384 -386 0
-384 -387 0
-384 -388 0
-384 -389 0
-385 -386 0
-385 -387 0
-385 -388 0
-385 -389 0
-386 -387 0
-386 -388 0
-386 -389 0
-387 -388 0
-387 -389 0
-388 -389 0
390 391 392 393 394 395 0
-390 -391 0
-390 -392 0
-390 -393 0
-390 -394 0
-390 -395 0
-391 -392 0
-391 -393 0
-391 -394 0
-391 -395 0
-392 -393 0
-392 -394 0
-392 -395 0
-393 -394 0
-393 -395 0
-394 -395 0
396 397 398 399 400 401 402 403 0
-396 -397 0
-396 -398 0
-396 -399 0
-396 -400 0
-396 -401 0
-396 -402 0
-396 -403 0
-397 -398 0
-397 -399 0
-397 -400 0
-397 -401 0
-397 -402 0
-397 -403 0
-398 -399 0
-398 -400 0
-398 -401 0
-398 -402 0
-398 -403 0
-399 -400 0
-399 -401 0
-399 -402 0
-399 -403 0
-400 -401 0
-400 -402 0
-400 -403 0
-401 -402 0
-401 -403 0
-402 -403 0
404 405 406 407 408 409 410 411 0
-404 -405 0
-404 -406 0
-404 -407 0
-404 -408 0
-404 -409 0
-404 -410 0
-404 -411 0
-405 -406 0
-405 -407 0
-405 -408 0
-405 -409 0
-405 -410 0
-405 -411 0
-406 -407 0
-406 -408 0
-406 -409 0
-406 -410 0
-406 -411 0
-407 -408 0
-407 -409 0
-407 -410 0
-407 -411 0
-408 -409 0
-408 -410 0
-408 -411 0
-409 -410 0
-409 -411 0
-410 -411 0
412 413 414 415 416 417 418 419 420 421 0
-412 -413 0
-412 -414 0
-412 -415 0
-412 -416 0
-412 -417 0
-412 -418 0
-412 -419 0
-412 -420 0
-412 -421 0
-413 -414 0
-413 -415 0
-413 -416 0
-413 -417 0
-413 -418 0
-413 -419 0
-413 -420 0
-413 -421 0
-414 -415 0
-414 -416 0
-414 -417 0
-414 -418 0
-414 -419 0
-414 -420 0
-414 -421 0
-415 -416 0
-415 -417 0
-415 -418 0
-415 -419 0
-415 -420 0
-415 -421 0
-416 -417 0
-416 -418 0
-416 -419 0
-416 -420 0
-416 -421 0
-417 -418 0
-417 -419 0
-417 -420 0
-417 -421 0
-418 -419 0
-418 -420 0
-418 -421 0
-419 -420 0
-419 -421 0
-420 -421 0
422 423 424 425 426 427 428 0
-422 -423 0
-422 -424 0
-422 -425 0
-422 -426 0
-422 -427 0
-422 -428 0
-423 -424 0
-423 -425 0
-423 -426 0
-423 -427 0
-423 -428 0
-424 -425 0
-424 -426 0
-424 -427 0
-424 -428 0
-425 -426 0
-425 -427 0
-425 -428 0
-426 -427 0
-426 -428 0
-427 -428 0
429 430 431 432 433 434 435 436 0
-429 -430 0
-429 -431 0
-429 -432 0
-429 -433 0
-429 -434 0
-429 -435 0
-429 -436 0
-430 -431 0
-430 -432 0
-430 -433 0
-430 -434 0
-430 -435 0
-430 -436 0
-431 -432 0
-431 -433 0
-431 -434 0
-431 -435 0
-431 -436 0
-432 -433 0
-432 -434 0
-432 -435 0
-432 -436 0
-433 -434 0
-433 -435 0
-433 -436 0
-434 -435 0
-434 -436 0
-435 -436 0
437 438 439 440 441 442 443 0
-437 -438 0
-437 -439 0
-437 -440 0
-437 -441 0
-437 -442 0
-437 -443 0
-438 -439 0
-438 -440 0
-438 -441 0
-438 -442 0
-438 -443 0
-439 -440 0
-439 -441 0
-439 -442 0
-439 -443 0
-440 -441 0
-440 -442 0
-440 -443 0
-441 -442 0
-441 -443 0
-442 -443 0
444 445 446 447 448 449 450 451 0
-444 -445 0
-444 -446 0
-444 -447 0
-444 -448 0
-444 -449 0
-444 -450 0
-444 -451 0
-445 -446 0
-445 -447 0
-445 -448 0
-445 -449 0
-445 -450 0
-445 -451 0
-446 -447 0
-446 -448 0
-446 -449 0
-446 -450 0
-446 -451 0
-447 -448 0
-447 -449 0
-447 -450 0
-447 -451 0
-448 -449 0
-448 -450 0
-448 -451 0
-449 -450 0
-449 -451 0
-450 -451 0
452 453 454 455 456 457 458 459 0
-452 -453 0
-452 -454 0
-452 -455 0
-452 -456 0
-452 -457 0
-452 -458 0
-452 -459 0
-453 -454 0
-453 -455 0
-453 -456 0
-453 -457 0
-453 -458 0
-453 -459 0
-454 -455 0
-454 -456 0
-454 -457 0
-454 -458 0
-454 -459 0
-455 -456 0
-455 -457 0
-455 -458 0
-455 -459 0
-456 -457 0
-456 -458 0
-456 -459 0
-457 -458 0
-457 -459 0
-458 -459 0
460 461 462 463 464 465 466 0
-460 -461 0
-460 -462 0
-460 -463 0
-460 -464 0
-460 -465 0
-460 -466 0
-461 -462 0
-461 -463 0
-461 -464 0
-461 -465 0
-461 -466 0
-462 -463 0
-462 -464 0
-462 -465 0
-462 -466 0
-463 -464 0
-463 -465 0
-463 -466 0
-464 -465 0
-464 -466 0
-465 -466 0
467 468 469 470 471 472 473 474 475 476 0
-467 -468 0
-467 -469 0
-467 -470 0
-467 -471 0
-467 -472 0
-467 -473 0
-467 -474 0
-467 -475 0
-467 -476 0
-468 -469 0
-468 -470 0
-468 -471 0
-468 -472 0
-468 -473 0
-468 -474 0
-468 -475 0
-468 -476 0
-469 -470 0
-469 -471 0
-469 -472 0
-469 -473 0
-469 -474 0
-469 -475 0
-469 -476 0
-470 -471 0
-470 -472 0
-470 -473 0
-470 -474 0
-470 -475 0
-470 -476 0
-471 -472 0
-471 -473 0
-471 -474 0
-471 -475 0
-471 -476 0
-472 -473 0
-472 -474 0
-472 -475 0
-472 -476 0
-473 -474 0
-473 -475 0
-473 -476 0
-474 -475 0
-474 -476 0
-475 -476 0
477 478 479 480 481 482 483 484 0
-477 -478 0
-477 -479 0
-477 -480 0
-477 -481 0
-477 -482 0
-477 -483 0
-477 -484 0
-478 -479 0
-478 -480 0
-478 -481 0
-478 -482 0
-478 -483 0
-478 -484 0
-479 -480 0
-479 -481 0
-479 -482 0
-479 -483 0
-479 -484 0
-480 -481 0
-480 -482 0
-480 -483 0
-480 -484 0
-481 -482 0
-481 -483 0
-481 -484 0
-482 -483 0
-482 -484 0
-483 -484 0
485 486 487 488 489 490 491 0
-485 -486 0
-485 -487 0
-485 -488 0
-485 -489 0
-485 -490 0
-485 -491 0
-486 -487 0
-486 -488 0
-486 -489 0
-486 -490 0
-486 -491 0
-487 -488 0
-487 -489 0
-487 -490 0
-487 -491 0
-488 -489 0
-488 -490 0
-488 -491 0
-489 -490 0
-489 -491 0
-490 -491 0
492 493 494 495 496 497 498 499 0
-492 -493 0
-492 -494 0
-492 -495 0
-492 -496 0
-492 -497 0
-492 -498 0
-492 -499 0
-493 -494 0
-493 -495 0
-493 -496 0
-493 -497 0
-493 -498 0
-493 -499 0
-494 -495 0
-494 -496 0
-494 -497 0
-494 -498 0
-494 -499 0
-495 -496 0
-495 -497 0
-495 -498 0
-495 -499 0
-496 -497 0
-496 -498 0
-496 -499 0
-497 -498 0
-497 -499 0
-498 -499 0
500 501 502 503 504 505 506 0
-500 -501 0
-500 -502 0
-500 -503 0
-500 -504 0
-500 -505 0
-500 -506 0
-501 -502 0
-501 -503 0
-501 -504 0
-501 -505 0
-501 -506 0
-502 -503 0
-502 -504 0
-502 -505 0
-502 -506 0
-503 -504 0
-503 -505 0
-503 -506 0
-504 -505 0
-504 -506 0
-505 -506 0
507 508 509 510 511 512 513 514 0
-507 -508 0
-507 -509 0
-507 -510 0
-507 -511 0
-507 -512 0
-507 -513 0
-507 -514 0
-508 -509 0
-508 -510 0
-508 -511 0
-508 -512 0
-508 -513 0
-508 -514 0
-509 -510 0
-509 -511 0
-509 -512 0
-509 -513 0
-509 -514 0
-510 -511 0
-510 -512 0
-510 -513 0
-510 -514 0
-511 -512 0
-511 -513 0
-511 -514 0
-512 -513 0
-512 -514 0
-513 -514 0
515 516 517 518 519 520 521 522 523 524 0
-515 -516 0
-515 -517 0
-515 -518 0
-515 -519 0
-515 -520 0
-515 -521 0
-515 -522 0
-515 -523 0
-515 -524 0
-516 -517 0
-516 -518 0
-516 -519 0
-516 -520 0
-516 -521 0
-516 -522 0
-516 -523 0
-516 -524 0
-517 -518 0
-517 -519 0
-517 -520 0
-517 -521 0
-517 -522 0
-517 -523 0
-517 -524 0
-518 -519 0
-518 -520 0
-518 -521 0
-518 -522 0
-518 -523 0
-518 -524 0
-519 -520 0
-519 -521 0
-519 -522 0
-519 -523 0
-519 -524 0
-520 -521 0
-520 -522 0
-520 -523 0
-520 -524 0
-521 -522 0
-521 -523 0
-521 -524 0
-522 -523 0
-522 -524 0
-523 -524 0
525 526 527 528 529 530 531 532 0
-525 -526 0
-525 -527 0
-525 -528 0
-525 -529 0
-525 -530 0
-525 -531 0
-525 -532 0
-526 -527 0
-526 -528 0
-526 -529 0
-526 -530 0
-526 -531 0
-526 -532 0
-527 -528 0
-527 -529 0
-527 -530 0
-527 -531 0
-527 -532 0
-528 -529 0
-528 -530 0
-528 -531 0
-528 -532 0
-529 -530 0
-529 -531 0
-529 -532 0
-530 -531 0
-530 -532 0
-531 -532 0
533 534 535 536 537 538 539 540 0
-533 -534 0
-533 -535 0
-533 -536 0
-533 -537 0
-533 -538 0
-533 -539 0
-533 -540 0
-534 -535 0
-534 -536 0
-534 -537 0
-534 -538 0
-534 -539 0
-534 -540 0
-535 -536 0
-535 -537 0
-535 -538 0
-535 -539 0
-535 -540 0
-536 -537 0
-536 -538 0
-536 -539 0
-536 -540 0
-537 -538 0
-537 -539 0
-537 -540 0
-538 -539 0
-538 -540 0
-539 -540 0
541 542 543 544 545 546 547 0
-541 -542 0
-541 -543 0
-541 -544 0
-541 -545 0
-541 -546 0
-541 -547 0
-542 -543 0
-542 -544 0
-542 -545 0
-542 -546 0
-542 -547 0
-543 -544 0
-543 -545 0
-543 -546 0
-543 -547 0
-544 -545 0
-544 -546 0
-544 -547 0
-545 -546 0
-545 -547 0
-546 -547 0
548 549 550 551 552 553 554 555 0
-548 -549 0
-548 -550 0
-548 -551 0
-548 -552 0
-548 -553 0
-548 -554 0
-548 -555 0
-549 -550 0
-549 -551 0
-549 -552 0
-549 -553 0
-549 -554 0
-549 -555 0
-550 -551 0
-550 -552 0
-550 -553 0
-550 -554 0
-550 -555 0
-551 -552 0
-551 -553 0
-551 -554 0
-551 -555 0
-552 -553 0
-552 -554 0
-552 -555 0
-553 -554 0
-553 -555 0
-554 -555 0
556 557 558 559 560 561 0
-556 -557 0
-556 -558 0
-556 -559 0
-556 -560 0
-556 -561 0
-557 -558 0
-557 -559 0
-557 -560 0
-557 -561 0
-558 -559 0
-558 -560 0
-558 -561 0
-559 -560 0
-559 -561 0
-560 -561 0
562 563 564 565 566 567 568 0
-562 -563 0
-562 -564 0
-562 -565 0
-562 -566 0
-562 -567 0
-562 -568 0
-563 -564 0
-563 -565 0
-563 -566 0
-563 -567 0
-563 -568 0
-564 -565 0
-564 -566 0
-564 -567 0
-564 -568 0
-565 -566 0
-565 -567 0
-565 -568 0
-566 -567 0
-566 -568 0
-567 -568 0
569 570 571 572 573 574 575 0
-569 -570 0
-569 -571 0
-569 -572 0
-569 -573 0
-569 -574 0
-569 -575 0
-570 -571 0
-570 -572 0
-570 -573 0
-570 -574 0
-570 -575 0
-571 -572 0
-571 -573 0
-571 -574 0
-571 -575 0
-572 -573 0
-572 -574 0
-572 -575 0
-573 -574 0
-573 -575 0
-574 -575 0
576 577 578 579 580 581 582 583 0
-576 -577 0
-576 -578 0
-576 -579 0
-576 -580 0
-576 -581 0
-576 -582 0
-576 -583 0
-577 -578 0
-577 -579 0
-577 -580 0
-577 -581 0
-577 -582 0
-577 -583 0
-578 -579 0
-578 -580 0
-578 -581 0
-578 -582 0
-578 -583 0
-579 -580 0
-579 -581 0
-579 -582 0
-579 -583 0
-580 -581 0
-580 -582 0
-580 -583 0
-581 -582 0
-581 -583 0
-582 -583 0
584 585 586 587 588 589 590 591 592 0
-584 -585 0
-584 -586 0
-584 -587 0
-584 -588 0
-584 -589 0
-584 -590 0
-584 -591 0
-584 -592 0
-585 -586 0
-585 -587 0
-585 -588 0
-585 -589 0
-585 -590 0
-585 -591 0
-585 -592 0
-586 -587 0
-586 -588 0
-586 -589 0
-586 -590 0
-586 -591 0
-586 -592 0
-587 -588 0
-587 -589 0
-587 -590 0
-587 -591 0
-587 -592 0
-588 -589 0
-588 -590 0
-588 -591 0
-588 -592 0
-589 -590 0
-589 -591 0
-589 -592 0
-590 -591 0
-590 -592 0
-591 -592 0
593 594 595 596 597 598 599 0
-593 -594 0
-593 -595 0
-593 -596 0
-593 -597 0
-593 -598 0
-593 -599 0
-594 -595 0
-594 -596 0
-594 -597 0
-594 -598 0
-594 -599 0
-595 -596 0
-595 -597 0
-595 -598 0
-595 -599 0
-596 -597 0
-596 -598 0
-596 -599 0
-597 -598 0
-597 -599 0
-598 -599 0
600 601 602 603 604 605 606 607 608 609 0
-600 -601 0
-600 -602 0
-600 -603 0
-600 -604 0
-600 -605 0
-600 -606 0
-600 -607 0
-600 -608 0
-600 -609 0
-601 -602 0
-601 -603 0
-601 -604 0
-601 -605 0
-601 -606 0
-601 -607 0
-601 -608 0
-601 -609 0
-602 -603 0
-602 -604 0
-602 -605 0
-602 -606 0
-602 -607 0
-602 -608 0
-602 -609 0
-603 -604 0
-603 -605 0
-603 -606 0
-603 -607 0
-603 -608 0
-603 -609 0
-604 -605 0
-604 -606 0
-604 -607 0
-604 -608 0
-604 -609 0
-605 -606 0
-605 -607 0
-605 -608 0
-605 -609 0
-606 -607 0
-606 -608 0
-606 -609 0
-607 -608 0
-607 -609 0
-608 -609 0
610 611 612 613 614 615 0
-610 -611 0
-610 -612 0
-610 -613 0
-610 -614 0
-610 -615 0
-611 -612 0
-611 -613 0
-611 -614 0
-611 -615 0
-612 -613 0
-612 -614 0
-612 -615 0
-613 -614 0
-613 -615 0
-614 -615 0
616 617 618 619 620 621 622 0
-616 -617 0
-616 -618 0
-616 -619 0
-616 -620 0
-616 -621 0
-616 -622 0
-617 -618 0
-617 -619 0
-617 -620 0
-617 -621 0
-617 -622 0
-618 -619 0
-618 -620 0
-618 -621 0
-618 -622 0
-619 -620 0
-619 -621 0
-619 -622 0
-620 -621 0
-620 -622 0
-621 -622 0
623 624 625 626 627 628 629 0
-623 -624 0
-623 -625 0
-623 -626 0
-623 -627 0
-623 -628 0
-623 -629 0
-624 -625 0
-624 -626 0
-624 -627 0
-624 -628 0
-624 -629 0
-625 -626 0
-625 -627 0
-625 -628 0
-625 -629 0
-626 -627 0
-626 -628 0
-626 -629 0
-627 -628 0
-627 -629 0
-628 -629 0
630 631 632 633 634 635 636 637 0
-630 -631 0
-630 -632 0
-630 -633 0
-630 -634 0
-630 -635 0
-630 -636 0
-630 -637 0
-631 -632 0
-631 -633 0
-631 -634 0
-631 -635 0
-631 -636 0
-631 -637 0
-632 -633 0
-632 -634 0
-632 -635 0
-632 -636 0
-632 -637 0
-633 -634 0
-633 -635 0
-633 -636 0
-633 -637 0
-634 -635 0
-634 -636 0
-634 -637 0
-635 -636 0
-635 -637 0
-636 -637 0
638 639 640 641 642 643 644 645 646 0
-638 -639 0
-638 -640 0
-638 -641 0
-638 -642 0
-638 -643 0
-638 -644 0
-638 -645 0
-638 -646 0
-639 -640 0
-639 -641 0
-639 -642 0
-639 -643 0
-639 -644 0
-639 -645 0
-639 -646 0
-640 -641 0
-640 -642 0
-640 -643 0
-640 -644 0
-640 -645 0
-640 -646 0
-641 -642 0
-641 -643 0
-641 -644 0
-641 -645 0
-641 -646 0
-642 -643 0
-642 -644 0
-642 -645 0
-642 -646 0
-643 -644 0
-643 -645 0
-643 -646 0
-644 -645 0
-644 -646 0
-645 -646 0
647 648 649 650 651 652 653 0
-647 -648 0
-647 -649 0
-647 -650 0
-647 -651 0
-647 -652 0
-647 -653 0
-648 -649 0
-648 -650 0
-648 -651 0
-648 -652 0
-648 -653 0
-649 -650 0
-649 -651 0
-649 -652 0
-649 -653 0
-650 -651 0
-650 -652 0
-650 -653 0
-651 -652 0
-651 -653 0
-652 -653 0
654 655 656 657 658 659 660 0
-654 -655 0
-654 -656 0
-654 -657 0
-654 -658 0
-654 -659 0
-654 -660 0
-655 -656 0
-655 -657 0
-655 -658 0
-655 -659 0
-655 -660 0
-656 -657 0
-656 -658 0
-656 -659 0
-656 -660 0
-657 -658 0
-657 -659 0
-657 -660 0
-658 -659 0
-658 -660 0
-659 -660 0
661 662 663 664 665 666 0
-661 -662 0
-661 -663 0
-661 -664 0
-661 -665 0
-661 -666 0
-662 -663 0
-662 -664 0
-662 -665 0
-662 -666 0
-663 -664 0
-663 -665 0
-663 -666 0
-664 -665 0
-664 -666 0
-665 -666 0
667 668 669 670 671 672 673 674 675 676 0
-667 -668 0
-667 -669 0
-667 -670 0
-667 -671 0
-667 -672 0
-667 -673 0
-667 -674 0
-667 -675 0
-667 -676 0
-668 -669 0
-668 -670 0
-668 -671 0
-668 -672 0
-668 -673 0
-668 -674 0
-668 -675 0
-668 -676 0
-669 -670 0
-669 -671 0
-669 -672 0
-669 -673 0
-669 -674 0
-669 -675 0
-669 -676 0
-670 -671 0
-670 -672 0
-670 -673 0
-670 -674 0
-670 -675 0
-670 -676 0
-671 -672 0
-671 -673 0
-671 -674 0
-671 -675 0
-671 -676 0
-672 -673 0
-672 -674 0
-672 -675 0
-672 -676 0
-673 -674 0
-673 -675 0
-673 -676 0
-674 -675 0
-674 -676 0
-675 -676 0
677 678 679 680 681 682 683 0
-677 -678 0
-677 -679 0
-677 -680 0
-677 -681 0
-677 -682 0
-677 -683 0
-678 -679 0
-678 -680 0
-678 -681 0
-678 -682 0
-678 -683 0
-679 -680 0
-679 -681 0
-679 -682 0
-679 -683 0
-680 -681 0
-680 -682 0
-680 -683 0
-681 -682 0
-681 -683 0
-682 -683 0
684 685 686 687 688 689 0
-684 -685 0
-684 -686 0
-684 -687 0
-684 -688 0
-684 -689 0
-685 -686 0
-685 -687 0
-685 -688 0
-685 -689 0
-686 -687 0
-686 -688 0
-686 -689 0
-687 -688 0
-687 -689 0
-688 -689 0
690 691 692 693 694 695 696 0
-690 -691 0
-690 -692 0
-690 -693 0
-690 -694 0
-690 -695 0
-690 -696 0
-691 -692 0
-691 -693 0
-691 -694 0
-691 -695 0
-691 -696 0
-692 -693 0
-692 -694 0
-692 -695 0
-692 -696 0
-693 -694 0
-693 -695 0
-693 -696 0
-694 -695 0
-694 -696 0
-695 -696 0
697 698 699 700 701 702 703 704 705 0
-697 -698 0
-697 -699 0
-697 -700 0
-697 -701 0
-697 -702 0
-697 -703 0
-697 -704 0
-697 -705 0
-698 -699 0
-698 -700 0
-698 -701 0
-698 -702 0
-698 -703 0
-698 -704 0
-698 -705 0
-699 -700 0
-699 -701 0
-699 -702 0
-699 -703 0
-699 -704 0
-699 -705 0
-700 -701 0
-700 -702 0
-700 -703 0
-700 -704 0
-700 -705 0
-701 -702 0
-701 -703 0
-701 -704 0
-701 -705 0
-702 -703 0
-702 -704 0
-702 -705 0
-703 -704 0
-703 -705 0
-704 -705 0
706 707 708 709 710 711 712 0
-706 -707 0
-706 -708 0
-706 -709 0
-706 -710 0
-706 -711 0
-706 -712 0
-707 -708 0
-707 -709 0
-707 -710 0
-707 -711 0
-707 -712 0
-708 -709 0
-708 -710 0
-708 -711 0
-708 -712 0
-709 -710 0
-709 -711 0
-709 -712 0
-710 -711 0
-710 -712 0
-711 -712 0
713 714 715 716 717 718 0
-713 -714 0
-713 -715 0
-713 -716 0
-713 -717 0
-713 -718 0
-714 -715 0
-714 -716 0
-714 -717 0
-714 -718 0
-715 -716 0
-715 -717 0
-715 -718 0
-716 -717 0
-716 -718 0
-717 -718 0
719 0
720 721 722 723 724 725 726 0
-720 -721 0
-720 -722 0
-720 -723 0
-720 -724 0
-720 -725 0
-720 -726 0
-721 -722 0
-721 -723 0
-721 -724 0
-721 -725 0
-721 -726 0
-722 -723 0
-722 -724 0
-722 -725 0
-722 -726 0
-723 -724 0
-723 -725 0
-723 -726 0
-724 -725 0
-724 -726 0
-725 -726 0
727 728 729 730 731 732 733 0
-727 -728 0
-727 -729 0
-727 -730 0
-727 -731 0
-727 -732 0
-727 -733 0
-728 -729 0
-728 -730 0
-728 -731 0
-728 -732 0
-728 -733 0
-729 -730 0
-729 -731 0
-729 -732 0
-729 -733 0
-730 -731 0
-730 -732 0
-730 -733 0
-731 -732 0
-731 -733 0
-732 -733 0
734 735 736 737 738 739 740 741 0
-734 -735 0
-734 -736 0
-734 -737 0
-734 -738 0
-734 -739 0
-734 -740 0
-734 -741 0
-735 -736 0
-735 -737 0
-735 -738 0
-735 -739 0
-735 -740 0
-735 -741 0
-736 -737 0
-736 -738 0
-736 -739 0
-736 -740 0
-736 -741 0
-737 -738 0
-737 -739 0
-737 -740 0
-737 -741 0
-738 -739 0
-738 -740 0
-738 -741 0
-739 -740 0
-739 -741 0
-740 -741 0
742 743 744 745 746 747 748 0
-742 -743 0
-742 -744 0
-742 -745 0
-742 -746 0
-742 -747 0
-742 -748 0
-743 -744 0
-743 -745 0
-743 -746 0
-743 -747 0
-743 -748 0
-744 -745 0
-744 -746 0
-744 -747 0
-744 -748 0
-745 -746 0
-745 -747 0
-745 -748 0
-746 -747 0
-746 -748 0
-747 -748 0
749 750 751 752 753 754 755 756 0
-749 -750 0
-749 -751 0
-749 -752 0
-749 -753 0
-749 -754 0
-749 -755 0
-749 -756 0
-750 -751 0
-750 -752 0
-750 -753 0
-750 -754 0
-750 -755 0
-750 -756 0
-751 -752 0
-751 -753 0
-751 -754 0
-751 -755 0
-751 -756 0
-752 -753 0
-752 -754 0
-752 -755 0
-752 -756 0
-753 -754 0
-753 -755 0
-753 -756 0
-754 -755 0
-754 -756 0
-755 -756 0
757 758 759 760 761 762 763 0
-757 -758 0
-757 -759 0
-757 -760 0
-757 -761 0
-757 -762 0
-757 -763 0
-758 -759 0
-758 -760 0
-758 -761 0
-758 -762 0
-758 -763 0
-759 -760 0
-759 -761 0
-759 -762 0
-759 -763 0
-760 -761 0
-760 -762 0
-760 -763 0
-761 -762 0
-761 -763 0
-762 -763 0
764 765 766 767 768 769 770 771 0
-764 -765 0
-764 -766 0
-764 -767 0
-764 -768 0
-764 -769 0
-764 -770 0
-764 -771 0
-765 -766 0
-765 -767 0
-765 -768 0
-765 -769 0
-765 -770 0
-765 -771 0
-766 -767 0
-766 -768 0
-766 -769 0
-766 -770 0
-766 -771 0
-767 -768 0
-767 -769 0
-767 -770 0
-767 -771 0
-768 -769 0
-768 -770 0
-768 -771 0
-769 -770 0
-769 -771 0
-770 -771 0
772 773 774 775 776 777 778 0
-772 -773 0
-772 -774 0
-772 -775 0
-772 -776 0
-772 -777 0
-772 -778 0
-773 -774 0
-773 -775 0
-773 -776 0
-773 -777 0
-773 -778 0
-774 -775 0
-774 -776 0
-774 -777 0
-774 -778 0
-775 -776 0
-775 -777 0
-775 -778 0
-776 -777 0
-776 -778 0
-777 -778 0
779 780 781 782 783 784 785 0
-779 -780 0
-779 -781 0
-779 -782 0
-779 -783 0
-779 -784 0
-779 -785 0
-780 -781 0
-780 -782 0
-780 -783 0
-780 -784 0
-780 -785 0
-781 -782 0
-781 -783 0
-781 -784 0
-781 -785 0
-782 -783 0
-782 -784 0
-782 -785 0
-783 -784 0
-783 -785 0
-784 -785 0
786 787 788 789 790 791 0
-786 -787 0
-786 -788 0
-786 -789 0
-786 -790 0
-786 -791 0
-787 -788 0
-787 -789 0
-787 -790 0
-787 -791 0
-788 -789 0
-788 -790 0
-788 -791 0
-789 -790 0
-789 -791 0
-790 -791 0
792 793 794 795 796 797 798 799 0
-792 -793 0
-792 -794 0
-792 -795 0
-792 -796 0
-792 -797 0
-792 -798 0
-792 -799 0
-793 -794 0
-793 -795 0
-793 -796 0
-793 -797 0
-793 -798 0
-793 -799 0
-794 -795 0
-794 -796 0
-794 -797 0
-794 -798 0
-794 -799 0
-795 -796 0
-795 -797 0
-795 -798 0
-795 -799 0
-796 -797 0
-796 -798 0
-796 -799 0
-797 -798 0
-797 -799 0
-798 -799 0
800 801 802 803 804 805 806 807 808 809 0
-800 -801 0
-800 -802 0
-800 -803 0
-800 -804 0
-800 -805 0
-800 -806 0
-800 -807 0
-800 -808 0
-800 -809 0
-801 -802 0
-801 -803 0
-801 -804 0
-801 -805 0
-801 -806 0
-801 -807 0
-801 -808 0
-801 -809 0
-802 -803 0
-802 -804 0
-802 -805 0
-802 -806 0
-802 -807 0
-802 -808 0
-802 -809 0
-803 -804 0
-803 -805 0
-803 -806 0
-803 -807 0
-803 -808 0
-803 -809 0
-804 -805 0
-804 -806 0
-804 -807 0
-804 -808 0
-804 -809 0
-805 -806 0
-805 -807 0
-805 -808 0
-805 -809 0
-806 -807 0
-806 -808 0
-806 -809 0
-807 -808 0
-807 -809 0
-808 -809 0
810 811 812 813 814 815 816 0
-810 -811 0
-810 -812 0
-810 -813 0
-810 -814 0
-810 -815 0
-810 -816 0
-811 -812 0
-811 -813 0
-811 -814 0
-811 -815 0
-811 -816 0
-812 -813 0
-812 -814 0
-812 -815 0
-812 -816 0
-813 -814 0
-813 -815 0
-813 -816 0
-814 -815 0
-814 -816 0
-815 -816 0
817 818 819 820 821 822 823 824 825 0
-817 -818 0
-817 -819 0
-817 -820 0
-817 -821 0
-817 -822 0
-817 -823 0
-817 -824 0
-817 -825 0
-818 -819 0
-818 -820 0
-818 -821 0
-818 -822 0
-818 -823 0
-818 -824 0
-818 -825 0
-819 -820 0
-819 -821 0
-819 -822 0
-819 -823 0
-819 -824 0
-819 -825 0
-820 -821 0
-820 -822 0
-820 -823 0
-820 -824 0
-820 -825 0
-821 -822 0
-821 -823 0
-821 -824 0
-821 -825 0
-822 -823 0
-822 -824 0
-822 -825 0
-823 -824 0
-823 -825 0
-824 -825 0
826 827 828 829 830 831 832 0
-826 -827 0
-826 -828 0
-826 -829 0
-826 -830 0
-826 -831 0
-826 -832 0
-827 -828 0
-827 -829 0
-827 -830 0
-827 -831 0
-827 -832 0
-828 -829 0
-828 -830 0
-828 -831 0
-828 -832 0
-829 -830 0
-829 -831 0
-829 -832 0
-830 -831 0
-830 -832 0
-831 -832 0
833 834 835 836 837 838 0
-833 -834 0
-833 -835 0
-833 -836 0
-833 -837 0
-833 -838 0
-834 -835 0
-834 -836 0
-834 -837 0
-834 -838 0
-835 -836 0
-835 -837 0
-835 -838 0
-836 -837 0
-836 -838 0
-837 -838 0
839 840 841 842 843 844 845 846 0
-839 -840 0
-839 -841 0
-839 -842 0
-839 -843 0
-839 -844 0
-839 -845 0
-839 -846 0
-840 -841 0
-840 -842 0
-840 -843 0
-840 -844 0
-840 -845 0
-840 -846 0
-841 -842 0
-841 -843 0
-841 -844 0
-841 -845 0
-841 -846 0
-842 -843 0
-842 -844 0
-842 -845 0
-842 -846 0
-843 -844 0
-843 -845 0
-843 -846 0
-844 -845 0
-844 -846 0
-845 -846 0
847 848 849 850 851 852 853 0
-847 -848 0
-847 -849 0
-847 -850 0
-847 -851 0
-847 -852 0
-847 -853 0
-848 -849 0
-848 -850 0
-848 -851 0
-848 -852 0
-848 -853 0
-849 -850 0
-849 -851 0
-849 -852 0
-849 -853 0
-850 -851 0
-850 -852 0
-850 -853 0
-851 -852 0
-851 -853 0
-852 -853 0
854 855 856 857 858 859 860 861 0
-854 -855 0
-854 -856 0
-854 -857 0
-854 -858 0
-854 -859 0
-854 -860 0
-854 -861 0
-855 -856 0
-855 -857 0
-855 -858 0
-855 -859 0
-855 -860 0
-855 -861 0
-856 -857 0
-856 -858 0
-856 -859 0
-856 -860 0
-856 -861 0
-857 -858 0
-857 -859 0
-857 -860 0
-857 -861 0
-858 -859 0
-858 -860 0
-858 -861 0
-859 -860 0
-859 -861 0
-860 -861 0
862 863 864 865 866 867 868 0
-862 -863 0
-862 -864 0
-862 -865 0
-862 -866 0
-862 -867 0
-862 -868 0
-863 -864 0
-863 -865 0
-863 -866 0
-863 -867 0
-863 -868 0
-864 -865 0
-864 -866 0
-864 -867 0
-864 -868 0
-865 -866 0
-865 -867 0
-865 -868 0
-866 -867 0
-866 -868 0
-867 -868 0
869 870 871 872 873 874 875 0
-869 -870 0
-869 -871 0
-869 -872 0
-869 -873 0
-869 -874 0
-869 -875 0
-870 -871 0
-870 -872 0
-870 -873 0
-870 -874 0
-870 -875 0
-871 -872 0
-871 -873 0
-871 -874 0
-871 -875 0
-872 -873 0
-872 -874 0
-872 -875 0
-873 -874 0
-873 -875 0
-874 -875 0
876 877 878 879 880 881 882 0
-876 -877 0
-876 -878 0
-876 -879 0
-876 -880 0
-876 -881 0
-876 -882 0
-877 -878 0
-877 -879 0
-877 -880 0
-877 -881 0
-877 -882 0
-878 -879 0
-878 -880 0
-878 -881 0
-878 -882 0
-879 -880 0
-879 -881 0
-879 -882 0
-880 -881 0
-880 -882 0
-881 -882 0
883 884 885 886 887 888 889 0
-883 -884 0
-883 -885 0
-883 -886 0
-883 -887 0
-883 -888 0
-883 -889 0
-884 -885 0
-884 -886 0
-884 -887 0
-884 -888 0
-884 -889 0
-885 -886 0
-885 -887 0
-885 -888 0
-885 -889 0
-886 -887 0
-886 -888 0
-886 -889 0
-887 -888 0
-887 -889 0
-888 -889 0
890 891 892 893 894 895 896 897 898 899 0
-890 -891 0
-890 -892 0
-890 -893 0
-890 -894 0
-890 -895 0
-890 -896 0
-890 -897 0
-890 -898 0
-890 -899 0
-891 -892 0
-891 -893 0
-891 -894 0
-891 -895 0
-891 -896 0
-891 -897 0
-891 -898 0
-891 -899 0
-892 -893 0
-892 -894 0
-892 -895 0
-892 -896 0
-892 -897 0
-892 -898 0
-892 -899 0
-893 -894 0
-893 -895 0
-893 -896 0
-893 -897 0
-893 -898 0
-893 -899 0
-894 -895 0
-894 -896 0
-894 -897 0
-894 -898 0
-894 -899 0
-895 -896 0
-895 -897 0
-895 -898 0
-895 -899 0
-896 -897 0
-896 -898 0
-896 -899 0
-897 -898 0
-897 -899 0
-898 -899 0
900 901 902 903 904 905 906 907 0
-900 -901 0
-900 -902 0
-900 -903 0
-900 -904 0
-900 -905 0
-900 -906 0
-900 -907 0
-901 -902 0
-901 -903 0
-901 -904 0
-901 -905 0
-901 -906 0
-901 -907 0
-902 -903 0
-902 -904 0
-902 -905 0
-902 -906 0
-902 -907 0
-903 -904 0
-903 -905 0
-903 -906 0
-903 -907 0
-904 -905 0
-904 -906 0
-904 -907 0
-905 -906 0
-905 -907 0
-906 -907 0
908 909 910 911 912 913 0
-908 -909 0
-908 -910 0
-908 -911 0
-908 -912 0
-908 -913 0
-909 -910 0
-909 -911 0
-909 -912 0
-909 -913 0
-910 -911 0
-910 -912 0
-910 -913 0
-911 -912 0
-911 -913 0
-912 -913 0
914 915 916 917 918 919 920 921 922 923 0
-914 -915 0
-914 -916 0
-914 -917 0
-914 -918 0
-914 -919 0
-914 -920 0
-914 -921 0
-914 -922 0
-914 -923 0
-915 -916 0
-915 -917 0
-915 -918 0
-915 -919 0
-915 -920 0
-915 -921 0
-915 -922 0
-915 -923 0
-916 -917 0
-916 -918 0
-916 -919 0
-916 -920 0
-916 -921 0
-916 -922 0
-916 -923 0
-917 -918 0
-917 -919 0
-917 -920 0
-917 -921 0
-917 -922 0
-917 -923 0
-918 -919 0
-918 -920 0
-918 -921 0
-918 -922 0
-918 -923 0
-919 -920 0
-919 -921 0
-919 -922 0
-919 -923 0
-920 -921 0
-920 -922 0
-920 -923 0
-921 -922 0
-921 -923 0
-922 -923 0
924 925 926 927 928 929 930 0
-924 -925 0
-924 -926 0
-924 -927 0
-924 -928 0
-924 -929 0
-924 -930 0
-925 -926 0
-925 -927 0
-925 -928 0
-925 -929 0
-925 -930 0
-926 -927 0
-926 -928 0
-926 -929 0
-926 -930 0
-927 -928 0
-927 -929 0
-927 -930 0
-928 -929 0
-928 -930 0
-929 -930 0
931 932 933 934 935 936 937 938 939 0
-931 -932 0
-931 -933 0
-931 -934 0
-931 -935 0
-931 -936 0
-931 -937 0
-931 -938 0
-931 -939 0
-932 -933 0
-932 -934 0
-932 -935 0
-932 -936 0
-932 -937 0
-932 -938 0
-932 -939 0
-933 -934 0
-933 -935 0
-933 -936 0
-933 -937 0
-933 -938 0
-933 -939 0
-934 -935 0
-934 -936 0
-934 -937 0
-934 -938 0
-934 -939 0
-935 -936 0
-935 -937 0
-935 -938 0
-935 -939 0
-936 -937 0
-936 -938 0
-936 -939 0
-937 -938 0
-937 -939 0
-938 -939 0
940 941 942 943 944 945 946 947 0
-940 -941 0
-940 -942 0
-940 -943 0
-940 -944 0
-940 -945 0
-940 -946 0
-940 -947 0
-941 -942 0
-941 -943 0
-941 -944 0
-941 -945 0
-941 -946 0
-941 -947 0
-942 -943 0
-942 -944 0
-942 -945 0
-942 -946 0
-942 -947 0
-943 -944 0
-943 -945 0
-943 -946 0
-943 -947 0
-944 -945 0
-944 -946 0
-944 -947 0
-945 -946 0
-945 -947 0
-946 -947 0
948 949 950 951 952 953 954 0
-948 -949 0
-948 -950 0
-948 -951 0
-948 -952 0
-948 -953 0
-948 -954 0
-949 -950 0
-949 -951 0
-949 -952 0
-949 -953 0
-949 -954 0
-950 -951 0
-950 -952 0
-950 -953 0
-950 -954 0
-951 -952 0
-951 -953 0
-951 -954 0
-952 -953 0
-952 -954 0
-953 -954 0
955 956 957 958 959 960 961 0
-955 -956 0
-955 -957 0
-955 -958 0
-955 -959 0
-955 -960 0
-955 -961 0
-956 -957 0
-956 -958 0
-956 -959 0
-956 -960 0
-956 -961 0
-957 -958 0
-957 -959 0
-957 -960 0
-957 -961 0
-958 -959 0
-958 -960 0
-958 -961 0
-959 -960 0
-959 -961 0
-960 -961 0
962 963 964 965 966 967 968 969 0
-962 -963 0
-962 -964 0
-962 -965 0
-962 -966 0
-962 -967 0
-962 -968 0
-962 -969 0
-963 -964 0
-963 -965 0
-963 -966 0
-963 -967 0
-963 -968 0
-963 -969 0
-964 -965 0
-964 -966 0
-964 -967 0
-964 -968 0
-964 -969 0
-965 -966 0
-965 -967 0
-965 -968 0
-965 -969 0
-966 -967 0
-966 -968 0
-966 -969 0
-967 -968 0
-967 -969 0
-968 -969 0
970 971 972 973 974 975 976 0
-970 -971 0
-970 -972 0
-970 -973 0
-970 -974 0
-970 -975 0
-970 -976 0
-971 -972 0
-971 -973 0
-971 -974 0
-971 -975 0
-971 -976 0
-972 -973 0
-972 -974 0
-972 -975 0
-972 -976 0
-973 -974 0
-973 -975 0
-973 -976 0
-974 -975 0
-974 -976 0
-975 -976 0
977 978 979 980 981 982 983 0
-977 -978 0
-977 -979 0
-977 -980 0
-977 -981 0
-977 -982 0
-977 -983 0
-978 -979 0
-978 -980 0
-978 -981 0
-978 -982 0
-978 -983 0
-979 -980 0
-979 -981 0
-979 -982 0
-979 -983 0
-980 -981 0
-980 -982 0
-980 -983 0
-981 -982 0
-981 -983 0
-982 -983 0
984 985 986 987 988 989 990 991 0
-984 -985 0
-984 -986 0
-984 -987 0
-984 -988 0
-984 -989 0
-984 -990 0
-984 -991 0
-985 -986 0
-985 -987 0
-985 -988 0
-985 -989 0
-985 -990 0
-985 -991 0
-986 -987 0
-986 -988 0
-986 -989 0
-986 -990 0
-986 -991 0
-987 -988 0
-987 -989 0
-987 -990 0
-987 -991 0
-988 -989 0
-988 -990 0
-988 -991 0
-989 -990 0
-989 -991 0
-990 -991 0
992 993 994 995 996 997 998 999 0
-992 -993 0
-992 -994 0
-992 -995 0
-992 -996 0
-992 -997 0
-992 -998 0
-992 -999 0
-993 -994 0
-993 -995 0
-993 -996 0
-993 -997 0
-993 -998 0
-993 -999 0
-994 -995 0
-994 -996 0
-994 -997 0
-994 -998 0
-994 -999 0
-995 -996 0
-995 -997 0
-995 -998 0
-995 -999 0
-996 -997 0
-996 -998 0
-996 -999 0
-997 -998 0
-997 -999 0
-998 -999 0
1000 1001 1002 1003 1004 1005 1006 0
-1000 -1001 0
-1000 -1002 0
-1000 -1003 0
-1000 -1004 0
-1000 -1005 0
-1000 -1006 0
-1001 -1002 0
-1001 -1003 0
-1001 -1004 0
-1001 -1005 0
-1001 -1006 0
-1002 -1003 0
-1002 -1004 0
-1002 -1005 0
-1002 -1006 0
-1003 -1004 0
-1003 -1005 0
-1003 -1006 0
-1004 -1005 0
-1004 -1006 0
-1005 -1006 0
1007 1008 1009 1010 1011 1012 1013 0
-1007 -1008 0
-1007 -1009 0
-1007 -1010 0
-1007 -1011 0
-1007 -1012 0
-1007 -1013 0
-1008 -1009 0
-1008 -1010 0
-1008 -1011 0
-1008 -1012 0
-1008 -1013 0
-1009 -1010 0
-1009 -1011 0
-1009 -1012 0
-1009 -1013 0
-1010 -1011 0
-1010 -1012 0
-1010 -1013 0
-1011 -1012 0
-1011 -1013 0
-1012 -1013 0
1014 1015 1016 1017 1018 1019 1020 1021 0
-1014 -1015 0
-1014 -1016 0
-1014 -1017 0
-1014 -1018 0
-1014 -1019 0
-1014 -1020 0
-1014 -1021 0
-1015 -1016 0
-1015 -1017 0
-1015 -1018 0
-1015 -1019 0
-1015 -1020 0
-1015 -1021 0
-1016 -1017 0
-1016 -1018 0
-1016 -1019 0
-1016 -1020 0
-1016 -1021 0
-1017 -1018 0
-1017 -1019 0
-1017 -1020 0
-1017 -1021 0
-1018 -1019 0
-1018 -1020 0
-1018 -1021 0
-1019 -1020 0
-1019 -1021 0
-1020 -1021 0
1022 1023 1024 1025 1026 1027 1028 0
-1022 -1023 0
-1022 -1024 0
-1022 -1025 0
-1022 -1026 0
-1022 -1027 0
-1022 -1028 0
-1023 -1024 0
-1023 -1025 0
-1023 -1026 0
-1023 -1027 0
-1023 -1028 0
-1024 -1025 0
-1024 -1026 0
-1024 -1027 0
-1024 -1028 0
-1025 -1026 0
-1025 -1027 0
-1025 -1028 0
-1026 -1027 0
-1026 -1028 0
-1027 -1028 0
1029 1030 1031 1032 1033 1034 1035 0
-1029 -1030 0
-1029 -1031 0
-1029 -1032 0
-1029 -1033 0
-1029 -1034 0
-1029 -1035 0
-1030 -1031 0
-1030 -1032 0
-1030 -1033 0
-1030 -1034 0
-1030 -1035 0
-1031 -1032 0
-1031 -1033 0
-1031 -1034 0
-1031 -1035 0
-1032 -1033 0
-1032 -1034 0
-1032 -1035 0
-1033 -1034 0
-1033 -1035 0
-1034 -1035 0
1036 1037 1038 1039 1040 1041 1042 1043 0
-1036 -1037 0
-1036 -1038 0
-1036 -1039 0
-1036 -1040 0
-1036 -1041 0
-1036 -1042 0
-1036 -1043 0
-1037 -1038 0
-1037 -1039 0
-1037 -1040 0
-1037 -1041 0
-1037 -1042 0
-1037 -1043 0
-1038 -1039 0
-1038 -1040 0
-1038 -1041 0
-1038 -1042 0
-1038 -1043 0
-1039 -1040 0
-1039 -1041 0
-1039 -1042 0
-1039 -1043 0
-1040 -1041 0
-1040 -1042 0
-1040 -1043 0
-1041 -1042 0
-1041 -1043 0
-1042 -1043 0
1044 1045 1046 1047 1048 1049 1050 0
-1044 -1045 0
-1044 -1046 0
-1044 -1047 0
-1044 -1048 0
-1044 -1049 0
-1044 -1050 0
-1045 -1046 0
-1045 -1047 0
-1045 -1048 0
-1045 -1049 0
-1045 -1050 0
-1046 -1047 0
-1046 -1048 0
-1046 -1049 0
-1046 -1050 0
-1047 -1048 0
-1047 -1049 0
-1047 -1050 0
-1048 -1049 0
-1048 -1050 0
-1049 -1050 0
1051 1052 1053 1054 1055 1056 1057 1058 1059 1060 0
-1051 -1052 0
-1051 -1053 0
-1051 -1054 0
-1051 -1055 0
-1051 -1056 0
-1051 -1057 0
-1051 -1058 0
-1051 -1059 0
-1051 -1060 0
-1052 -1053 0
-1052 -1054 0
-1052 -1055 0
-1052 -1056 0
-1052 -1057 0
-1052 -1058 0
-1052 -1059 0
-1052 -1060 0
-1053 -1054 0
-1053 -1055 0
-1053 -1056 0
-1053 -1057 0
-1053 -1058 0
-1053 -1059 0
-1053 -1060 0
-1054 -1055 0
-1054 -1056 0
-1054 -1057 0
-1054 -1058 0
-1054 -1059 0
-1054 -1060 0
-1055 -1056 0
-1055 -1057 0
-1055 -1058 0
-1055 -1059 0
-1055 -1060 0
-1056 -1057 0
-1056 -1058 0
-1056 -1059 0
-1056 -1060 0
-1057 -1058 0
-1057 -1059 0
-1057 -1060 0
-1058 -1059 0
-1058 -1060 0
-1059 -1060 0
1061 1062 1063 1064 1065 1066 0
-1061 -1062 0
-1061 -1063 0
-1061 -1064 0
-1061 -1065 0
-1061 -1066 0
-1062 -1063 0
-1062 -1064 0
-1062 -1065 0
-1062 -1066 0
-1063 -1064 0
-1063 -1065 0
-1063 -1066 0
-1064 -1065 0
-1064 -1066 0
-1065 -1066 0
1067 1068 1069 1070 1071 1072 0
-1067 -1068 0
-1067 -1069 0
-1067 -1070 0
-1067 -1071 0
-1067 -1072 0
-1068 -1069 0
-1068 -1070 0
-1068 -1071 0
-1068 -1072 0
-1069 -1070 0
-1069 -1071 0
-1069 -1072 0
-1070 -1071 0
-1070 -1072 0
-1071 -1072 0
1073 1074 1075 1076 1077 1078 1079 0
-1073 -1074 0
-1073 -1075 0
-1073 -1076 0
-1073 -1077 0
-1073 -1078 0
-1073 -1079 0
-1074 -1075 0
-1074 -1076 0
-1074 -1077 0
-1074 -1078 0
-1074 -1079 0
-1075 -1076 0
-1075 -1077 0
-1075 -1078 0
-1075 -1079 0
-1076 -1077 0
-1076 -1078 0
-1076 -1079 0
-1077 -1078 0
-1077 -1079 0
-1078 -1079 0
1080 1081 1082 1083 1084 1085 1086 0
-1080 -1081 0
-1080 -1082 0
-1080 -1083 0
-1080 -1084 0
-1080 -1085 0
-1080 -1086 0
-1081 -1082 0
-1081 -1083 0
-1081 -1084 0
-1081 -1085 0
-1081 -1086 0
-1082 -1083 0
-1082 -1084 0
-1082 -1085 0
-1082 -1086 0
-1083 -1084 0
-1083 -1085 0
-1083 -1086 0
-1084 -1085 0
-1084 -1086 0
-1085 -1086 0
1087 1088 1089 1090 1091 1092 0
-1087 -1088 0
-1087 -1089 0
-1087 -1090 0
-1087 -1091 0
-1087 -1092 0
-1088 -1089 0
-1088 -1090 0
-1088 -1091 0
-1088 -1092 0
-1089 -1090 0
-1089 -1091 0
-1089 -1092 0
-1090 -1091 0
-1090 -1092 0
-1091 -1092 0
1093 1094 1095 1096 1097 1098 1099 0
-1093 -1094 0
-1093 -1095 0
-1093 -1096 0
-1093 -1097 0
-1093 -1098 0
-1093 -1099 0
-1094 -1095 0
-1094 -1096 0
-1094 -1097 0
-1094 -1098 0
-1094 -1099 0
-1095 -1096 0
-1095 -1097 0
-1095 -1098 0
-1095 -1099 0
-1096 -1097 0
-1096 -1098 0
-1096 -1099 0
-1097 -1098 0
-1097 -1099 0
-1098 -1099 0
1100 1101 1102 1103 1104 1105 1106 0
-1100 -1101 0
-1100 -1102 0
-1100 -1103 0
-1100 -1104 0
-1100 -1105 0
-1100 -1106 0
-1101 -1102 0
-1101 -1103 0
-1101 -1104 0
-1101 -1105 0
-1101 -1106 0
-1102 -1103 0
-1102 -1104 0
-1102 -1105 0
-1102 -1106 0
-1103 -1104 0
-1103 -1105 0
-1103 -1106 0
-1104 -1105 0
-1104 -1106 0
-1105 -1106 0
1107 1108 1109 1110 1111 1112 1113 1114 1115 0
-1107 -1108 0
-1107 -1109 0
-1107 -1110 0
-1107 -1111 0
-1107 -1112 0
-1107 -1113 0
-1107 -1114 0
-1107 -1115 0
-1108 -1109 0
-1108 -1110 0
-1108 -1111 0
-1108 -1112 0
-1108 -1113 0
-1108 -1114 0
-1108 -1115 0
-1109 -1110 0
-1109 -1111 0
-1109 -1112 0
-1109 -1113 0
-1109 -1114 0
-1109 -1115 0
-1110 -1111 0
-1110 -1112 0
-1110 -1113 0
-1110 -1114 0
-1110 -1115 0
-1111 -1112 0
-1111 -1113 0
-1111 -1114 0
-1111 -1115 0
-1112 -1113 0
-1112 -1114 0
-1112 -1115 0
-1113 -1114 0
-1113 -1115 0
-1114 -1115 0
1116 1117 1118 1119 1120 1121 0
-1116 -1117 0
-1116 -1118 0
-1116 -1119 0
-1116 -1120 0
-1116 -1121 0
-1117 -1118 0
-1117 -1119 0
-1117 -1120 0
-1117 -1121 0
-1118 -1119 0
-1118 -1120 0
-1118 -1121 0
-1119 -1120 0
-1119 -1121 0
-1120 -1121 0
1122 1123 1124 1125 1126 1127 1128 0
-1122 -1123 0
-1122 -1124 0
-1122 -1125 0
-1122 -1126 0
-1122 -1127 0
-1122 -1128 0
-1123 -1124 0
-1123 -1125 0
-1123 -1126 0
-1123 -1127 0
-1123 -1128 0
-1124 -1125 0
-1124 -1126 0
-1124 -1127 0
-1124 -1128 0
-1125 -1126 0
-1125 -1127 0
-1125 -1128 0
-1126 -1127 0
-1126 -1128 0
-1127 -1128 0
1129 1130 1131 1132 1133 1134 0
-1129 -1130 0
-1129 -1131 0
-1129 -1132 0
-1129 -1133 0
-1129 -1134 0
-1130 -1131 0
-1130 -1132 0
-1130 -1133 0
-1130 -1134 0
-1131 -1132 0
-1131 -1133 0
-1131 -1134 0
-1132 -1133 0
-1132 -1134 0
-1133 -1134 0
1135 1136 1137 1138 1139 1140 0
-1135 -1136 0
-1135 -1137 0
-1135 -1138 0
-1135 -1139 0
-1135 -1140 0
-1136 -1137 0
-1136 -1138 0
-1136 -1139 0
-1136 -1140 0
-1137 -1138 0
-1137 -1139 0
-1137 -1140 0
-1138 -1139 0
-1138 -1140 0
-1139 -1140 0
1141 1142 1143 1144 1145 1146 0
-1141 -1142 0
-1141 -1143 0
-1141 -1144 0
-1141 -1145 0
-1141 -1146 0
-1142 -1143 0
-1142 -1144 0
-1142 -1145 0
-1142 -1146 0
-1143 -1144 0
-1143 -1145 0
-1143 -1146 0
-1144 -1145 0
-1144 -1146 0
-1145 -1146 0
1147 1148 1149 1150 1151 1152 0
-1147 -1148 0
-1147 -1149 0
-1147 -1150 0
-1147 -1151 0
-1147 -1152 0
-1148 -1149 0
-1148 -1150 0
-1148 -1151 0
-1148 -1152 0
-1149 -1150 0
-1149 -1151 0
-1149 -1152 0
-1150 -1151 0
-1150 -1152 0
-1151 -1152 0
1153 1154 1155 1156 1157 1158 1159 0
-1153 -1154 0
-1153 -1155 0
-1153 -1156 0
-1153 -1157 0
-1153 -1158 0
-1153 -1159 0
-1154 -1155 0
-1154 -1156 0
-1154 -1157 0
-1154 -1158 0
-1154 -1159 0
-1155 -1156 0
-1155 -1157 0
-1155 -1158 0
-1155 -1159 0
-1156 -1157 0
-1156 -1158 0
-1156 -1159 0
-1157 -1158 0
-1157 -1159 0
-1158 -1159 0
1160 1161 1162 1163 1164 1165 1166 1167 1168 0
-1160 -1161 0
-1160 -1162 0
-1160 -1163 0
-1160 -1164 0
-1160 -1165 0
-1160 -1166 0
-1160 -1167 0
-1160 -1168 0
-1161 -1162 0
-1161 -1163 0
-1161 -1164 0
-1161 -1165 0
-1161 -1166 0
-1161 -1167 0
-1161 -1168 0
-1162 -1163 0
-1162 -1164 0
-1162 -1165 0
-1162 -1166 0
-1162 -1167 0
-1162 -1168 0
-1163 -1164 0
-1163 -1165 0
-1163 -1166 0
-1163 -1167 0
-1163 -1168 0
-1164 -1165 0
-1164 -1166 0
-1164 -1167 0
-1164 -1168 0
-1165 -1166 0
-1165 -1167 0
-1165 -1168 0
-1166 -1167 0
-1166 -1168 0
-1167 -1168 0
1169 1170 1171 1172 1173 1174 0
-1169 -1170 0
-1169 -1171 0
-1169 -1172 0
-1169 -1173 0
-1169 -1174 0
-1170 -1171 0
-1170 -1172 0
-1170 -1173 0
-1170 -1174 0
-1171 -1172 0
-1171 -1173 0
-1171 -1174 0
-1172 -1173 0
-1172 -1174 0
-1173 -1174 0
1175 1176 1177 1178 1179 1180 1181 0
-1175 -1176 0
-1175 -1177 0
-1175 -1178 0
-1175 -1179 0
-1175 -1180 0
-1175 -1181 0
-1176 -1177 0
-1176 -1178 0
-1176 -1179 0
-1176 -1180 0
-1176 -1181 0
-1177 -1178 0
-1177 -1179 0
-1177 -1180 0
-1177 -1181 0
-1178 -1179 0
-1178 -1180 0
-1178 -1181 0
-1179 -1180 0
-1179 -1181 0
-1180 -1181 0
1182 1183 1184 1185 1186 1187 1188 0
-1182 -1183 0
-1182 -1184 0
-1182 -1185 0
-1182 -1186 0
-1182 -1187 0
-1182 -1188 0
-1183 -1184 0
-1183 -1185 0
-1183 -1186 0
-1183 -1187 0
-1183 -1188 0
-1184 -1185 0
-1184 -1186 0
-1184 -1187 0
-1184 -1188 0
-1185 -1186 0
-1185 -1187 0
-1185 -1188 0
-1186 -1187 0
-1186 -1188 0
-1187 -1188 0
1189 1190 1191 1192 1193 1194 0
-1189 -1190 0
-1189 -1191 0
-1189 -1192 0
-1189 -1193 0
-1189 -1194 0
-1190 -1191 0
-1190 -1192 0
-1190 -1193 0
-1190 -1194 0
-1191 -1192 0
-1191 -1193 0
-1191 -1194 0
-1192 -1193 0
-1192 -1194 0
-1193 -1194 0
1195 1196 1197 1198 1199 1200 1201 0
-1195 -1196 0
-1195 -1197 0
-1195 -1198 0
-1195 -1199 0
-1195 -1200 0
-1195 -1201 0
-1196 -1197 0
-1196 -1198 0
-1196 -1199 0
-1196 -1200 0
-1196 -1201 0
-1197 -1198 0
-1197 -1199 0
-1197 -1200 0
-1197 -1201 0
-1198 -1199 0
-1198 -1200 0
-1198 -1201 0
-1199 -1200 0
-1199 -1201 0
-1200 -1201 0
1202 1203 1204 1205 1206 1207 0
-1202 -1203 0
-1202 -1204 0
-1202 -1205 0
-1202 -1206 0
-1202 -1207 0
-1203 -1204 0
-1203 -1205 0
-1203 -1206 0
-1203 -1207 0
-1204 -1205 0
-1204 -1206 0
-1204 -1207 0
-1205 -1206 0
-1205 -1207 0
-1206 -1207 0
1208 1209 1210 1211 1212 1213 1214 1215 0
-1208 -1209 0
-1208 -1210 0
-1208 -1211 0
-1208 -1212 0
-1208 -1213 0
-1208 -1214 0
-1208 -1215 0
-1209 -1210 0
-1209 -1211 0
-1209 -1212 0
-1209 -1213 0
-1209 -1214 0
-1209 -1215 0
-1210 -1211 0
-1210 -1212 0
-1210 -1213 0
-1210 -1214 0
-1210 -1215 0
-1211 -1212 0
-1211 -1213 0
-1211 -1214 0
-1211 -1215 0
-1212 -1213 0
-1212 -1214 0
-1212 -1215 0
-1213 -1214 0
-1213 -1215 0
-1214 -1215 0
1216 1217 1218 1219 1220 1221 1222 0
-1216 -1217 0
-1216 -1218 0
-1216 -1219 0
-1216 -1220 0
-1216 -1221 0
-1216 -1222 0
-1217 -1218 0
-1217 -1219 0
-1217 -1220 0
-1217 -1221 0
-1217 -1222 0
-1218 -1219 0
-1218 -1220 0
-1218 -1221 0
-1218 -1222 0
-1219 -1220 0
-1219 -1221 0
-1219 -1222 0
-1220 -1221 0
-1220 -1222 0
-1221 -1222 0
1223 1224 1225 1226 1227 1228 0
-1223 -1224 0
-1223 -1225 0
-1223 -1226 0
-1223 -1227 0
-1223 -1228 0
-1224 -1225 0
-1224 -1226 0
-1224 -1227 0
-1224 -1228 0
-1225 -1226 0
-1225 -1227 0
-1225 -1228 0
-1226 -1227 0
-1226 -1228 0
-1227 -1228 0
1229 0
1230 1231 1232 1233 1234 1235 1236 1237 1238 0
-1230 -1231 0
-1230 -1232 0
-1230 -1233 0
-1230 -1234 0
-1230 -1235 0
-1230 -1236 0
-1230 -1237 0
-1230 -1238 0
-1231 -1232 0
-1231 -1233 0
-1231 -1234 0
-1231 -1235 0
-1231 -1236 0
-1231 -1237 0
-1231 -1238 0
-1232 -1233 0
-1232 -1234 0
-1232 -1235 0
-1232 -1236 0
-1232 -1237 0
-1232 -1238 0
-1233 -1234 0
-1233 -1235 0
-1233 -1236 0
-1233 -1237 0
-1233 -1238 0
-1234 -1235 0
-1234 -1236 0
-1234 -1237 0
-1234 -1238 0
-1235 -1236 0
-1235 -1237 0
-1235 -1238 0
-1236 -1237 0
-1236 -1238 0
-1237 -1238 0
1239 1240 1241 1242 1243 1244 1245 1246 0
-1239 -1240 0
-1239 -1241 0
-1239 -1242 0
-1239 -1243 0
-1239 -1244 0
-1239 -1245 0
-1239 -1246 0
-1240 -1241 0
-1240 -1242 0
-1240 -1243 0
-1240 -1244 0
-1240 -1245 0
-1240 -1246 0
-1241 -1242 0
-1241 -1243 0
-1241 -1244 0
-1241 -1245 0
-1241 -1246 0
-1242 -1243 0
-1242 -1244 0
-1242 -1245 0
-1242 -1246 0
-1243 -1244 0
-1243 -1245 0
-1243 -1246 0
-1244 -1245 0
-1244 -1246 0
-1245 -1246 0
1247 1248 1249 1250 1251 1252 1253 0
-1247 -1248 0
-1247 -1249 0
-1247 -1250 0
-1247 -1251 0
-1247 -1252 0
-1247 -1253 0
-1248 -1249 0
-1248 -1250 0
-1248 -1251 0
-1248 -1252 0
-1248 -1253 0
-1249 -1250 0
-1249 -1251 0
-1249 -1252 0
-1249 -1253 0
-1250 -1251 0
-1250 -1252 0
-1250 -1253 0
-1251 -1252 0
-1251 -1253 0
-1252 -1253 0
1254 1255 1256 1257 1258 1259 1260 0
-1254 -1255 0
-1254 -1256 0
-1254 -1257 0
-1254 -1258 0
-1254 -1259 0
-1254 -1260 0
-1255 -1256 0
-1255 -1257 0
-1255 -1258 0
-1255 -1259 0
-1255 -1260 0
-1256 -1257 0
-1256 -1258 0
-1256 -1259 0
-1256 -1260 0
-1257 -1258 0
-1257 -1259 0
-1257 -1260 0
-1258 -1259 0
-1258 -1260 0
-1259 -1260 0
1261 1262 1263 1264 1265 1266 0
-1261 -1262 0
-1261 -1263 0
-1261 -1264 0
-1261 -1265 0
-1261 -1266 0
-1262 -1263 0
-1262 -1264 0
-1262 -1265 0
-1262 -1266 0
-1263 -1264 0
-1263 -1265 0
-1263 -1266 0
-1264 -1265 0
-1264 -1266 0
-1265 -1266 0
1267 1268 1269 1270 1271 1272 1273 1274 0
-1267 -1268 0
-1267 -1269 0
-1267 -1270 0
-1267 -1271 0
-1267 -1272 0
-1267 -1273 0
-1267 -1274 0
-1268 -1269 0
-1268 -1270 0
-1268 -1271 0
-1268 -1272 0
-1268 -1273 0
-1268 -1274 0
-1269 -1270 0
-1269 -1271 0
-1269 -1272 0
-1269 -1273 0
-1269 -1274 0
-1270 -1271 0
-1270 -1272 0
-1270 -1273 0
-1270 -1274 0
-1271 -1272 0
-1271 -1273 0
-1271 -1274 0
-1272 -1273 0
-1272 -1274 0
-1273 -1274 0
1275 1276 1277 1278 1279 1280 1281 0
-1275 -1276 0
-1275 -1277 0
-1275 -1278 0
-1275 -1279 0
-1275 -1280 0
-1275 -1281 0
-1276 -1277 0
-1276 -1278 0
-1276 -1279 0
-1276 -1280 0
-1276 -1281 0
-1277 -1278 0
-1277 -1279 0
-1277 -1280 0
-1277 -1281 0
-1278 -1279 0
-1278 -1280 0
-1278 -1281 0
-1279 -1280 0
-1279 -1281 0
-1280 -1281 0
1282 1283 1284 1285 1286 1287 1288 0
-1282 -1283 0
-1282 -1284 0
-1282 -1285 0
-1282 -1286 0
-1282 -1287 0
-1282 -1288 0
-1283 -1284 0
-1283 -1285 0
-1283 -1286 0
-1283 -1287 0
-1283 -1288 0
-1284 -1285 0
-1284 -1286 0
-1284 -1287 0
-1284 -1288 0
-1285 -1286 0
-1285 -1287 0
-1285 -1288 0
-1286 -1287 0
-1286 -1288 0
-1287 -1288 0
1289 1290 1291 1292 1293 1294 1295 1296 0
-1289 -1290 0
-1289 -1291 0
-1289 -1292 0
-1289 -1293 0
-1289 -1294 0
-1289 -1295 0
-1289 -1296 0
-1290 -1291 0
-1290 -1292 0
-1290 -1293 0
-1290 -1294 0
-1290 -1295 0
-1290 -1296 0
-1291 -1292 0
-1291 -1293 0
-1291 -1294 0
-1291 -1295 0
-1291 -1296 0
-1292 -1293 0
-1292 -1294 0
-1292 -1295 0
-1292 -1296 0
-1293 -1294 0
-1293 -1295 0
-1293 -1296 0
-1294 -1295 0
-1294 -1296 0
-1295 -1296 0
1297 1298 1299 1300 1301 1302 1303 0
-1297 -1298 0
-1297 -1299 0
-1297 -1300 0
-1297 -1301 0
-1297 -1302 0
-1297 -1303 0
-1298 -1299 0
-1298 -1300 0
-1298 -1301 0
-1298 -1302 0
-1298 -1303 0
-1299 -1300 0
-1299 -1301 0
-1299 -1302 0
-1299 -1303 0
-1300 -1301 0
-1300 -1302 0
-1300 -1303 0
-1301 -1302 0
-1301 -1303 0
-1302 -1303 0
1304 1305 1306 1307 1308 1309 1310 0
-1304 -1305 0
-1304 -1306 0
-1304 -1307 0
-1304 -1308 0
-1304 -1309 0
-1304 -1310 0
-1305 -1306 0
-1305 -1307 0
-1305 -1308 0
-1305 -1309 0
-1305 -1310 0
-1306 -1307 0
-1306 -1308 0
-1306 -1309 0
-1306 -1310 0
-1307 -1308 0
-1307 -1309 0
-1307 -1310 0
-1308 -1309 0
-1308 -1310 0
-1309 -1310 0
1311 1312 1313 1314 1315 1316 0
-1311 -1312 0
-1311 -1313 0
-1311 -1314 0
-1311 -1315 0
-1311 -1316 0
-1312 -1313 0
-1312 -1314 0
-1312 -1315 0
-1312 -1316 0
-1313 -1314 0
-1313 -1315 0
-1313 -1316 0
-1314 -1315 0
-1314 -1316 0
-1315 -1316 0
1317 1318 1319 1320 1321 1322 1323 1324 0
-1317 -1318 0
-1317 -1319 0
-1317 -1320 0
-1317 -1321 0
-1317 -1322 0
-1317 -1323 0
-1317 -1324 0
-1318 -1319 0
-1318 -1320 0
-1318 -1321 0
-1318 -1322 0
-1318 -1323 0
-1318 -1324 0
-1319 -1320 0
-1319 -1321 0
-1319 -1322 0
-1319 -1323 0
-1319 -1324 0
-1320 -1321 0
-1320 -1322 0
-1320 -1323 0
-1320 -1324 0
-1321 -1322 0
-1321 -1323 0
-1321 -1324 0
-1322 -1323 0
-1322 -1324 0
-1323 -1324 0
1325 1326 1327 1328 1329 1330 1331 0
-1325 -1326 0
-1325 -1327 0
-1325 -1328 0
-1325 -1329 0
-1325 -1330 0
-1325 -1331 0
-1326 -1327 0
-1326 -1328 0
-1326 -1329 0
-1326 -1330 0
-1326 -1331 0
-1327 -1328 0
-1327 -1329 0
-1327 -1330 0
-1327 -1331 0
-1328 -1329 0
-1328 -1330 0
-1328 -1331 0
-1329 -1330 0
-1329 -1331 0
-1330 -1331 0
1332 1333 1334 1335 1336 1337 1338 0
-1332 -1333 0
-1332 -1334 0
-1332 -1335 0
-1332 -1336 0
-1332 -1337 0
-1332 -1338 0
-1333 -1334 0
-1333 -1335 0
-1333 -1336 0
-1333 -1337 0
-1333 -1338 0
-1334 -1335 0
-1334 -1336 0
-1334 -1337 0
-1334 -1338 0
-1335 -1336 0
-1335 -1337 0
-1335 -1338 0
-1336 -1337 0
-1336 -1338 0
-1337 -1338 0
1339 1340 1341 1342 1343 1344 1345 0
-1339 -1340 0
-1339 -1341 0
-1339 -1342 0
-1339 -1343 0
-1339 -1344 0
-1339 -1345 0
-1340 -1341 0
-1340 -1342 0
-1340 -1343 0
-1340 -1344 0
-1340 -1345 0
-1341 -1342 0
-1341 -1343 0
-1341 -1344 0
-1341 -1345 0
-1342 -1343 0
-1342 -1344 0
-1342 -1345 0
-1343 -1344 0
-1343 -1345 0
-1344 -1345 0
1346 1347 1348 1349 1350 1351 1352 0
-1346 -1347 0
-1346 -1348 0
-1346 -1349 0
-1346 -1350 0
-1346 -1351 0
-1346 -1352 0
-1347 -1348 0
-1347 -1349 0
-1347 -1350 0
-1347 -1351 0
-1347 -1352 0
-1348 -1349 0
-1348 -1350 0
-1348 -1351 0
-1348 -1352 0
-1349 -1350 0
-1349 -1351 0
-1349 -1352 0
-1350 -1351 0
-1350 -1352 0
-1351 -1352 0
1353 1354 1355 1356 1357 1358 1359 1360 1361 0
-1353 -1354 0
-1353 -1355 0
-1353 -1356 0
-1353 -1357 0
-1353 -1358 0
-1353 -1359 0
-1353 -1360 0
-1353 -1361 0
-1354 -1355 0
-1354 -1356 0
-1354 -1357 0
-1354 -1358 0
-1354 -1359 0
-1354 -1360 0
-1354 -1361 0
-1355 -1356 0
-1355 -1357 0
-1355 -1358 0
-1355 -1359 0
-1355 -1360 0
-1355 -1361 0
-1356 -1357 0
-1356 -1358 0
-1356 -1359 0
-1356 -1360 0
-1356 -1361 0
-1357 -1358 0
-1357 -1359 0
-1357 -1360 0
-1357 -1361 0
-1358 -1359 0
-1358 -1360 0
-1358 -1361 0
-1359 -1360 0
-1359 -1361 0
-1360 -1361 0
1362 1363 1364 1365 1366 1367 1368 1369 0
-1362 -1363 0
-1362 -1364 0
-1362 -1365 0
-1362 -1366 0
-1362 -1367 0
-1362 -1368 0
-1362 -1369 0
-1363 -1364 0
-1363 -1365 0
-1363 -1366 0
-1363 -1367 0
-1363 -1368 0
-1363 -1369 0
-1364 -1365 0
-1364 -1366 0
-1364 -1367 0
-1364 -1368 0
-1364 -1369 0
-1365 -1366 0
-1365 -1367 0
-1365 -1368 0
-1365 -1369 0
-1366 -1367 0
-1366 -1368 0
-1366 -1369 0
-1367 -1368 0
-1367 -1369 0
-1368 -1369 0
1370 1371 1372 1373 1374 1375 1376 0
-1370 -1371 0
-1370 -1372 0
-1370 -1373 0
-1370 -1374 0
-1370 -1375 0
-1370 -1376 0
-1371 -1372 0
-1371 -1373 0
-1371 -1374 0
-1371 -1375 0
-1371 -1376 0
-1372 -1373 0
-1372 -1374 0
-1372 -1375 0
-1372 -1376 0
-1373 -1374 0
-1373 -1375 0
-1373 -1376 0
-1374 -1375 0
-1374 -1376 0
-1375 -1376 0
1377 1378 1379 1380 1381 1382 1383 1384 0
-1377 -1378 0
-1377 -1379 0
-1377 -1380 0
-1377 -1381 0
-1377 -1382 0
-1377 -1383 0
-1377 -1384 0
-1378 -1379 0
-1378 -1380 0
-1378 -1381 0
-1378 -1382 0
-1378 -1383 0
-1378 -1384 0
-1379 -1380 0
-1379 -1381 0
-1379 -1382 0
-1379 -1383 0
-1379 -1384 0
-1380 -1381 0
-1380 -1382 0
-1380 -1383 0
-1380 -1384 0
-1381 -1382 0
-1381 -1383 0
-1381 -1384 0
-1382 -1383 0
-1382 -1384 0
-1383 -1384 0
1385 1386 1387 1388 1389 1390 1391 0
-1385 -1386 0
-1385 -1387 0
-1385 -1388 0
-1385 -1389 0
-1385 -1390 0
-1385 -1391 0
-1386 -1387 0
-1386 -1388 0
-1386 -1389 0
-1386 -1390 0
-1386 -1391 0
-1387 -1388 0
-1387 -1389 0
-1387 -1390 0
-1387 -1391 0
-1388 -1389 0
-1388 -1390 0
-1388 -1391 0
-1389 -1390 0
-1389 -1391 0
-1390 -1391 0
1392 1393 1394 1395 1396 1397 1398 1399 0
-1392 -1393 0
-1392 -1394 0
-1392 -1395 0
-1392 -1396 0
-1392 -1397 0
-1392 -1398 0
-1392 -1399 0
-1393 -1394 0
-1393 -1395 0
-1393 -1396 0
-1393 -1397 0
-1393 -1398 0
-1393 -1399 0
-1394 -1395 0
-1394 -1396 0
-1394 -1397 0
-1394 -1398 0
-1394 -1399 0
-1395 -1396 0
-1395 -1397 0
-1395 -1398 0
-1395 -1399 0
-1396 -1397 0
-1396 -1398 0
-1396 -1399 0
-1397 -1398 0
-1397 -1399 0
-1398 -1399 0
1400 1401 1402 1403 1404 1405 1406 0
-1400 -1401 0
-1400 -1402 0
-1400 -1403 0
-1400 -1404 0
-1400 -1405 0
-1400 -1406 0
-1401 -1402 0
-1401 -1403 0
-1401 -1404 0
-1401 -1405 0
-1401 -1406 0
-1402 -1403 0
-1402 -1404 0
-1402 -1405 0
-1402 -1406 0
-1403 -1404 0
-1403 -1405 0
-1403 -1406 0
-1404 -1405 0
-1404 -1406 0
-1405 -1406 0
1407 1408 1409 1410 1411 1412 1413 0
-1407 -1408 0
-1407 -1409 0
-1407 -1410 0
-1407 -1411 0
-1407 -1412 0
-1407 -1413 0
-1408 -1409 0
-1408 -1410 0
-1408 -1411 0
-1408 -1412 0
-1408 -1413 0
-1409 -1410 0
-1409 -1411 0
-1409 -1412 0
-1409 -1413 0
-1410 -1411 0
-1410 -1412 0
-1410 -1413 0
-1411 -1412 0
-1411 -1413 0
-1412 -1413 0
1414 1415 1416 1417 1418 1419 1420 1421 0
-1414 -1415 0
-1414 -1416 0
-1414 -1417 0
-1414 -1418 0
-1414 -1419 0
-1414 -1420 0
-1414 -1421 0
-1415 -1416 0
-1415 -1417 0
-1415 -1418 0
-1415 -1419 0
-1415 -1420 0
-1415 -1421 0
-1416 -1417 0
-1416 -1418 0
-1416 -1419 0
-1416 -1420 0
-1416 -1421 0
-1417 -1418 0
-1417 -1419 0
-1417 -1420 0
-1417 -1421 0
-1418 -1419 0
-1418 -1420 0
-1418 -1421 0
-1419 -1420 0
-1419 -1421 0
-1420 -1421 0
1422 1423 1424 1425 1426 1427 1428 0
-1422 -1423 0
-1422 -1424 0
-1422 -1425 0
-1422 -1426 0
-1422 -1427 0
-1422 -1428 0
-1423 -1424 0
-1423 -1425 0
-1423 -1426 0
-1423 -1427 0
-1423 -1428 0
-1424 -1425 0
-1424 -1426 0
-1424 -1427 0
-1424 -1428 0
-1425 -1426 0
-1425 -1427 0
-1425 -1428 0
-1426 -1427 0
-1426 -1428 0
-1427 -1428 0
1429 1430 1431 1432 1433 1434 1435 0
-1429 -1430 0
-1429 -1431 0
-1429 -1432 0
-1429 -1433 0
-1429 -1434 0
-1429 -1435 0
-1430 -1431 0
-1430 -1432 0
-1430 -1433 0
-1430 -1434 0
-1430 -1435 0
-1431 -1432 0
-1431 -1433 0
-1431 -1434 0
-1431 -1435 0
-1432 -1433 0
-1432 -1434 0
-1432 -1435 0
-1433 -1434 0
-1433 -1435 0
-1434 -1435 0
1436 1437 1438 1439 1440 1441 1442 1443 1444 0
-1436 -1437 0
-1436 -1438 0
-1436 -1439 0
-1436 -1440 0
-1436 -1441 0
-1436 -1442 0
-1436 -1443 0
-1436 -1444 0
-1437 -1438 0
-1437 -1439 0
-1437 -1440 0
-1437 -1441 0
-1437 -1442 0
-1437 -1443 0
-1437 -1444 0
-1438 -1439 0
-1438 -1440 0
-1438 -1441 0
-1438 -1442 0
-1438 -1443 0
-1438 -1444 0
-1439 -1440 0
-1439 -1441 0
-1439 -1442 0
-1439 -1443 0
-1439 -1444 0
-1440 -1441 0
-1440 -1442 0
-1440 -1443 0
-1440 -1444 0
-1441 -1442 0
-1441 -1443 0
-1441 -1444 0
-1442 -1443 0
-1442 -1444 0
-1443 -1444 0
1445 1446 1447 1448 1449 1450 1451 1452 0
-1445 -1446 0
-1445 -1447 0
-1445 -1448 0
-1445 -1449 0
-1445 -1450 0
-1445 -1451 0
-1445 -1452 0
-1446 -1447 0
-1446 -1448 0
-1446 -1449 0
-1446 -1450 0
-1446 -1451 0
-1446 -1452 0
-1447 -1448 0
-1447 -1449 0
-1447 -1450 0
-1447 -1451 0
-1447 -1452 0
-1448 -1449 0
-1448 -1450 0
-1448 -1451 0
-1448 -1452 0
-1449 -1450 0
-1449 -1451 0
-1449 -1452 0
-1450 -1451 0
-1450 -1452 0
-1451 -1452 0
1453 1454 1455 1456 1457 1458 1459 0
-1453 -1454 0
-1453 -1455 0
-1453 -1456 0
-1453 -1457 0
-1453 -1458 0
-1453 -1459 0
-1454 -1455 0
-1454 -1456 0
-1454 -1457 0
-1454 -1458 0
-1454 -1459 0
-1455 -1456 0
-1455 -1457 0
-1455 -1458 0
-1455 -1459 0
-1456 -1457 0
-1456 -1458 0
-1456 -1459 0
-1457 -1458 0
-1457 -1459 0
-1458 -1459 0
1460 1461 1462 1463 1464 1465 1466 0
-1460 -1461 0
-1460 -1462 0
-1460 -1463 0
-1460 -1464 0
-1460 -1465 0
-1460 -1466 0
-1461 -1462 0
-1461 -1463 0
-1461 -1464 0
-1461 -1465 0
-1461 -1466 0
-1462 -1463 0
-1462 -1464 0
-1462 -1465 0
-1462 -1466 0
-1463 -1464 0
-1463 -1465 0
-1463 -1466 0
-1464 -1465 0
-1464 -1466 0
-1465 -1466 0
1467 1468 1469 1470 1471 1472 1473 0
-1467 -1468 0
-1467 -1469 0
-1467 -1470 0
-1467 -1471 0
-1467 -1472 0
-1467 -1473 0
-1468 -1469 0
-1468 -1470 0
-1468 -1471 0
-1468 -1472 0
-1468 -1473 0
-1469 -1470 0
-1469 -1471 0
-1469 -1472 0
-1469 -1473 0
-1470 -1471 0
-1470 -1472 0
-1470 -1473 0
-1471 -1472 0
-1471 -1473 0
-1472 -1473 0
1474 1475 1476 1477 1478 1479 0
-1474 -1475 0
-1474 -1476 0
-1474 -1477 0
-1474 -1478 0
-1474 -1479 0
-1475 -1476 0
-1475 -1477 0
-1475 -1478 0
-1475 -1479 0
-1476 -1477 0
-1476 -1478 0
-1476 -1479 0
-1477 -1478 0
-1477 -1479 0
-1478 -1479 0
1480 0
1481 1482 1483 1484 1485 1486 1487 0
-1481 -1482 0
-1481 -1483 0
-1481 -1484 0
-1481 -1485 0
-1481 -1486 0
-1481 -1487 0
-1482 -1483 0
-1482 -1484 0
-1482 -1485 0
-1482 -1486 0
-1482 -1487 0
-1483 -1484 0
-1483 -1485 0
-1483 -1486 0
-1483 -1487 0
-1484 -1485 0
-1484 -1486 0
-1484 -1487 0
-1485 -1486 0
-1485 -1487 0
-1486 -1487 0
1488 1489 1490 1491 1492 1493 1494 0
-1488 -1489 0
-1488 -1490 0
-1488 -1491 0
-1488 -1492 0
-1488 -1493 0
-1488 -1494 0
-1489 -1490 0
-1489 -1491 0
-1489 -1492 0
-1489 -1493 0
-1489 -1494 0
-1490 -1491 0
-1490 -1492 0
-1490 -1493 0
-1490 -1494 0
-1491 -1492 0
-1491 -1493 0
-1491 -1494 0
-1492 -1493 0
-1492 -1494 0
-1493 -1494 0
1495 1496 1497 1498 1499 1500 0
-1495 -1496 0
-1495 -1497 0
-1495 -1498 0
-1495 -1499 0
-1495 -1500 0
-1496 -1497 0
-1496 -1498 0
-1496 -1499 0
-1496 -1500 0
-1497 -1498 0
-1497 -1499 0
-1497 -1500 0
-1498 -1499 0
-1498 -1500 0
-1499 -1500 0
1501 1502 1503 1504 1505 1506 0
-1501 -1502 0
-1501 -1503 0
-1501 -1504 0
-1501 -1505 0
-1501 -1506 0
-1502 -1503 0
-1502 -1504 0
-1502 -1505 0
-1502 -1506 0
-1503 -1504 0
-1503 -1505 0
-1503 -1506 0
-1504 -1505 0
-1504 -1506 0
-1505 -1506 0
1507 1508 1509 1510 1511 1512 0
-1507 -1508 0
-1507 -1509 0
-1507 -1510 0
-1507 -1511 0
-1507 -1512 0
-1508 -1509 0
-1508 -1510 0
-1508 -1511 0
-1508 -1512 0
-1509 -1510 0
-1509 -1511 0
-1509 -1512 0
-1510 -1511 0
-1510 -1512 0
-1511 -1512 0
1513 1514 1515 1516 1517 1518 0
-1513 -1514 0
-1513 -1515 0
-1513 -1516 0
-1513 -1517 0
-1513 -1518 0
-1514 -1515 0
-1514 -1516 0
-1514 -1517 0
-1514 -1518 0
-1515 -1516 0
-1515 -1517 0
-1515 -1518 0
-1516 -1517 0
-1516 -1518 0
-1517 -1518 0
1519 1520 1521 1522 1523 1524 1525 1526 1527 1528 0
-1519 -1520 0
-1519 -1521 0
-1519 -1522 0
-1519 -1523 0
-1519 -1524 0
-1519 -1525 0
-1519 -1526 0
-1519 -1527 0
-1519 -1528 0
-1520 -1521 0
-1520 -1522 0
-1520 -1523 0
-1520 -1524 0
-1520 -1525 0
-1520 -1526 0
-1520 -1527 0
-1520 -1528 0
-1521 -1522 0
-1521 -1523 0
-1521 -1524 0
-1521 -1525 0
-1521 -1526 0
-1521 -1527 0
-1521 -1528 0
-1522 -1523 0
-1522 -1524 0
-1522 -1525 0
-1522 -1526 0
-1522 -1527 0
-1522 -1528 0
-1523 -1524 0
-1523 -1525 0
-1523 -1526 0
-1523 -1527 0
-1523 -1528 0
-1524 -1525 0
-1524 -1526 0
-1524 -1527 0
-1524 -1528 0
-1525 -1526 0
-1525 -1527 0
-1525 -1528 0
-1526 -1527 0
-1526 -1528 0
-1527 -1528 0
1529 1530 1531 1532 1533 1534 0
-1529 -1530 0
-1529 -1531 0
-1529 -1532 0
-1529 -1533 0
-1529 -1534 0
-1530 -1531 0
-1530 -1532 0
-1530 -1533 0
-1530 -1534 0
-1531 -1532 0
-1531 -1533 0
-1531 -1534 0
-1532 -1533 0
-1532 -1534 0
-1533 -1534 0
1535 1536 1537 1538 1539 1540 0
-1535 -1536 0
-1535 -1537 0
-1535 -1538 0
-1535 -1539 0
-1535 -1540 0
-1536 -1537 0
-1536 -1538 0
-1536 -1539 0
-1536 -1540 0
-1537 -1538 0
-1537 -1539 0
-1537 -1540 0
-1538 -1539 0
-1538 -1540 0
-1539 -1540 0
1541 1542 1543 1544 1545 1546 0
-1541 -1542 0
-1541 -1543 0
-1541 -1544 0
-1541 -1545 0
-1541 -1546 0
-1542 -1543 0
-1542 -1544 0
-1542 -1545 0
-1542 -1546 0
-1543 -1544 0
-1543 -1545 0
-1543 -1546 0
-1544 -1545 0
-1544 -1546 0
-1545 -1546 0
1547 1548 1549 1550 1551 1552 0
-1547 -1548 0
-1547 -1549 0
-1547 -1550 0
-1547 -1551 0
-1547 -1552 0
-1548 -1549 0
-1548 -1550 0
-1548 -1551 0
-1548 -1552 0
-1549 -1550 0
-1549 -1551 0
-1549 -1552 0
-1550 -1551 0
-1550 -1552 0
-1551 -1552 0
1553 1554 1555 1556 1557 1558 0
-1553 -1554 0
-1553 -1555 0
-1553 -1556 0
-1553 -1557 0
-1553 -1558 0
-1554 -1555 0
-1554 -1556 0
-1554 -1557 0
-1554 -1558 0
-1555 -1556 0
-1555 -1557 0
-1555 -1558 0
-1556 -1557 0
-1556 -1558 0
-1557 -1558 0
1559 1560 1561 1562 1563 1564 0
-1559 -1560 0
-1559 -1561 0
-1559 -1562 0
-1559 -1563 0
-1559 -1564 0
-1560 -1561 0
-1560 -1562 0
-1560 -1563 0
-1560 -1564 0
-1561 -1562 0
-1561 -1563 0
-1561 -1564 0
-1562 -1563 0
-1562 -1564 0
-1563 -1564 0
1565 1566 1567 1568 1569 1570 1571 0
-1565 -1566 0
-1565 -1567 0
-1565 -1568 0
-1565 -1569 0
-1565 -1570 0
-1565 -1571 0
-1566 -1567 0
-1566 -1568 0
-1566 -1569 0
-1566 -1570 0
-1566 -1571 0
-1567 -1568 0
-1567 -1569 0
-1567 -1570 0
-1567 -1571 0
-1568 -1569 0
-1568 -1570 0
-1568 -1571 0
-1569 -1570 0
-1569 -1571 0
-1570 -1571 0
1572 1573 1574 1575 1576 1577 0
-1572 -1573 0
-1572 -1574 0
-1572 -1575 0
-1572 -1576 0
-1572 -1577 0
-1573 -1574 0
-1573 -1575 0
-1573 -1576 0
-1573 -1577 0
-1574 -1575 0
-1574 -1576 0
-1574 -1577 0
-1575 -1576 0
-1575 -1577 0
-1576 -1577 0
1578 1579 1580 1581 1582 1583 1584 0
-1578 -1579 0
-1578 -1580 0
-1578 -1581 0
-1578 -1582 0
-1578 -1583 0
-1578 -1584 0
-1579 -1580 0
-1579 -1581 0
-1579 -1582 0
-1579 -1583 0
-1579 -1584 0
-1580 -1581 0
-1580 -1582 0
-1580 -1583 0
-1580 -1584 0
-1581 -1582 0
-1581 -1583 0
-1581 -1584 0
-1582 -1583 0
-1582 -1584 0
-1583 -1584 0
1585 1586 1587 1588 1589 1590 1591 0
-1585 -1586 0
-1585 -1587 0
-1585 -1588 0
-1585 -1589 0
-1585 -1590 0
-1585 -1591 0
-1586 -1587 0
-1586 -1588 0
-1586 -1589 0
-1586 -1590 0
-1586 -1591 0
-1587 -1588 0
-1587 -1589 0
-1587 -1590 0
-1587 -1591 0
-1588 -1589 0
-1588 -1590 0
-1588 -1591 0
-1589 -1590 0
-1589 -1591 0
-1590 -1591 0
1592 1593 1594 1595 1596 1597 0
-1592 -1593 0
-1592 -1594 0
-1592 -1595 0
-1592 -1596 0
-1592 -1597 0
-1593 -1594 0
-1593 -1595 0
-1593 -1596 0
-1593 -1597 0
-1594 -1595 0
-1594 -1596 0
-1594 -1597 0
-1595 -1596 0
-1595 -1597 0
-1596 -1597 0
1598 1599 1600 1601 1602 1603 1604 0
-1598 -1599 0
-1598 -1600 0
-1598 -1601 0
-1598 -1602 0
-1598 -1603 0
-1598 -1604 0
-1599 -1600 0
-1599 -1601 0
-1599 -1602 0
-1599 -1603 0
-1599 -1604 0
-1600 -1601 0
-1600 -1602 0
-1600 -1603 0
-1600 -1604 0
-1601 -1602 0
-1601 -1603 0
-1601 -1604 0
-1602 -1603 0
-1602 -1604 0
-1603 -1604 0
1605 1606 1607 1608 1609 1610 0
-1605 -1606 0
-1605 -1607 0
-1605 -1608 0
-1605 -1609 0
-1605 -1610 0
-1606 -1607 0
-1606 -1608 0
-1606 -1609 0
-1606 -1610 0
-1607 -1608 0
-1607 -1609 0
-1607 -1610 0
-1608 -1609 0
-1608 -1610 0
-1609 -1610 0
1611 1612 1613 1614 1615 1616 1617 0
-1611 -1612 0
-1611 -1613 0
-1611 -1614 0
-1611 -1615 0
-1611 -1616 0
-1611 -1617 0
-1612 -1613 0
-1612 -1614 0
-1612 -1615 0
-1612 -1616 0
-1612 -1617 0
-1613 -1614 0
-1613 -1615 0
-1613 -1616 0
-1613 -1617 0
-1614 -1615 0
-1614 -1616 0
-1614 -1617 0
-1615 -1616 0
-1615 -1617 0
-1616 -1617 0
1618 1619 1620 1621 1622 1623 0
-1618 -1619 0
-1618 -1620 0
-1618 -1621 0
-1618 -1622 0
-1618 -1623 0
-1619 -1620 0
-1619 -1621 0
-1619 -1622 0
-1619 -1623 0
-1620 -1621 0
-1620 -1622 0
-1620 -1623 0
-1621 -1622 0
-1621 -1623 0
-1622 -1623 0
1624 1625 1626 1627 1628 1629 0
-1624 -1625 0
-1624 -1626 0
-1624 -1627 0
-1624 -1628 0
-1624 -1629 0
-1625 -1626 0
-1625 -1627 0
-1625 -1628 0
-1625 -1629 0
-1626 -1627 0
-1626 -1628 0
-1626 -1629 0
-1627 -1628 0
-1627 -1629 0
-1628 -1629 0
1630 1631 1632 1633 1634 1635 0
-1630 -1631 0
-1630 -1632 0
-1630 -1633 0
-1630 -1634 0
-1630 -1635 0
-1631 -1632 0
-1631 -1633 0
-1631 -1634 0
-1631 -1635 0
-1632 -1633 0
-1632 -1634 0
-1632 -1635 0
-1633 -1634 0
-1633 -1635 0
-1634 -1635 0
1636 1637 1638 1639 1640 1641 0
-1636 -1637 0
-1636 -1638 0
-1636 -1639 0
-1636 -1640 0
-1636 -1641 0
-1637 -1638 0
-1637 -1639 0
-1637 -1640 0
-1637 -1641 0
-1638 -1639 0
-1638 -1640 0
-1638 -1641 0
-1639 -1640 0
-1639 -1641 0
-1640 -1641 0
1642 1643 1644 1645 1646 1647 0
-1642 -1643 0
-1642 -1644 0
-1642 -1645 0
-1642 -1646 0
-1642 -1647 0
-1643 -1644 0
-1643 -1645 0
-1643 -1646 0
-1643 -1647 0
-1644 -1645 0
-1644 -1646 0
-1644 -1647 0
-1645 -1646 0
-1645 -1647 0
-1646 -1647 0
1648 1649 1650 1651 1652 1653 0
-1648 -1649 0
-1648 -1650 0
-1648 -1651 0
-1648 -1652 0
-1648 -1653 0
-1649 -1650 0
-1649 -1651 0
-1649 -1652 0
-1649 -1653 0
-1650 -1651 0
-1650 -1652 0
-1650 -1653 0
-1651 -1652 0
-1651 -1653 0
-1652 -1653 0
1654 1655 1656 1657 1658 1659 1660 0
-1654 -1655 0
-1654 -1656 0
-1654 -1657 0
-1654 -1658 0
-1654 -1659 0
-1654 -1660 0
-1655 -1656 0
-1655 -1657 0
-1655 -1658 0
-1655 -1659 0
-1655 -1660 0
-1656 -1657 0
-1656 -1658 0
-1656 -1659 0
-1656 -1660 0
-1657 -1658 0
-1657 -1659 0
-1657 -1660 0
-1658 -1659 0
-1658 -1660 0
-1659 -1660 0
1661 1662 1663 1664 1665 1666 0
-1661 -1662 0
-1661 -1663 0
-1661 -1664 0
-1661 -1665 0
-1661 -1666 0
-1662 -1663 0
-1662 -1664 0
-1662 -1665 0
-1662 -1666 0
-1663 -1664 0
-1663 -1665 0
-1663 -1666 0
-1664 -1665 0
-1664 -1666 0
-1665 -1666 0
1667 1668 1669 1670 1671 1672 1673 0
-1667 -1668 0
-1667 -1669 0
-1667 -1670 0
-1667 -1671 0
-1667 -1672 0
-1667 -1673 0
-1668 -1669 0
-1668 -1670 0
-1668 -1671 0
-1668 -1672 0
-1668 -1673 0
-1669 -1670 0
-1669 -1671 0
-1669 -1672 0
-1669 -1673 0
-1670 -1671 0
-1670 -1672 0
-1670 -1673 0
-1671 -1672 0
-1671 -1673 0
-1672 -1673 0
1674 1675 1676 1677 1678 1679 1680 0
-1674 -1675 0
-1674 -1676 0
-1674 -1677 0
-1674 -1678 0
-1674 -1679 0
-1674 -1680 0
-1675 -1676 0
-1675 -1677 0
-1675 -1678 0
-1675 -1679 0
-1675 -1680 0
-1676 -1677 0
-1676 -1678 0
-1676 -1679 0
-1676 -1680 0
-1677 -1678 0
-1677 -1679 0
-1677 -1680 0
-1678 -1679 0
-1678 -1680 0
-1679 -1680 0
1681 1682 1683 1684 1685 1686 0
-1681 -1682 0
-1681 -1683 0
-1681 -1684 0
-1681 -1685 0
-1681 -1686 0
-1682 -1683 0
-1682 -1684 0
-1682 -1685 0
-1682 -1686 0
-1683 -1684 0
-1683 -1685 0
-1683 -1686 0
-1684 -1685 0
-1684 -1686 0
-1685 -1686 0
1687 1688 1689 1690 1691 1692 1693 0
-1687 -1688 0
-1687 -1689 0
-1687 -1690 0
-1687 -1691 0
-1687 -1692 0
-1687 -1693 0
-1688 -1689 0
-1688 -1690 0
-1688 -1691 0
-1688 -1692 0
-1688 -1693 0
-1689 -1690 0
-1689 -1691 0
-1689 -1692 0
-1689 -1693 0
-1690 -1691 0
-1690 -1692 0
-1690 -1693 0
-1691 -1692 0
-1691 -1693 0
-1692 -1693 0
1694 0
1695 1696 1697 1698 1699 1700 0
-1695 -1696 0
-1695 -1697 0
-1695 -1698 0
-1695 -1699 0
-1695 -1700 0
-1696 -1697 0
-1696 -1698 0
-1696 -1699 0
-1696 -1700 0
-1697 -1698 0
-1697 -1699 0
-1697 -1700 0
-1698 -1699 0
-1698 -1700 0
-1699 -1700 0
1701 1702 1703 1704 1705 1706 1707 0
-1701 -1702 0
-1701 -1703 0
-1701 -1704 0
-1701 -1705 0
-1701 -1706 0
-1701 -1707 0
-1702 -1703 0
-1702 -1704 0
-1702 -1705 0
-1702 -1706 0
-1702 -1707 0
-1703 -1704 0
-1703 -1705 0
-1703 -1706 0
-1703 -1707 0
-1704 -1705 0
-1704 -1706 0
-1704 -1707 0
-1705 -1706 0
-1705 -1707 0
-1706 -1707 0
1708 1709 1710 1711 1712 1713 0
-1708 -1709 0
-1708 -1710 0
-1708 -1711 0
-1708 -1712 0
-1708 -1713 0
-1709 -1710 0
-1709 -1711 0
-1709 -1712 0
-1709 -1713 0
-1710 -1711 0
-1710 -1712 0
-1710 -1713 0
-1711 -1712 0
-1711 -1713 0
-1712 -1713 0
1714 1715 1716 1717 1718 1719 0
-1714 -1715 0
-1714 -1716 0
-1714 -1717 0
-1714 -1718 0
-1714 -1719 0
-1715 -1716 0
-1715 -1717 0
-1715 -1718 0
-1715 -1719 0
-1716 -1717 0
-1716 -1718 0
-1716 -1719 0
-1717 -1718 0
-1717 -1719 0
-1718 -1719 0
1720 1721 1722 1723 1724 1725 0
-1720 -1721 0
-1720 -1722 0
-1720 -1723 0
-1720 -1724 0
-1720 -1725 0
-1721 -1722 0
-1721 -1723 0
-1721 -1724 0
-1721 -1725 0
-1722 -1723 0
-1722 -1724 0
-1722 -1725 0
-1723 -1724 0
-1723 -1725 0
-1724 -1725 0
1726 1727 1728 1729 1730 1731 0
-1726 -1727 0
-1726 -1728 0
-1726 -1729 0
-1726 -1730 0
-1726 -1731 0
-1727 -1728 0
-1727 -1729 0
-1727 -1730 0
-1727 -1731 0
-1728 -1729 0
-1728 -1730 0
-1728 -1731 0
-1729 -1730 0
-1729 -1731 0
-1730 -1731 0
1732 1733 1734 1735 1736 1737 0
-1732 -1733 0
-1732 -1734 0
-1732 -1735 0
-1732 -1736 0
-1732 -1737 0
-1733 -1734 0
-1733 -1735 0
-1733 -1736 0
-1733 -1737 0
-1734 -1735 0
-1734 -1736 0
-1734 -1737 0
-1735 -1736 0
-1735 -1737 0
-1736 -1737 0
1738 1739 1740 1741 1742 1743 0
-1738 -1739 0
-1738 -1740 0
-1738 -1741 0
-1738 -1742 0
-1738 -1743 0
-1739 -1740 0
-1739 -1741 0
-1739 -1742 0
-1739 -1743 0
-1740 -1741 0
-1740 -1742 0
-1740 -1743 0
-1741 -1742 0
-1741 -1743 0
-1742 -1743 0
1744 1745 1746 1747 1748 1749 1750 0
-1744 -1745 0
-1744 -1746 0
-1744 -1747 0
-1744 -1748 0
-1744 -1749 0
-1744 -1750 0
-1745 -1746 0
-1745 -1747 0
-1745 -1748 0
-1745 -1749 0
-1745 -1750 0
-1746 -1747 0
-1746 -1748 0
-1746 -1749 0
-1746 -1750 0
-1747 -1748 0
-1747 -1749 0
-1747 -1750 0
-1748 -1749 0
-1748 -1750 0
-1749 -1750 0
1751 1752 1753 1754 1755 1756 0
-1751 -1752 0
-1751 -1753 0
-1751 -1754 0
-1751 -1755 0
-1751 -1756 0
-1752 -1753 0
-1752 -1754 0
-1752 -1755 0
-1752 -1756 0
-1753 -1754 0
-1753 -1755 0
-1753 -1756 0
-1754 -1755 0
-1754 -1756 0
-1755 -1756 0
1757 1758 1759 1760 1761 1762 0
-1757 -1758 0
-1757 -1759 0
-1757 -1760 0
-1757 -1761 0
-1757 -1762 0
-1758 -1759 0
-1758 -1760 0
-1758 -1761 0
-1758 -1762 0
-1759 -1760 0
-1759 -1761 0
-1759 -1762 0
-1760 -1761 0
-1760 -1762 0
-1761 -1762 0
1763 1764 1765 1766 1767 1768 1769 0
-1763 -1764 0
-1763 -1765 0
-1763 -1766 0
-1763 -1767 0
-1763 -1768 0
-1763 -1769 0
-1764 -1765 0
-1764 -1766 0
-1764 -1767 0
-1764 -1768 0
-1764 -1769 0
-1765 -1766 0
-1765 -1767 0
-1765 -1768 0
-1765 -1769 0
-1766 -1767 0
-1766 -1768 0
-1766 -1769 0
-1767 -1768 0
-1767 -1769 0
-1768 -1769 0
1770 0
1771 1772 1773 1774 1775 1776 1777 0
-1771 -1772 0
-1771 -1773 0
-1771 -1774 0
-1771 -1775 0
-1771 -1776 0
-1771 -1777 0
-1772 -1773 0
-1772 -1774 0
-1772 -1775 0
-1772 -1776 0
-1772 -1777 0
-1773 -1774 0
-1773 -1775 0
-1773 -1776 0
-1773 -1777 0
-1774 -1775 0
-1774 -1776 0
-1774 -1777 0
-1775 -1776 0
-1775 -1777 0
-1776 -1777 0
1778 1779 1780 1781 1782 1783 0
-1778 -1779 0
-1778 -1780 0
-1778 -1781 0
-1778 -1782 0
-1778 -1783 0
-1779 -1780 0
-1779 -1781 0
-1779 -1782 0
-1779 -1783 0
-1780 -1781 0
-1780 -1782 0
-1780 -1783 0
-1781 -1782 0
-1781 -1783 0
-1782 -1783 0
1784 1785 1786 1787 1788 1789 1790 0
-1784 -1785 0
-1784 -1786 0
-1784 -1787 0
-1784 -1788 0
-1784 -1789 0
-1784 -1790 0
-1785 -1786 0
-1785 -1787 0
-1785 -1788 0
-1785 -1789 0
-1785 -1790 0
-1786 -1787 0
-1786 -1788 0
-1786 -1789 0
-1786 -1790 0
-1787 -1788 0
-1787 -1789 0
-1787 -1790 0
-1788 -1789 0
-1788 -1790 0
-1789 -1790 0
1791 1792 1793 1794 1795 1796 0
-1791 -1792 0
-1791 -1793 0
-1791 -1794 0
-1791 -1795 0
-1791 -1796 0
-1792 -1793 0
-1792 -1794 0
-1792 -1795 0
-1792 -1796 0
-1793 -1794 0
-1793 -1795 0
-1793 -1796 0
-1794 -1795 0
-1794 -1796 0
-1795 -1796 0
1797 1798 1799 1800 1801 1802 1803 0
-1797 -1798 0
-1797 -1799 0
-1797 -1800 0
-1797 -1801 0
-1797 -1802 0
-1797 -1803 0
-1798 -1799 0
-1798 -1800 0
-1798 -1801 0
-1798 -1802 0
-1798 -1803 0
-1799 -1800 0
-1799 -1801 0
-1799 -1802 0
-1799 -1803 0
-1800 -1801 0
-1800 -1802 0
-1800 -1803 0
-1801 -1802 0
-1801 -1803 0
-1802 -1803 0
1804 1805 1806 1807 1808 1809 1810 0
-1804 -1805 0
-1804 -1806 0
-1804 -1807 0
-1804 -1808 0
-1804 -1809 0
-1804 -1810 0
-1805 -1806 0
-1805 -1807 0
-1805 -1808 0
-1805 -1809 0
-1805 -1810 0
-1806 -1807 0
-1806 -1808 0
-1806 -1809 0
-1806 -1810 0
-1807 -1808 0
-1807 -1809 0
-1807 -1810 0
-1808 -1809 0
-1808 -1810 0
-1809 -1810 0
1811 0
1812 1813 1814 1815 1816 1817 0
-1812 -1813 0
-1812 -1814 0
-1812 -1815 0
-1812 -1816 0
-1812 -1817 0
-1813 -1814 0
-1813 -1815 0
-1813 -1816 0
-1813 -1817 0
-1814 -1815 0
-1814 -1816 0
-1814 -1817 0
-1815 -1816 0
-1815 -1817 0
-1816 -1817 0
1818 1819 1820 1821 1822 1823 0
-1818 -1819 0
-1818 -1820 0
-1818 -1821 0
-1818 -1822 0
-1818 -1823 0
-1819 -1820 0
-1819 -1821 0
-1819 -1822 0
-1819 -1823 0
-1820 -1821 0
-1820 -1822 0
-1820 -1823 0
-1821 -1822 0
-1821 -1823 0
-1822 -1823 0
1824 1825 1826 1827 1828 1829 1830 0
-1824 -1825 0
-1824 -1826 0
-1824 -1827 0
-1824 -1828 0
-1824 -1829 0
-1824 -1830 0
-1825 -1826 0
-1825 -1827 0
-1825 -1828 0
-1825 -1829 0
-1825 -1830 0
-1826 -1827 0
-1826 -1828 0
-1826 -1829 0
-1826 -1830 0
-1827 -1828 0
-1827 -1829 0
-1827 -1830 0
-1828 -1829 0
-1828 -1830 0
-1829 -1830 0
1831 1832 1833 1834 1835 1836 1837 0
-1831 -1832 0
-1831 -1833 0
-1831 -1834 0
-1831 -1835 0
-1831 -1836 0
-1831 -1837 0
-1832 -1833 0
-1832 -1834 0
-1832 -1835 0
-1832 -1836 0
-1832 -1837 0
-1833 -1834 0
-1833 -1835 0
-1833 -1836 0
-1833 -1837 0
-1834 -1835 0
-1834 -1836 0
-1834 -1837 0
-1835 -1836 0
-1835 -1837 0
-1836 -1837 0
1838 1839 1840 1841 1842 1843 0
-1838 -1839 0
-1838 -1840 0
-1838 -1841 0
-1838 -1842 0
-1838 -1843 0
-1839 -1840 0
-1839 -1841 0
-1839 -1842 0
-1839 -1843 0
-1840 -1841 0
-1840 -1842 0
-1840 -1843 0
-1841 -1842 0
-1841 -1843 0
-1842 -1843 0
1844 0
1845 1846 1847 1848 1849 1850 1851 0
-1845 -1846 0
-1845 -1847 0
-1845 -1848 0
-1845 -1849 0
-1845 -1850 0
-1845 -1851 0
-1846 -1847 0
-1846 -1848 0
-1846 -1849 0
-1846 -1850 0
-1846 -1851 0
-1847 -1848 0
-1847 -1849 0
-1847 -1850 0
-1847 -1851 0
-1848 -1849 0
-1848 -1850 0
-1848 -1851 0
-1849 -1850 0
-1849 -1851 0
-1850 -1851 0
1852 0
1853 1854 1855 1856 1857 1858 1859 0
-1853 -1854 0
-1853 -1855 0
-1853 -1856 0
-1853 -1857 0
-1853 -1858 0
-1853 -1859 0
-1854 -1855 0
-1854 -1856 0
-1854 -1857 0
-1854 -1858 0
-1854 -1859 0
-1855 -1856 0
-1855 -1857 0
-1855 -1858 0
-1855 -1859 0
-1856 -1857 0
-1856 -1858 0
-1856 -1859 0
-1857 -1858 0
-1857 -1859 0
-1858 -1859 0
-2 -168 0
-3 -169 0
-5 -172 0
-6 -173 0
-7 -174 0
-8 -175 0
-2 -219 0
-3 -220 0
-5 -222 0
-6 -224 0
-7 -225 0
-8 -226 0
-2 -250 0
-3 -251 0
-5 -253 0
-6 -255 0
-7 -257 0
-8 -258 0
-3 -266 0
-5 -269 0
-6 -270 0
-7 -272 0
-8 -273 0
-3 -280 0
-5 -282 0
-6 -284 0
-7 -285 0
-8 -286 0
-2 -334 0
-3 -335 0
-5 -337 0
-7 -338 0
-8 -339 0
-3 -347 0
-5 -348 0
-7 -351 0
-8 -352 0
-2 -376 0
-4 -377 0
-5 -379 0
-6 -380 0
-7 -381 0
-8 -382 0
-2 -404 0
-5 -406 0
-6 -408 0
-7 -410 0
-8 -411 0
-3 -412 0
-4 -413 0
-5 -416 0
-6 -418 0
-7 -420 0
-8 -421 0
-2 -437 0
-4 -438 0
-5 -439 0
-7 -442 0
-8 -443 0
-2 -452 0
-5 -456 0
-7 -458 0
-8 -459 0
-3 -460 0
-4 -461 0
-5 -463 0
-7 -465 0
-8 -466 0
-3 -477 0
-4 -478 0
-5 -481 0
-7 -483 0
-8 -484 0
-3 -485 0
-4 -486 0
-5 -488 0
-7 -490 0
-8 -491 0
-3 -492 0
-5 -495 0
-7 -498 0
-8 -499 0
-2 -541 0
-3 -542 0
-6 -544 0
-7 -546 0
-8 -547 0
-2 -576 0
-4 -577 0
-5 -579 0
-6 -580 0
-7 -582 0
-8 -583 0
-2 -610 0
-4 -611 0
-6 -613 0
-7 -614 0
-8 -615 0
-2 -623 0
-6 -627 0
-7 -628 0
-8 -629 0
-3 -630 0
-4 -631 0
-6 -635 0
-7 -636 0
-8 -637 0
-3 -647 0
-4 -648 0
-6 -650 0
-7 -652 0
-8 -653 0
-2 -654 0
-5 -657 0
-6 -658 0
-7 -659 0
-8 -660 0
-3 -667 0
-4 -668 0
-5 -671 0
-6 -673 0
-7 -675 0
-8 -676 0
-3 -677 0
-6 -680 0
-7 -682 0
-8 -683 0
-2 -697 0
-4 -698 0
-5 -700 0
-6 -702 0
-7 -704 0
-8 -705 0
-3 -713 0
-4 -714 0
-6 -716 0
-7 -717 0
-8 -718 0
-4 -720 0
-5 -722 0
-6 -724 0
-7 -725 0
-8 -726 0
-4 -734 0
-5 -737 0
-6 -738 0
-7 -740 0
-8 -741 0
-4 -742 0
-6 -745 0
-7 -747 0
-8 -748 0
-4 -749 0
-6 -753 0
-7 -755 0
-8 -756 0
-4 -764 0
-5 -767 0
-7 -770 0
-8 -771 0
-2 -914 0
-5 -918 0
-6 -920 0
-7 -922 0
-8 -923 0
-2 -948 0
-6 -952 0
-7 -953 0
-8 -954 0
-3 -970 0
-6 -974 0
-7 -975 0
-8 -976 0
-3 -984 0
-6 -988 0
-7 -990 0
-8 -991 0
-2 -1000 0
-5 -1003 0
-7 -1005 0
-8 -1006 0
-3 -1022 0
-5 -1025 0
-7 -1027 0
-8 -1028 0
-3 -1036 0
-5 -1039 0
-7 -1042 0
-8 -1043 0
-3 -1044 0
-7 -1049 0
-8 -1050 0
-3 -1061 0
-7 -1065 0
-8 -1066 0
-2 -1087 0
-5 -1089 0
-7 -1091 0
-8 -1092 0
-3 -1116 0
-7 -1120 0
-8 -1121 0
-2 -1135 0
-5 -1136 0
-6 -1138 0
-7 -1139 0
-8 -1140 0
-3 -1147 0
-5 -1149 0
-6 -1150 0
-7 -1151 0
-8 -1152 0
-3 -1160 0
-5 -1163 0
-6 -1165 0
-7 -1167 0
-8 -1168 0
-3 -1169 0
-6 -1171 0
-7 -1173 0
-8 -1174 0
-4 -1182 0
-5 -1186 0
-7 -1187 0
-8 -1188 0
-4 -1195 0
-5 -1197 0
-7 -1200 0
-8 -1201 0
-4 -1202 0
-7 -1206 0
-8 -1207 0
-7 -1221 0
-8 -1222 0
-4 -1230 0
-5 -1233 0
-6 -1235 0
-7 -1237 0
-8 -1238 0
-4 -1247 0
-5 -1249 0
-6 -1251 0
-7 -1252 0
-8 -1253 0
-5 -1256 0
-6 -1257 0
-7 -1259 0
-8 -1260 0
-5 -1270 0
-6 -1272 0
-7 -1273 0
-8 -1274 0
-6 -1278 0
-7 -1280 0
-8 -1281 0
-2 -1311 0
-6 -1313 0
-7 -1315 0
-8 -1316 0
-2 -1339 0
-5 -1341 0
-6 -1342 0
-7 -1344 0
-8 -1345 0
-3 -1353 0
-5 -1356 0
-6 -1358 0
-7 -1360 0
-8 -1361 0
-3 -1370 0
-5 -1372 0
-6 -1373 0
-7 -1375 0
-8 -1376 0
-3 -1385 0
-7 -1390 0
-8 -1391 0
-4 -1400 0
-6 -1403 0
-7 -1405 0
-8 -1406 0
-4 -1414 0
-6 -1418 0
-7 -1420 0
-8 -1421 0
-4 -1422 0
-5 -1425 0
-6 -1426 0
-7 -1427 0
-8 -1428 0
-4 -1436 0
-5 -1439 0
-6 -1441 0
-7 -1443 0
-8 -1444 0
-5 -1448 0
-6 -1450 0
-7 -1451 0
-8 -1452 0
-5 -1462 0
-6 -1463 0
-7 -1465 0
-8 -1466 0
-4 -1474 0
-7 -1478 0
-8 -1479 0
-7 -1493 0
-8 -1494 0
-5 -1497 0
-7 -1499 0
-8 -1500 0
-4 -1513 0
-7 -1517 0
-8 -1518 0
-4 -1529 0
-7 -1533 0
-8 -1534 0
-4 -1535 0
-5 -1537 0
-7 -1539 0
-8 -1540 0
-5 -1543 0
-7 -1545 0
-8 -1546 0
-6 -1556 0
-7 -1557 0
-8 -1558 0
-2 -1585 0
-5 -1587 0
-6 -1588 0
-7 -1590 0
-8 -1591 0
-3 -1611 0
-5 -1613 0
-6 -1615 0
-7 -1616 0
-8 -1617 0
-3 -1636 0
-5 -1637 0
-7 -1640 0
-8 -1641 0
-4 -1661 0
-5 -1663 0
-7 -1665 0
-8 -1666 0
-5 -1676 0
-7 -1679 0
-8 -1680 0
-5 -1688 0
-6 -1690 0
-7 -1692 0
-8 -1693 0
-5 -1697 0
-6 -1698 0
-7 -1699 0
-8 -1700 0
-5 -1702 0
-6 -1704 0
-7 -1706 0
-8 -1707 0
-4 -1726 0
-5 -1727 0
-6 -1728 0
-7 -1730 0
-8 -1731 0
-6 -1741 0
-7 -1742 0
-8 -1743 0
-6 -1753 0
-7 -1755 0
-8 -1756 0
-5 -1759 0
-7 -1761 0
-8 -1762 0
-5 -1793 0
-7 -1795 0
-8 -1796 0
-5 -1806 0
-7 -1809 0
-8 -1810 0
-5 -1825 0
-6 -1827 0
-7 -1829 0
-8 -1830 0
-5 -1832 0
-6 -1834 0
-7 -1836 0
-8 -1837 0
-9 -205 0
-10 -206 0
-12 -209 0
-13 -210 0
-14 -211 0
-9 -250 0
-10 -251 0
-12 -254 0
-13 -257 0
-14 -258 0
-10 -259 0
-12 -262 0
-13 -264 0
-14 -265 0
-10 -280 0
-12 -283 0
-13 -285 0
-14 -286 0
-9 -437 0
-12 -440 0
-13 -442 0
-14 -443 0
-10 -444 0
-12 -447 0
-13 -450 0
-14 -451 0
-10 -477 0
-12 -482 0
-13 -483 0
-14 -484 0
-10 -485 0
-13 -490 0
-14 -491 0
-10 -500 0
-13 -505 0
-14 -506 0
-9 -562 0
-12 -564 0
-13 -567 0
-14 -568 0
-9 -610 0
-13 -614 0
-14 -615 0
-10 -616 0
-13 -621 0
-14 -622 0
-10 -647 0
-13 -652 0
-14 -653 0
-10 -667 0
-11 -669 0
-12 -672 0
-13 -675 0
-14 -676 0
-10 -684 0
-11 -685 0
-13 -688 0
-14 -689 0
-13 -740 0
-14 -741 0
-12 -744 0
-13 -747 0
-14 -748 0
-12 -760 0
-13 -762 0
-14 -763 0
-11 -773 0
-13 -777 0
-14 -778 0
-9 -862 0
-10 -863 0
-12 -864 0
-13 -867 0
-14 -868 0
-10 -876 0
-12 -879 0
-13 -881 0
-14 -882 0
-9 -900 0
-12 -904 0
-13 -906 0
-14 -907 0
-9 -948 0
-12 -951 0
-13 -953 0
-14 -954 0
-9 -955 0
-12 -959 0
-13 -960 0
-14 -961 0
-10 -962 0
-12 -967 0
-13 -968 0
-14 -969 0
-10 -984 0
-12 -987 0
-13 -990 0
-14 -991 0
-9 -1000 0
-11 -1001 0
-12 -1004 0
-13 -1005 0
-14 -1006 0
-9 -1007 0
-11 -1009 0
-12 -1010 0
-13 -1012 0
-14 -1013 0
-10 -1014 0
-11 -1016 0
-12 -1018 0
-13 -1020 0
-14 -1021 0
-10 -1036 0
-11 -1038 0
-12 -1040 0
-13 -1042 0
-14 -1043 0
-10 -1044 0
-11 -1045 0
-12 -1047 0
-13 -1049 0
-14 -1050 0
-10 -1051 0
-11 -1053 0
-12 -1056 0
-13 -1059 0
-14 -1060 0
-9 -1135 0
-12 -1137 0
-13 -1139 0
-14 -1140 0
-10 -1141 0
-12 -1143 0
-13 -1145 0
-14 -1146 0
-10 -1160 0
-12 -1164 0
-13 -1167 0
-14 -1168 0
-10 -1169 0
-13 -1173 0
-14 -1174 0
-12 -1178 0
-13 -1180 0
-14 -1181 0
-12 -1198 0
-13 -1200 0
-14 -1201 0
-13 -1206 0
-14 -1207 0
-13 -1214 0
-14 -1215 0
-13 -1227 0
-14 -1228 0
-11 -1231 0
-12 -1234 0
-13 -1237 0
-14 -1238 0
-11 -1241 0
-12 -1242 0
-13 -1245 0
-14 -1246 0
-11 -1262 0
-12 -1264 0
-13 -1265 0
-14 -1266 0
-11 -1268 0
-12 -1271 0
-13 -1273 0
-14 -1274 0
-11 -1276 0
-13 -1280 0
-14 -1281 0
-9 -1297 0
-12 -1300 0
-13 -1302 0
-14 -1303 0
-9 -1339 0
-13 -1344 0
-14 -1345 0
-10 -1346 0
-13 -1351 0
-14 -1352 0
-10 -1370 0
-13 -1375 0
-14 -1376 0
-10 -1385 0
-11 -1386 0
-12 -1388 0
-13 -1390 0
-14 -1391 0
-11 -1393 0
-12 -1396 0
-13 -1398 0
-14 -1399 0
-11 -1416 0
-12 -1417 0
-13 -1420 0
-14 -1421 0
-11 -1423 0
-13 -1427 0
-14 -1428 0
-11 -1431 0
-13 -1434 0
-14 -1435 0
-11 -1454 0
-13 -1458 0
-14 -1459 0
-11 -1461 0
-13 -1465 0
-14 -1466 0
-11 -1468 0
-12 -1470 0
-13 -1472 0
-14 -1473 0
-11 -1481 0
-12 -1483 0
-13 -1486 0
-14 -1487 0
-11 -1489 0
-12 -1491 0
-13 -1493 0
-14 -1494 0
-11 -1495 0
-13 -1499 0
-14 -1500 0
-13 -1511 0
-14 -1512 0
-13 -1533 0
-14 -1534 0
-12 -1538 0
-13 -1539 0
-14 -1540 0
-12 -1548 0
-13 -1551 0
-14 -1552 0
-11 -1559 0
-13 -1563 0
-14 -1564 0
-9 -1624 0
-12 -1626 0
-13 -1628 0
-14 -1629 0
-10 -1636 0
-12 -1638 0
-13 -1640 0
-14 -1641 0
-10 -1642 0
-13 -1646 0
-14 -1647 0
-13 -1685 0
-14 -1686 0
-13 -1699 0
-14 -1700 0
-12 -1703 0
-13 -1706 0
-14 -1707 0
-13 -1730 0
-14 -1731 0
-12 -1735 0
-13 -1736 0
-14 -1737 0
-12 -1746 0
-13 -1749 0
-14 -1750 0
-12 -1752 0
-13 -1755 0
-14 -1756 0
-11 -1757 0
-13 -1761 0
-14 -1762 0
-12 -1786 0
-13 -1789 0
-14 -1790 0
-12 -1807 0
-13 -1809 0
-14 -1810 0
-13 -1816 0
-14 -1817 0
-11 -1818 0
-12 -1820 0
-13 -1822 0
-14 -1823 0
-12 -1855 0
-13 -1858 0
-14 -1859 0
-15 -149 0
-16 -150 0
-17 -154 0
-19 -155 0
-20 -156 0
-21 -157 0
-15 -196 0
-16 -197 0
-18 -201 0
-19 -202 0
-20 -203 0
-21 -204 0
-15 -243 0
-16 -244 0
-19 -247 0
-20 -248 0
-21 -249 0
-16 -259 0
-19 -263 0
-20 -264 0
-21 -265 0
-16 -274 0
-19 -277 0
-20 -278 0
-21 -279 0
-15 -360 0
-18 -363 0
-19 -364 0
-20 -365 0
-21 -366 0
-15 -396 0
-19 -401 0
-20 -402 0
-21 -403 0
-16 -422 0
-19 -426 0
-20 -427 0
-21 -428 0
-15 -429 0
-17 -432 0
-18 -433 0
-19 -434 0
-20 -435 0
-21 -436 0
-16 -444 0
-17 -446 0
-18 -448 0
-19 -449 0
-20 -450 0
-21 -451 0
-16 -467 0
-17 -472 0
-18 -473 0
-19 -474 0
-20 -475 0
-21 -476 0
-16 -485 0
-17 -488 0
-19 -489 0
-20 -490 0
-21 -491 0
-16 -492 0
-17 -495 0
-19 -497 0
-20 -498 0
-21 -499 0
-15 -556 0
-17 -559 0
-20 -560 0
-21 -561 0
-15 -600 0
-17 -604 0
-18 -606 0
-19 -607 0
-20 -608 0
-21 -609 0
-16 -616 0
-17 -619 0
-18 -620 0
-20 -621 0
-21 -622 0
-16 -638 0
-17 -642 0
-18 -644 0
-20 -645 0
-21 -646 0
-16 -661 0
-20 -665 0
-21 -666 0
-16 -677 0
-18 -680 0
-19 -681 0
-20 -682 0
-21 -683 0
-20 -732 0
-21 -733 0
-18 -745 0
-19 -746 0
-20 -747 0
-21 -748 0
-18 -753 0
-19 -754 0
-20 -755 0
-21 -756 0
-17 -767 0
-19 -769 0
-20 -770 0
-21 -771 0
-15 -839 0
-16 -840 0
-17 -843 0
-18 -844 0
-20 -845 0
-21 -846 0
-15 -854 0
-16 -855 0
-17 -857 0
-18 -859 0
-20 -860 0
-21 -861 0
-16 -876 0
-17 -878 0
-18 -880 0
-20 -881 0
-21 -882 0
-15 -890 0
-17 -895 0
-18 -897 0
-20 -898 0
-21 -899 0
-15 -940 0
-17 -944 0
-19 -945 0
-20 -946 0
-21 -947 0
-15 -955 0
-17 -958 0
-20 -960 0
-21 -961 0
-16 -962 0
-17 -966 0
-20 -968 0
-21 -969 0
-16 -977 0
-17 -981 0
-20 -982 0
-21 -983 0
-15 -992 0
-18 -996 0
-19 -997 0
-20 -998 0
-21 -999 0
-15 -1007 0
-18 -1011 0
-20 -1012 0
-21 -1013 0
-16 -1014 0
-18 -1019 0
-20 -1020 0
-21 -1021 0
-16 -1029 0
-18 -1033 0
-20 -1034 0
-21 -1035 0
-16 -1044 0
-19 -1048 0
-20 -1049 0
-21 -1050 0
-16 -1061 0
-20 -1065 0
-21 -1066 0
-15 -1073 0
-17 -1076 0
-18 -1077 0
-20 -1078 0
-21 -1079 0
-15 -1107 0
-17 -1110 0
-18 -1112 0
-19 -1113 0
-20 -1114 0
-21 -1115 0
-16 -1122 0
-17 -1124 0
-18 -1126 0
-20 -1127 0
-21 -1128 0
-15 -1129 0
-18 -1131 0
-19 -1132 0
-20 -1133 0
-21 -1134 0
-16 -1141 0
-18 -1144 0
-20 -1145 0
-21 -1146 0
-16 -1153 0
-18 -1157 0
-20 -1158 0
-21 -1159 0
-16 -1169 0
-18 -1171 0
-19 -1172 0
-20 -1173 0
-21 -1174 0
-18 -1179 0
-20 -1180 0
-21 -1181 0
-18 -1192 0
-20 -1193 0
-21 -1194 0
-19 -1205 0
-20 -1206 0
-21 -1207 0
-19 -1220 0
-20 -1221 0
-21 -1222 0
-17 -1233 0
-18 -1235 0
-19 -1236 0
-20 -1237 0
-21 -1238 0
-17 -1249 0
-18 -1251 0
-20 -1252 0
-21 -1253 0
-17 -1256 0
-18 -1257 0
-19 -1258 0
-20 -1259 0
-21 -1260 0
-17 -1270 0
-18 -1272 0
-20 -1273 0
-21 -1274 0
-17 -1284 0
-19 -1286 0
-20 -1287 0
-21 -1288 0
-15 -1289 0
-17 -1292 0
-18 -1293 0
-19 -1294 0
-20 -1295 0
-21 -1296 0
-15 -1332 0
-17 -1335 0
-20 -1337 0
-21 -1338 0
-16 -1346 0
-17 -1349 0
-19 -1350 0
-20 -1351 0
-21 -1352 0
-16 -1362 0
-17 -1365 0
-19 -1367 0
-20 -1368 0
-21 -1369 0
-16 -1377 0
-17 -1380 0
-18 -1381 0
-19 -1382 0
-20 -1383 0
-21 -1384 0
-17 -1395 0
-19 -1397 0
-20 -1398 0
-21 -1399 0
-17 -1410 0
-19 -1411 0
-20 -1412 0
-21 -1413 0
-17 -1425 0
-18 -1426 0
-20 -1427 0
-21 -1428 0
-17 -1439 0
-18 -1441 0
-19 -1442 0
-20 -1443 0
-21 -1444 0
-17 -1448 0
-18 -1450 0
-20 -1451 0
-21 -1452 0
-17 -1462 0
-18 -1463 0
-19 -1464 0
-20 -1465 0
-21 -1466 0
-19 -1477 0
-20 -1478 0
-21 -1479 0
-19 -1492 0
-20 -1493 0
-21 -1494 0
-18 -1504 0
-20 -1505 0
-21 -1506 0
-17 -1508 0
-18 -1509 0
-19 -1510 0
-20 -1511 0
-21 -1512 0
-17 -1523 0
-18 -1525 0
-19 -1526 0
-20 -1527 0
-21 -1528 0
-17 -1537 0
-20 -1539 0
-21 -1540 0
-17 -1543 0
-20 -1545 0
-21 -1546 0
-18 -1556 0
-20 -1557 0
-21 -1558 0
-15 -1572 0
-18 -1575 0
-20 -1576 0
-21 -1577 0
-15 -1605 0
-19 -1608 0
-20 -1609 0
-21 -1610 0
-16 -1618 0
-20 -1622 0
-21 -1623 0
-15 -1624 0
-17 -1625 0
-18 -1627 0
-20 -1628 0
-21 -1629 0
-16 -1630 0
-17 -1632 0
-18 -1633 0
-20 -1634 0
-21 -1635 0
-16 -1654 0
-17 -1656 0
-18 -1658 0
-20 -1659 0
-21 -1660 0
-17 -1669 0
-18 -1671 0
-20 -1672 0
-21 -1673 0
-17 -1676 0
-19 -1678 0
-20 -1679 0
-21 -1680 0
-17 -1688 0
-18 -1690 0
-19 -1691 0
-20 -1692 0
-21 -1693 0
-17 -1697 0
-18 -1698 0
-20 -1699 0
-21 -1700 0
-16 -1714 0
-17 -1715 0
-19 -1717 0
-20 -1718 0
-21 -1719 0
-19 -1723 0
-20 -1724 0
-21 -1725 0
-18 -1741 0
-20 -1742 0
-21 -1743 0
-18 -1753 0
-19 -1754 0
-20 -1755 0
-21 -1756 0
-17 -1759 0
-19 -1760 0
-20 -1761 0
-21 -1762 0
-18 -1766 0
-19 -1767 0
-20 -1768 0
-21 -1769 0
-15 -1771 0
-17 -1773 0
-18 -1774 0
-19 -1775 0
-20 -1776 0
-21 -1777 0
-18 -1787 0
-19 -1788 0
-20 -1789 0
-21 -1790 0
-18 -1800 0
-19 -1801 0
-20 -1802 0
-21 -1803 0
-17 -1825 0
-18 -1827 0
-19 -1828 0
-20 -1829 0
-21 -1830 0
-18 -1840 0
-19 -1841 0
-20 -1842 0
-21 -1843 0
-17 -1846 0
-18 -1848 0
-19 -1849 0
-20 -1850 0
-21 -1851 0
-22 -141 0
-23 -142 0
-25 -144 0
-26 -146 0
-27 -147 0
-28 -148 0
-22 -243 0
-23 -244 0
-25 -246 0
-26 -247 0
-27 -248 0
-28 -249 0
-22 -250 0
-23 -251 0
-25 -252 0
-26 -256 0
-27 -257 0
-28 -258 0
-23 -259 0
-25 -261 0
-26 -263 0
-27 -264 0
-28 -265 0
-23 -266 0
-25 -268 0
-26 -271 0
-27 -272 0
-28 -273 0
-23 -347 0
-26 -350 0
-27 -351 0
-28 -352 0
-22 -353 0
-25 -355 0
-26 -357 0
-27 -358 0
-28 -359 0
-22 -396 0
-24 -398 0
-25 -399 0
-26 -401 0
-27 -402 0
-28 -403 0
-23 -412 0
-24 -414 0
-25 -415 0
-26 -419 0
-27 -420 0
-28 -421 0
-22 -429 0
-26 -434 0
-27 -435 0
-28 -436 0
-22 -437 0
-26 -441 0
-27 -442 0
-28 -443 0
-23 -444 0
-26 -449 0
-27 -450 0
-28 -451 0
-23 -460 0
-26 -464 0
-27 -465 0
-28 -466 0
-23 -492 0
-24 -493 0
-26 -497 0
-27 -498 0
-28 -499 0
-23 -500 0
-24 -501 0
-26 -504 0
-27 -505 0
-28 -506 0
-22 -600 0
-25 -603 0
-26 -607 0
-27 -608 0
-28 -609 0
-22 -610 0
-25 -612 0
-27 -614 0
-28 -615 0
-23 -616 0
-25 -618 0
-27 -621 0
-28 -622 0
-23 -630 0
-25 -633 0
-27 -636 0
-28 -637 0
-23 -677 0
-26 -681 0
-27 -682 0
-28 -683 0
-23 -684 0
-27 -688 0
-28 -689 0
-23 -713 0
-27 -717 0
-28 -718 0
-27 -725 0
-28 -726 0
-24 -750 0
-26 -754 0
-27 -755 0
-28 -756 0
-24 -758 0
-27 -762 0
-28 -763 0
-25 -766 0
-26 -769 0
-27 -770 0
-28 -771 0
-25 -774 0
-27 -777 0
-28 -778 0
-22 -833 0
-23 -834 0
-25 -835 0
-27 -837 0
-28 -838 0
-23 -876 0
-25 -877 0
-27 -881 0
-28 -882 0
-22 -883 0
-25 -886 0
-27 -888 0
-28 -889 0
-22 -940 0
-24 -941 0
-25 -943 0
-26 -945 0
-27 -946 0
-28 -947 0
-22 -948 0
-24 -949 0
-25 -950 0
-27 -953 0
-28 -954 0
-23 -962 0
-24 -964 0
-25 -965 0
-27 -968 0
-28 -969 0
-23 -970 0
-24 -971 0
-25 -973 0
-27 -975 0
-28 -976 0
-22 -992 0
-25 -994 0
-26 -997 0
-27 -998 0
-28 -999 0
-22 -1000 0
-25 -1002 0
-27 -1005 0
-28 -1006 0
-23 -1014 0
-25 -1017 0
-27 -1020 0
-28 -1021 0
-23 -1022 0
-25 -1024 0
-27 -1027 0
-28 -1028 0
-23 -1051 0
-24 -1052 0
-25 -1054 0
-26 -1058 0
-27 -1059 0
-28 -1060 0
-23 -1061 0
-24 -1062 0
-25 -1063 0
-27 -1065 0
-28 -1066 0
-22 -1067 0
-25 -1069 0
-27 -1071 0
-28 -1072 0
-22 -1107 0
-24 -1108 0
-25 -1109 0
-26 -1113 0
-27 -1114 0
-28 -1115 0
-23 -1116 0
-24 -1117 0
-25 -1118 0
-27 -1120 0
-28 -1121 0
-22 -1129 0
-26 -1132 0
-27 -1133 0
-28 -1134 0
-22 -1135 0
-27 -1139 0
-28 -1140 0
-23 -1141 0
-27 -1145 0
-28 -1146 0
-23 -1147 0
-27 -1151 0
-28 -1152 0
-24 -1176 0
-25 -1177 0
-27 -1180 0
-28 -1181 0
-24 -1183 0
-25 -1185 0
-27 -1187 0
-28 -1188 0
-24 -1209 0
-25 -1210 0
-26 -1213 0
-27 -1214 0
-28 -1215 0
-24 -1216 0
-25 -1218 0
-26 -1220 0
-27 -1221 0
-28 -1222 0
-24 -1223 0
-25 -1224 0
-27 -1227 0
-28 -1228 0
-24 -1240 0
-26 -1244 0
-27 -1245 0
-28 -1246 0
-24 -1248 0
-27 -1252 0
-28 -1253 0
-24 -1254 0
-26 -1258 0
-27 -1259 0
-28 -1260 0
-24 -1261 0
-27 -1265 0
-28 -1266 0
-22 -1332 0
-25 -1334 0
-27 -1337 0
-28 -1338 0
-22 -1339 0
-25 -1340 0
-26 -1343 0
-27 -1344 0
-28 -1345 0
-23 -1346 0
-25 -1348 0
-26 -1350 0
-27 -1351 0
-28 -1352 0
-23 -1353 0
-25 -1355 0
-26 -1359 0
-27 -1360 0
-28 -1361 0
-25 -1394 0
-26 -1397 0
-27 -1398 0
-28 -1399 0
-25 -1402 0
-26 -1404 0
-27 -1405 0
-28 -1406 0
-24 -1430 0
-25 -1432 0
-27 -1434 0
-28 -1435 0
-24 -1437 0
-25 -1438 0
-26 -1442 0
-27 -1443 0
-28 -1444 0
-24 -1445 0
-25 -1447 0
-27 -1451 0
-28 -1452 0
-24 -1453 0
-25 -1455 0
-26 -1457 0
-27 -1458 0
-28 -1459 0
-27 -1472 0
-28 -1473 0
-26 -1477 0
-27 -1478 0
-28 -1479 0
-26 -1485 0
-27 -1486 0
-28 -1487 0
-26 -1510 0
-27 -1511 0
-28 -1512 0
-26 -1516 0
-27 -1517 0
-28 -1518 0
-24 -1541 0
-27 -1545 0
-28 -1546 0
-24 -1547 0
-26 -1550 0
-27 -1551 0
-28 -1552 0
-25 -1554 0
-27 -1557 0
-28 -1558 0
-25 -1560 0
-26 -1562 0
-27 -1563 0
-28 -1564 0
-22 -1605 0
-25 -1606 0
-26 -1608 0
-27 -1609 0
-28 -1610 0
-23 -1611 0
-25 -1612 0
-27 -1616 0
-28 -1617 0
-23 -1642 0
-25 -1643 0
-26 -1645 0
-27 -1646 0
-28 -1647 0
-25 -1662 0
-27 -1665 0
-28 -1666 0
-24 -1674 0
-25 -1675 0
-26 -1678 0
-27 -1679 0
-28 -1680 0
-26 -1684 0
-27 -1685 0
-28 -1686 0
-26 -1691 0
-27 -1692 0
-28 -1693 0
-25 -1733 0
-27 -1736 0
-28 -1737 0
-25 -1739 0
-27 -1742 0
-28 -1743 0
-25 -1744 0
-26 -1748 0
-27 -1749 0
-28 -1750 0
-25 -1785 0
-26 -1788 0
-27 -1789 0
-28 -1790 0
-25 -1792 0
-26 -1794 0
-27 -1795 0
-28 -1796 0
-24 -1812 0
-25 -1813 0
-27 -1816 0
-28 -1817 0
-25 -1819 0
-27 -1822 0
-28 -1823 0
-25 -1824 0
-26 -1828 0
-27 -1829 0
-28 -1830 0
-25 -1831 0
-26 -1835 0
-27 -1836 0
-28 -1837 0
-25 -1853 0
-26 -1857 0
-27 -1858 0
-28 -1859 0
-29 -134 0
-32 -138 0
-33 -139 0
-34 -140 0
-29 -189 0
-32 -193 0
-33 -194 0
-34 -195 0
-29 -243 0
-30 -244 0
-32 -247 0
-33 -248 0
-34 -249 0
-29 -250 0
-30 -251 0
-32 -256 0
-33 -257 0
-34 -258 0
-29 -396 0
-31 -397 0
-32 -401 0
-33 -402 0
-34 -403 0
-29 -404 0
-32 -409 0
-33 -410 0
-34 -411 0
-29 -429 0
-31 -430 0
-32 -434 0
-33 -435 0
-34 -436 0
-29 -437 0
-31 -438 0
-32 -441 0
-33 -442 0
-34 -443 0
-29 -452 0
-32 -457 0
-33 -458 0
-34 -459 0
-30 -485 0
-31 -486 0
-32 -489 0
-33 -490 0
-34 -491 0
-30 -492 0
-32 -497 0
-33 -498 0
-34 -499 0
-30 -500 0
-32 -504 0
-33 -505 0
-34 -506 0
-29 -600 0
-31 -601 0
-32 -607 0
-33 -608 0
-34 -609 0
-29 -610 0
-31 -611 0
-33 -614 0
-34 -615 0
-29 -623 0
-33 -628 0
-34 -629 0
-29 -654 0
-33 -659 0
-34 -660 0
-30 -677 0
-32 -681 0
-33 -682 0
-34 -683 0
-30 -684 0
-33 -688 0
-34 -689 0
-31 -742 0
-32 -746 0
-33 -747 0
-34 -748 0
-31 -749 0
-32 -754 0
-33 -755 0
-34 -756 0
-31 -757 0
-33 -762 0
-34 -763 0
-31 -764 0
-32 -769 0
-33 -770 0
-34 -771 0
-31 -772 0
-33 -777 0
-34 -778 0
-29 -940 0
-32 -945 0
-33 -946 0
-34 -947 0
-29 -948 0
-33 -953 0
-34 -954 0
-29 -955 0
-33 -960 0
-34 -961 0
-29 -992 0
-32 -997 0
-33 -998 0
-34 -999 0
-29 -1000 0
-33 -1005 0
-34 -1006 0
-29 -1007 0
-33 -1012 0
-34 -1013 0
-30 -1044 0
-32 -1048 0
-33 -1049 0
-34 -1050 0
-30 -1051 0
-32 -1058 0
-33 -1059 0
-34 -1060 0
-30 -1061 0
-33 -1065 0
-34 -1066 0
-29 -1107 0
-32 -1113 0
-33 -1114 0
-34 -1115 0
-29 -1129 0
-32 -1132 0
-33 -1133 0
-34 -1134 0
-29 -1135 0
-33 -1139 0
-34 -1140 0
-30 -1169 0
-32 -1172 0
-33 -1173 0
-34 -1174 0
-31 -1202 0
-32 -1205 0
-33 -1206 0
-34 -1207 0
-31 -1208 0
-32 -1213 0
-33 -1214 0
-34 -1215 0
-32 -1220 0
-33 -1221 0
-34 -1222 0
-33 -1227 0
-34 -1228 0
-31 -1230 0
-32 -1236 0
-33 -1237 0
-34 -1238 0
-31 -1239 0
-32 -1244 0
-33 -1245 0
-34 -1246 0
-31 -1247 0
-33 -1252 0
-34 -1253 0
-32 -1258 0
-33 -1259 0
-34 -1260 0
-33 -1265 0
-34 -1266 0
-33 -1273 0
-34 -1274 0
-29 -1332 0
-33 -1337 0
-34 -1338 0
-29 -1339 0
-32 -1343 0
-33 -1344 0
-34 -1345 0
-31 -1422 0
-33 -1427 0
-34 -1428 0
-31 -1429 0
-33 -1434 0
-34 -1435 0
-31 -1436 0
-32 -1442 0
-33 -1443 0
-34 -1444 0
-33 -1451 0
-34 -1452 0
-32 -1457 0
-33 -1458 0
-34 -1459 0
-32 -1464 0
-33 -1465 0
-34 -1466 0
-31 -1467 0
-33 -1472 0
-34 -1473 0
-31 -1474 0
-32 -1477 0
-33 -1478 0
-34 -1479 0
-32 -1485 0
-33 -1486 0
-34 -1487 0
-32 -1492 0
-33 -1493 0
-34 -1494 0
-31 -1535 0
-33 -1539 0
-34 -1540 0
-33 -1545 0
-34 -1546 0
-32 -1550 0
-33 -1551 0
-34 -1552 0
-33 -1557 0
-34 -1558 0
-32 -1562 0
-33 -1563 0
-34 -1564 0
-29 -1605 0
-32 -1608 0
-33 -1609 0
-34 -1610 0
-29 -1624 0
-33 -1628 0
-34 -1629 0
-30 -1642 0
-32 -1645 0
-33 -1646 0
-34 -1647 0
-32 -1678 0
-33 -1679 0
-34 -1680 0
-31 -1681 0
-32 -1684 0
-33 -1685 0
-34 -1686 0
-32 -1691 0
-33 -1692 0
-34 -1693 0
-33 -1699 0
-34 -1700 0
-31 -1732 0
-33 -1736 0
-34 -1737 0
-33 -1742 0
-34 -1743 0
-32 -1748 0
-33 -1749 0
-34 -1750 0
-32 -1754 0
-33 -1755 0
-34 -1756 0
-32 -1760 0
-33 -1761 0
-34 -1762 0
-33 -1816 0
-34 -1817 0
-33 -1822 0
-34 -1823 0
-32 -1828 0
-33 -1829 0
-34 -1830 0
-32 -1857 0
-33 -1858 0
-34 -1859 0
-35 -64 0
-36 -65 0
-37 -66 0
-38 -67 0
-39 -68 0
-40 -69 0
-41 -70 0
-42 -71 0
-35 -124 0
-36 -125 0
-38 -128 0
-39 -129 0
-40 -131 0
-41 -132 0
-42 -133 0
-35 -205 0
-36 -206 0
-38 -208 0
-39 -209 0
-41 -210 0
-42 -211 0
-35 -219 0
-36 -220 0
-38 -222 0
-39 -223 0
-41 -225 0
-42 -226 0
-35 -227 0
-36 -228 0
-37 -231 0
-38 -232 0
-39 -233 0
-41 -234 0
-42 -235 0
-36 -236 0
-38 -239 0
-39 -240 0
-41 -241 0
-42 -242 0
-36 -280 0
-38 -282 0
-39 -283 0
-41 -285 0
-42 -286 0
-35 -334 0
-36 -335 0
-37 -336 0
-38 -337 0
-41 -338 0
-42 -339 0
-36 -340 0
-37 -342 0
-38 -343 0
-41 -345 0
-42 -346 0
-35 -376 0
-38 -379 0
-41 -381 0
-42 -382 0
-35 -383 0
-37 -386 0
-38 -387 0
-41 -388 0
-42 -389 0
-36 -390 0
-38 -393 0
-41 -394 0
-42 -395 0
-35 -437 0
-38 -439 0
-39 -440 0
-40 -441 0
-41 -442 0
-42 -443 0
-36 -444 0
-38 -446 0
-39 -447 0
-40 -449 0
-41 -450 0
-42 -451 0
-35 -452 0
-37 -455 0
-38 -456 0
-40 -457 0
-41 -458 0
-42 -459 0
-36 -460 0
-38 -463 0
-40 -464 0
-41 -465 0
-42 -466 0
-36 -467 0
-37 -471 0
-38 -472 0
-40 -474 0
-41 -475 0
-42 -476 0
-36 -500 0
-38 -502 0
-40 -504 0
-41 -505 0
-42 -506 0
-35 -525 0
-36 -526 0
-37 -528 0
-40 -530 0
-41 -531 0
-42 -532 0
-35 -562 0
-39 -564 0
-40 -566 0
-41 -567 0
-42 -568 0
-35 -576 0
-38 -579 0
-40 -581 0
-41 -582 0
-42 -583 0
-35 -584 0
-37 -588 0
-40 -590 0
-41 -591 0
-42 -592 0
-36 -593 0
-40 -597 0
-41 -598 0
-42 -599 0
-36 -647 0
-40 -651 0
-41 -652 0
-42 -653 0
-35 -654 0
-37 -656 0
-38 -657 0
-41 -659 0
-42 -660 0
-36 -661 0
-37 -664 0
-41 -665 0
-42 -666 0
-36 -684 0
-38 -686 0
-41 -688 0
-42 -689 0
-35 -697 0
-37 -699 0
-38 -700 0
-39 -701 0
-40 -703 0
-41 -704 0
-42 -705 0
-36 -706 0
-37 -708 0
-39 -709 0
-40 -710 0
-41 -711 0
-42 -712 0
-38 -722 0
-39 -723 0
-41 -725 0
-42 -726 0
-37 -730 0
-39 -731 0
-41 -732 0
-42 -733 0
-38 -759 0
-39 -760 0
-41 -762 0
-42 -763 0
-37 -766 0
-38 -767 0
-39 -768 0
-40 -769 0
-41 -770 0
-42 -771 0
-35 -826 0
-36 -827 0
-39 -829 0
-40 -830 0
-41 -831 0
-42 -832 0
-35 -862 0
-36 -863 0
-39 -864 0
-40 -866 0
-41 -867 0
-42 -868 0
-36 -869 0
-39 -871 0
-40 -873 0
-41 -874 0
-42 -875 0
-35 -900 0
-37 -903 0
-39 -904 0
-40 -905 0
-41 -906 0
-42 -907 0
-35 -914 0
-37 -917 0
-38 -918 0
-39 -919 0
-40 -921 0
-41 -922 0
-42 -923 0
-35 -924 0
-39 -927 0
-40 -928 0
-41 -929 0
-42 -930 0
-36 -931 0
-37 -935 0
-39 -936 0
-40 -937 0
-41 -938 0
-42 -939 0
-36 -984 0
-37 -986 0
-39 -987 0
-40 -989 0
-41 -990 0
-42 -991 0
-35 -1000 0
-37 -1002 0
-38 -1003 0
-39 -1004 0
-41 -1005 0
-42 -1006 0
-35 -1007 0
-39 -1010 0
-41 -1012 0
-42 -1013 0
-36 -1014 0
-37 -1017 0
-39 -1018 0
-41 -1020 0
-42 -1021 0
-36 -1022 0
-37 -1024 0
-38 -1025 0
-39 -1026 0
-41 -1027 0
-42 -1028 0
-36 -1029 0
-39 -1032 0
-41 -1034 0
-42 -1035 0
-36 -1061 0
-37 -1063 0
-39 -1064 0
-41 -1065 0
-42 -1066 0
-35 -1087 0
-38 -1089 0
-40 -1090 0
-41 -1091 0
-42 -1092 0
-35 -1093 0
-37 -1095 0
-40 -1097 0
-41 -1098 0
-42 -1099 0
-36 -1100 0
-40 -1104 0
-41 -1105 0
-42 -1106 0
-35 -1135 0
-38 -1136 0
-39 -1137 0
-41 -1139 0
-42 -1140 0
-36 -1141 0
-39 -1143 0
-41 -1145 0
-42 -1146 0
-36 -1147 0
-38 -1149 0
-41 -1151 0
-42 -1152 0
-36 -1153 0
-37 -1156 0
-41 -1158 0
-42 -1159 0
-37 -1177 0
-39 -1178 0
-41 -1180 0
-42 -1181 0
-37 -1185 0
-38 -1186 0
-41 -1187 0
-42 -1188 0
-41 -1193 0
-42 -1194 0
-37 -1224 0
-38 -1225 0
-41 -1227 0
-42 -1228 0
-37 -1232 0
-38 -1233 0
-39 -1234 0
-40 -1236 0
-41 -1237 0
-42 -1238 0
-39 -1242 0
-40 -1244 0
-41 -1245 0
-42 -1246 0
-38 -1256 0
-40 -1258 0
-41 -1259 0
-42 -1260 0
-37 -1283 0
-38 -1284 0
-39 -1285 0
-40 -1286 0
-41 -1287 0
-42 -1288 0
-35 -1297 0
-38 -1299 0
-39 -1300 0
-40 -1301 0
-41 -1302 0
-42 -1303 0
-35 -1311 0
-40 -1314 0
-41 -1315 0
-42 -1316 0
-35 -1317 0
-37 -1320 0
-38 -1321 0
-40 -1322 0
-41 -1323 0
-42 -1324 0
-36 -1325 0
-38 -1328 0
-40 -1329 0
-41 -1330 0
-42 -1331 0
-36 -1370 0
-38 -1372 0
-40 -1374 0
-41 -1375 0
-42 -1376 0
-36 -1377 0
-37 -1379 0
-38 -1380 0
-40 -1382 0
-41 -1383 0
-42 -1384 0
-37 -1394 0
-38 -1395 0
-39 -1396 0
-40 -1397 0
-41 -1398 0
-42 -1399 0
-37 -1402 0
-40 -1404 0
-41 -1405 0
-42 -1406 0
-38 -1410 0
-40 -1411 0
-41 -1412 0
-42 -1413 0
-37 -1438 0
-38 -1439 0
-39 -1440 0
-40 -1442 0
-41 -1443 0
-42 -1444 0
-37 -1455 0
-40 -1457 0
-41 -1458 0
-42 -1459 0
-38 -1462 0
-40 -1464 0
-41 -1465 0
-42 -1466 0
-38 -1469 0
-39 -1470 0
-41 -1472 0
-42 -1473 0
-37 -1502 0
-39 -1503 0
-41 -1505 0
-42 -1506 0
-38 -1508 0
-40 -1510 0
-41 -1511 0
-42 -1512 0
-39 -1515 0
-40 -1516 0
-41 -1517 0
-42 -1518 0
-37 -1522 0
-38 -1523 0
-39 -1524 0
-40 -1526 0
-41 -1527 0
-42 -1528 0
-39 -1548 0
-40 -1550 0
-41 -1551 0
-42 -1552 0
-37 -1554 0
-39 -1555 0
-41 -1557 0
-42 -1558 0
-35 -1585 0
-37 -1586 0
-38 -1587 0
-40 -1589 0
-41 -1590 0
-42 -1591 0
-35 -1592 0
-38 -1594 0
-40 -1595 0
-41 -1596 0
-42 -1597 0
-36 -1598 0
-37 -1600 0
-38 -1601 0
-40 -1602 0
-41 -1603 0
-42 -1604 0
-35 -1624 0
-38 -1625 0
-39 -1626 0
-41 -1628 0
-42 -1629 0
-36 -1630 0
-38 -1632 0
-41 -1634 0
-42 -1635 0
-36 -1654 0
-37 -1655 0
-38 -1656 0
-39 -1657 0
-41 -1659 0
-42 -1660 0
-37 -1662 0
-38 -1663 0
-39 -1664 0
-41 -1665 0
-42 -1666 0
-38 -1669 0
-39 -1670 0
-41 -1672 0
-42 -1673 0
-38 -1682 0
-40 -1684 0
-41 -1685 0
-42 -1686 0
-38 -1688 0
-39 -1689 0
-40 -1691 0
-41 -1692 0
-42 -1693 0
-35 -1708 0
-37 -1709 0
-39 -1710 0
-40 -1711 0
-41 -1712 0
-42 -1713 0
-39 -1722 0
-40 -1723 0
-41 -1724 0
-42 -1725 0
-37 -1744 0
-38 -1745 0
-39 -1746 0
-40 -1748 0
-41 -1749 0
-42 -1750 0
-39 -1752 0
-40 -1754 0
-41 -1755 0
-42 -1756 0
-37 -1764 0
-39 -1765 0
-40 -1767 0
-41 -1768 0
-42 -1769 0
-36 -1778 0
-37 -1779 0
-40 -1781 0
-41 -1782 0
-42 -1783 0
-37 -1785 0
-39 -1786 0
-40 -1788 0
-41 -1789 0
-42 -1790 0
-37 -1792 0
-38 -1793 0
-40 -1794 0
-41 -1795 0
-42 -1796 0
-37 -1799 0
-40 -1801 0
-41 -1802 0
-42 -1803 0
-37 -1819 0
-39 -1820 0
-41 -1822 0
-42 -1823 0
-37 -1831 0
-38 -1832 0
-39 -1833 0
-40 -1835 0
-41 -1836 0
-42 -1837 0
-39 -1839 0
-40 -1841 0
-41 -1842 0
-42 -1843 0
-38 -1846 0
-39 -1847 0
-40 -1849 0
-41 -1850 0
-42 -1851 0
-43 -88 0
-46 -91 0
-48 -92 0
-49 -93 0
-43 -189 0
-46 -192 0
-48 -194 0
-49 -195 0
-43 -196 0
-44 -197 0
-46 -200 0
-47 -201 0
-48 -203 0
-49 -204 0
-43 -205 0
-44 -206 0
-46 -209 0
-48 -210 0
-49 -211 0
-43 -227 0
-44 -228 0
-45 -231 0
-46 -233 0
-48 -234 0
-49 -235 0
-43 -360 0
-47 -363 0
-48 -365 0
-49 -366 0
-43 -383 0
-45 -386 0
-48 -388 0
-49 -389 0
-43 -429 0
-47 -433 0
-48 -435 0
-49 -436 0
-43 -437 0
-46 -440 0
-48 -442 0
-49 -443 0
-44 -444 0
-46 -447 0
-47 -448 0
-48 -450 0
-49 -451 0
-43 -452 0
-45 -455 0
-48 -458 0
-49 -459 0
-44 -467 0
-45 -471 0
-47 -473 0
-48 -475 0
-49 -476 0
-44 -477 0
-45 -480 0
-46 -482 0
-48 -483 0
-49 -484 0
-43 -556 0
-48 -560 0
-49 -561 0
-43 -562 0
-46 -564 0
-47 -565 0
-48 -567 0
-49 -568 0
-43 -584 0
-45 -588 0
-47 -589 0
-48 -591 0
-49 -592 0
-43 -654 0
-45 -656 0
-47 -658 0
-48 -659 0
-49 -660 0
-44 -661 0
-45 -664 0
-48 -665 0
-49 -666 0
-44 -667 0
-45 -670 0
-46 -672 0
-47 -673 0
-48 -675 0
-49 -676 0
-45 -730 0
-46 -731 0
-48 -732 0
-49 -733 0
-45 -736 0
-47 -738 0
-48 -740 0
-49 -741 0
-45 -766 0
-46 -768 0
-48 -770 0
-49 -771 0
-45 -774 0
-47 -776 0
-48 -777 0
-49 -778 0
-43 -792 0
-46 -795 0
-47 -796 0
-48 -798 0
-49 -799 0
-43 -854 0
-44 -855 0
-46 -858 0
-47 -859 0
-48 -860 0
-49 -861 0
-43 -862 0
-44 -863 0
-46 -864 0
-47 -865 0
-48 -867 0
-49 -868 0
-43 -890 0
-45 -894 0
-46 -896 0
-47 -897 0
-48 -898 0
-49 -899 0
-43 -900 0
-45 -903 0
-46 -904 0
-48 -906 0
-49 -907 0
-43 -924 0
-46 -927 0
-48 -929 0
-49 -930 0
-43 -955 0
-45 -957 0
-46 -959 0
-48 -960 0
-49 -961 0
-43 -992 0
-45 -994 0
-46 -995 0
-47 -996 0
-48 -998 0
-49 -999 0
-43 -1000 0
-45 -1002 0
-46 -1004 0
-48 -1005 0
-49 -1006 0
-44 -1014 0
-45 -1017 0
-46 -1018 0
-47 -1019 0
-48 -1020 0
-49 -1021 0
-44 -1029 0
-46 -1032 0
-47 -1033 0
-48 -1034 0
-49 -1035 0
-44 -1036 0
-46 -1040 0
-48 -1042 0
-49 -1043 0
-44 -1051 0
-45 -1054 0
-46 -1056 0
-47 -1057 0
-48 -1059 0
-49 -1060 0
-44 -1061 0
-45 -1063 0
-46 -1064 0
-48 -1065 0
-49 -1066 0
-43 -1073 0
-47 -1077 0
-48 -1078 0
-49 -1079 0
-43 -1093 0
-45 -1095 0
-47 -1096 0
-48 -1098 0
-49 -1099 0
-43 -1129 0
-47 -1131 0
-48 -1133 0
-49 -1134 0
-43 -1135 0
-46 -1137 0
-47 -1138 0
-48 -1139 0
-49 -1140 0
-44 -1141 0
-46 -1143 0
-47 -1144 0
-48 -1145 0
-49 -1146 0
-44 -1153 0
-45 -1156 0
-47 -1157 0
-48 -1158 0
-49 -1159 0
-44 -1160 0
-45 -1162 0
-46 -1164 0
-47 -1165 0
-48 -1167 0
-49 -1168 0
-45 -1177 0
-46 -1178 0
-47 -1179 0
-48 -1180 0
-49 -1181 0
-47 -1192 0
-48 -1193 0
-49 -1194 0
-46 -1198 0
-48 -1200 0
-49 -1201 0
-45 -1210 0
-47 -1212 0
-48 -1214 0
-49 -1215 0
-45 -1232 0
-46 -1234 0
-47 -1235 0
-48 -1237 0
-49 -1238 0
-47 -1257 0
-48 -1259 0
-49 -1260 0
-46 -1264 0
-48 -1265 0
-49 -1266 0
-45 -1277 0
-47 -1278 0
-48 -1280 0
-49 -1281 0
-45 -1283 0
-46 -1285 0
-48 -1287 0
-49 -1288 0
-43 -1289 0
-47 -1293 0
-48 -1295 0
-49 -1296 0
-43 -1297 0
-46 -1300 0
-48 -1302 0
-49 -1303 0
-43 -1317 0
-45 -1320 0
-48 -1323 0
-49 -1324 0
-44 -1377 0
-45 -1379 0
-47 -1381 0
-48 -1383 0
-49 -1384 0
-44 -1385 0
-45 -1387 0
-46 -1388 0
-48 -1390 0
-49 -1391 0
-45 -1394 0
-46 -1396 0
-48 -1398 0
-49 -1399 0
-48 -1412 0
-49 -1413 0
-46 -1417 0
-47 -1418 0
-48 -1420 0
-49 -1421 0
-45 -1432 0
-48 -1434 0
-49 -1435 0
-45 -1438 0
-46 -1440 0
-47 -1441 0
-48 -1443 0
-49 -1444 0
-47 -1463 0
-48 -1465 0
-49 -1466 0
-46 -1483 0
-47 -1484 0
-48 -1486 0
-49 -1487 0
-45 -1496 0
-48 -1499 0
-49 -1500 0
-45 -1502 0
-46 -1503 0
-47 -1504 0
-48 -1505 0
-49 -1506 0
-47 -1509 0
-48 -1511 0
-49 -1512 0
-45 -1522 0
-46 -1524 0
-47 -1525 0
-48 -1527 0
-49 -1528 0
-45 -1531 0
-48 -1533 0
-49 -1534 0
-45 -1554 0
-46 -1555 0
-47 -1556 0
-48 -1557 0
-49 -1558 0
-45 -1560 0
-48 -1563 0
-49 -1564 0
-43 -1572 0
-45 -1574 0
-47 -1575 0
-48 -1576 0
-49 -1577 0
-43 -1592 0
-48 -1596 0
-49 -1597 0
-44 -1630 0
-47 -1633 0
-48 -1634 0
-49 -1635 0
-44 -1636 0
-46 -1638 0
-48 -1640 0
-49 -1641 0
-44 -1642 0
-45 -1643 0
-47 -1644 0
-48 -1646 0
-49 -1647 0
-44 -1654 0
-45 -1655 0
-46 -1657 0
-47 -1658 0
-48 -1659 0
-49 -1660 0
-46 -1670 0
-47 -1671 0
-48 -1672 0
-49 -1673 0
-46 -1689 0
-47 -1690 0
-48 -1692 0
-49 -1693 0
-45 -1701 0
-46 -1703 0
-47 -1704 0
-48 -1706 0
-49 -1707 0
-43 -1708 0
-45 -1709 0
-46 -1710 0
-48 -1712 0
-49 -1713 0
-46 -1722 0
-48 -1724 0
-49 -1725 0
-47 -1728 0
-48 -1730 0
-49 -1731 0
-45 -1733 0
-46 -1735 0
-48 -1736 0
-49 -1737 0
-46 -1752 0
-47 -1753 0
-48 -1755 0
-49 -1756 0
-45 -1764 0
-46 -1765 0
-47 -1766 0
-48 -1768 0
-49 -1769 0
-43 -1771 0
-45 -1772 0
-47 -1774 0
-48 -1776 0
-49 -1777 0
-45 -1785 0
-46 -1786 0
-47 -1787 0
-48 -1789 0
-49 -1790 0
-45 -1799 0
-47 -1800 0
-48 -1802 0
-49 -1803 0
-45 -1805 0
-46 -1807 0
-48 -1809 0
-49 -1810 0
-45 -1813 0
-47 -1815 0
-48 -1816 0
-49 -1817 0
-46 -1839 0
-47 -1840 0
-48 -1842 0
-49 -1843 0
-46 -1847 0
-47 -1848 0
-48 -1850 0
-49 -1851 0
-45 -1853 0
-46 -1855 0
-47 -1856 0
-48 -1858 0
-49 -1859 0
-50 -80 0
-53 -83 0
-54 -84 0
-55 -86 0
-56 -87 0
-50 -189 0
-53 -191 0
-54 -192 0
-55 -194 0
-56 -195 0
-50 -205 0
-51 -206 0
-53 -208 0
-54 -209 0
-55 -210 0
-56 -211 0
-50 -219 0
-51 -220 0
-53 -222 0
-54 -223 0
-55 -225 0
-56 -226 0
-50 -250 0
-51 -251 0
-53 -253 0
-54 -254 0
-55 -257 0
-56 -258 0
-50 -334 0
-51 -335 0
-53 -337 0
-55 -338 0
-56 -339 0
-50 -353 0
-53 -356 0
-55 -358 0
-56 -359 0
-50 -376 0
-52 -378 0
-53 -379 0
-55 -381 0
-56 -382 0
-50 -429 0
-53 -432 0
-55 -435 0
-56 -436 0
-51 -444 0
-53 -446 0
-54 -447 0
-55 -450 0
-56 -451 0
-50 -452 0
-52 -453 0
-53 -456 0
-55 -458 0
-56 -459 0
-51 -460 0
-53 -463 0
-55 -465 0
-56 -466 0
-51 -477 0
-52 -479 0
-53 -481 0
-54 -482 0
-55 -483 0
-56 -484 0
-51 -485 0
-53 -488 0
-55 -490 0
-56 -491 0
-51 -500 0
-52 -501 0
-53 -502 0
-55 -505 0
-56 -506 0
-50 -562 0
-54 -564 0
-55 -567 0
-56 -568 0
-50 -576 0
-53 -579 0
-55 -582 0
-56 -583 0
-50 -610 0
-55 -614 0
-56 -615 0
-50 -654 0
-53 -657 0
-55 -659 0
-56 -660 0
-51 -667 0
-53 -671 0
-54 -672 0
-55 -675 0
-56 -676 0
-51 -684 0
-53 -686 0
-55 -688 0
-56 -689 0
-50 -697 0
-53 -700 0
-54 -701 0
-55 -704 0
-56 -705 0
-53 -722 0
-54 -723 0
-55 -725 0
-56 -726 0
-52 -735 0
-53 -737 0
-55 -740 0
-56 -741 0
-54 -744 0
-55 -747 0
-56 -748 0
-52 -758 0
-53 -759 0
-54 -760 0
-55 -762 0
-56 -763 0
-53 -767 0
-54 -768 0
-55 -770 0
-56 -771 0
-50 -786 0
-54 -788 0
-55 -790 0
-56 -791 0
-50 -862 0
-51 -863 0
-54 -864 0
-55 -867 0
-56 -868 0
-50 -883 0
-54 -887 0
-55 -888 0
-56 -889 0
-50 -900 0
-52 -902 0
-54 -904 0
-55 -906 0
-56 -907 0
-50 -914 0
-52 -915 0
-53 -918 0
-54 -919 0
-55 -922 0
-56 -923 0
-50 -948 0
-52 -949 0
-54 -951 0
-55 -953 0
-56 -954 0
-50 -992 0
-54 -995 0
-55 -998 0
-56 -999 0
-50 -1007 0
-52 -1008 0
-54 -1010 0
-55 -1012 0
-56 -1013 0
-51 -1014 0
-54 -1018 0
-55 -1020 0
-56 -1021 0
-51 -1022 0
-53 -1025 0
-54 -1026 0
-55 -1027 0
-56 -1028 0
-51 -1036 0
-52 -1037 0
-53 -1039 0
-54 -1040 0
-55 -1042 0
-56 -1043 0
-51 -1044 0
-54 -1047 0
-55 -1049 0
-56 -1050 0
-51 -1061 0
-52 -1062 0
-54 -1064 0
-55 -1065 0
-56 -1066 0
-50 -1067 0
-55 -1071 0
-56 -1072 0
-50 -1087 0
-52 -1088 0
-53 -1089 0
-55 -1091 0
-56 -1092 0
-50 -1129 0
-55 -1133 0
-56 -1134 0
-51 -1141 0
-54 -1143 0
-55 -1145 0
-56 -1146 0
-51 -1147 0
-53 -1149 0
-55 -1151 0
-56 -1152 0
-51 -1160 0
-52 -1161 0
-53 -1163 0
-54 -1164 0
-55 -1167 0
-56 -1168 0
-51 -1169 0
-55 -1173 0
-56 -1174 0
-52 -1176 0
-54 -1178 0
-55 -1180 0
-56 -1181 0
-52 -1183 0
-53 -1186 0
-55 -1187 0
-56 -1188 0
-52 -1196 0
-53 -1197 0
-54 -1198 0
-55 -1200 0
-56 -1201 0
-52 -1203 0
-55 -1206 0
-56 -1207 0
-52 -1223 0
-53 -1225 0
-55 -1227 0
-56 -1228 0
-52 -1240 0
-54 -1242 0
-55 -1245 0
-56 -1246 0
-52 -1254 0
-53 -1256 0
-55 -1259 0
-56 -1260 0
-52 -1267 0
-53 -1270 0
-54 -1271 0
-55 -1273 0
-56 -1274 0
-52 -1275 0
-55 -1280 0
-56 -1281 0
-50 -1297 0
-53 -1299 0
-54 -1300 0
-55 -1302 0
-56 -1303 0
-50 -1311 0
-55 -1315 0
-56 -1316 0
-50 -1339 0
-53 -1341 0
-55 -1344 0
-56 -1345 0
-51 -1385 0
-54 -1388 0
-55 -1390 0
-56 -1391 0
-53 -1395 0
-54 -1396 0
-55 -1398 0
-56 -1399 0
-55 -1405 0
-56 -1406 0
-52 -1415 0
-54 -1417 0
-55 -1420 0
-56 -1421 0
-53 -1425 0
-55 -1427 0
-56 -1428 0
-52 -1437 0
-53 -1439 0
-54 -1440 0
-55 -1443 0
-56 -1444 0
-52 -1453 0
-55 -1458 0
-56 -1459 0
-53 -1469 0
-54 -1470 0
-55 -1472 0
-56 -1473 0
-52 -1488 0
-54 -1491 0
-55 -1493 0
-56 -1494 0
-53 -1497 0
-55 -1499 0
-56 -1500 0
-53 -1508 0
-55 -1511 0
-56 -1512 0
-54 -1515 0
-55 -1517 0
-56 -1518 0
-52 -1530 0
-55 -1533 0
-56 -1534 0
-53 -1537 0
-54 -1538 0
-55 -1539 0
-56 -1540 0
-52 -1547 0
-54 -1548 0
-55 -1551 0
-56 -1552 0
-54 -1555 0
-55 -1557 0
-56 -1558 0
-50 -1585 0
-53 -1587 0
-55 -1590 0
-56 -1591 0
-50 -1624 0
-53 -1625 0
-54 -1626 0
-55 -1628 0
-56 -1629 0
-51 -1636 0
-53 -1637 0
-54 -1638 0
-55 -1640 0
-56 -1641 0
-53 -1663 0
-54 -1664 0
-55 -1665 0
-56 -1666 0
-53 -1682 0
-55 -1685 0
-56 -1686 0
-53 -1688 0
-54 -1689 0
-55 -1692 0
-56 -1693 0
-52 -1695 0
-53 -1697 0
-55 -1699 0
-56 -1700 0
-53 -1702 0
-54 -1703 0
-55 -1706 0
-56 -1707 0
-53 -1727 0
-55 -1730 0
-56 -1731 0
-53 -1745 0
-54 -1746 0
-55 -1749 0
-56 -1750 0
-53 -1759 0
-55 -1761 0
-56 -1762 0
-54 -1786 0
-55 -1789 0
-56 -1790 0
-53 -1793 0
-55 -1795 0
-56 -1796 0
-52 -1804 0
-53 -1806 0
-54 -1807 0
-55 -1809 0
-56 -1810 0
-54 -1820 0
-55 -1822 0
-56 -1823 0
-53 -1832 0
-54 -1833 0
-55 -1836 0
-56 -1837 0
-57 -80 0
-60 -82 0
-61 -85 0
-62 -86 0
-63 -87 0
-57 -134 0
-60 -136 0
-61 -137 0
-62 -139 0
-63 -140 0
-57 -141 0
-58 -142 0
-60 -144 0
-61 -145 0
-62 -147 0
-63 -148 0
-57 -168 0
-58 -169 0
-60 -171 0
-61 -173 0
-62 -174 0
-63 -175 0
-57 -250 0
-58 -251 0
-60 -252 0
-61 -255 0
-62 -257 0
-63 -258 0
-57 -353 0
-60 -355 0
-62 -358 0
-63 -359 0
-57 -376 0
-61 -380 0
-62 -381 0
-63 -382 0
-57 -396 0
-60 -399 0
-62 -402 0
-63 -403 0
-57 -404 0
-61 -408 0
-62 -410 0
-63 -411 0
-58 -412 0
-60 -415 0
-61 -418 0
-62 -420 0
-63 -421 0
-57 -437 0
-62 -442 0
-63 -443 0
-58 -485 0
-60 -487 0
-62 -490 0
-63 -491 0
-58 -500 0
-61 -503 0
-62 -505 0
-63 -506 0
-57 -541 0
-58 -542 0
-61 -544 0
-62 -546 0
-63 -547 0
-57 -562 0
-61 -565 0
-62 -567 0
-63 -568 0
-57 -576 0
-59 -578 0
-61 -580 0
-62 -582 0
-63 -583 0
-57 -600 0
-59 -602 0
-60 -603 0
-61 -606 0
-62 -608 0
-63 -609 0
-58 -616 0
-60 -618 0
-61 -620 0
-62 -621 0
-63 -622 0
-57 -623 0
-59 -625 0
-61 -627 0
-62 -628 0
-63 -629 0
-58 -630 0
-59 -632 0
-60 -633 0
-61 -635 0
-62 -636 0
-63 -637 0
-58 -647 0
-61 -650 0
-62 -652 0
-63 -653 0
-58 -684 0
-59 -685 0
-61 -687 0
-62 -688 0
-63 -689 0
-57 -697 0
-60 -699 0
-61 -702 0
-62 -704 0
-63 -705 0
-58 -713 0
-61 -716 0
-62 -717 0
-63 -718 0
-59 -721 0
-61 -724 0
-62 -725 0
-63 -726 0
-60 -736 0
-61 -738 0
-62 -740 0
-63 -741 0
-59 -751 0
-61 -753 0
-62 -755 0
-63 -756 0
-59 -773 0
-60 -774 0
-61 -776 0
-62 -777 0
-63 -778 0
-57 -786 0
-60 -787 0
-62 -790 0
-63 -791 0
-57 -833 0
-58 -834 0
-60 -835 0
-62 -837 0
-63 -838 0
-57 -883 0
-59 -885 0
-60 -886 0
-62 -888 0
-63 -889 0
-57 -900 0
-60 -903 0
-62 -906 0
-63 -907 0
-57 -914 0
-59 -916 0
-60 -917 0
-61 -920 0
-62 -922 0
-63 -923 0
-57 -940 0
-59 -942 0
-60 -943 0
-62 -946 0
-63 -947 0
-57 -955 0
-60 -957 0
-62 -960 0
-63 -961 0
-58 -962 0
-60 -965 0
-62 -968 0
-63 -969 0
-58 -970 0
-59 -972 0
-60 -973 0
-61 -974 0
-62 -975 0
-63 -976 0
-58 -984 0
-60 -986 0
-61 -988 0
-62 -990 0
-63 -991 0
-57 -1000 0
-59 -1001 0
-60 -1002 0
-62 -1005 0
-63 -1006 0
-58 -1044 0
-59 -1045 0
-60 -1046 0
-62 -1049 0
-63 -1050 0
-58 -1061 0
-60 -1063 0
-62 -1065 0
-63 -1066 0
-57 -1067 0
-60 -1069 0
-61 -1070 0
-62 -1071 0
-63 -1072 0
-57 -1087 0
-62 -1091 0
-63 -1092 0
-57 -1107 0
-60 -1109 0
-61 -1112 0
-62 -1114 0
-63 -1115 0
-58 -1116 0
-60 -1118 0
-62 -1120 0
-63 -1121 0
-57 -1135 0
-61 -1138 0
-62 -1139 0
-63 -1140 0
-58 -1169 0
-60 -1170 0
-61 -1171 0
-62 -1173 0
-63 -1174 0
-60 -1177 0
-61 -1179 0
-62 -1180 0
-63 -1181 0
-59 -1184 0
-60 -1185 0
-62 -1187 0
-63 -1188 0
-62 -1200 0
-63 -1201 0
-60 -1210 0
-61 -1212 0
-62 -1214 0
-63 -1215 0
-59 -1217 0
-60 -1218 0
-62 -1221 0
-63 -1222 0
-59 -1231 0
-60 -1232 0
-61 -1235 0
-62 -1237 0
-63 -1238 0
-61 -1251 0
-62 -1252 0
-63 -1253 0
-59 -1262 0
-62 -1265 0
-63 -1266 0
-59 -1276 0
-60 -1277 0
-61 -1278 0
-62 -1280 0
-63 -1281 0
-57 -1297 0
-62 -1302 0
-63 -1303 0
-57 -1311 0
-59 -1312 0
-61 -1313 0
-62 -1315 0
-63 -1316 0
-57 -1332 0
-59 -1333 0
-60 -1334 0
-62 -1337 0
-63 -1338 0
-58 -1346 0
-60 -1348 0
-62 -1351 0
-63 -1352 0
-58 -1353 0
-59 -1354 0
-60 -1355 0
-61 -1358 0
-62 -1360 0
-63 -1361 0
-58 -1370 0
-61 -1373 0
-62 -1375 0
-63 -1376 0
-59 -1393 0
-60 -1394 0
-62 -1398 0
-63 -1399 0
-59 -1401 0
-60 -1402 0
-61 -1403 0
-62 -1405 0
-63 -1406 0
-59 -1416 0
-61 -1418 0
-62 -1420 0
-63 -1421 0
-59 -1431 0
-60 -1432 0
-62 -1434 0
-63 -1435 0
-59 -1446 0
-60 -1447 0
-61 -1450 0
-62 -1451 0
-63 -1452 0
-59 -1461 0
-61 -1463 0
-62 -1465 0
-63 -1466 0
-59 -1475 0
-62 -1478 0
-63 -1479 0
-59 -1481 0
-61 -1484 0
-62 -1486 0
-63 -1487 0
-59 -1495 0
-60 -1496 0
-62 -1499 0
-63 -1500 0
-61 -1509 0
-62 -1511 0
-63 -1512 0
-59 -1514 0
-62 -1517 0
-63 -1518 0
-60 -1531 0
-62 -1533 0
-63 -1534 0
-59 -1542 0
-62 -1545 0
-63 -1546 0
-59 -1559 0
-60 -1560 0
-62 -1563 0
-63 -1564 0
-57 -1585 0
-60 -1586 0
-61 -1588 0
-62 -1590 0
-63 -1591 0
-57 -1605 0
-60 -1606 0
-62 -1609 0
-63 -1610 0
-58 -1611 0
-60 -1612 0
-61 -1615 0
-62 -1616 0
-63 -1617 0
-60 -1662 0
-62 -1665 0
-63 -1666 0
-60 -1675 0
-62 -1679 0
-63 -1680 0
-60 -1701 0
-61 -1704 0
-62 -1706 0
-63 -1707 0
-61 -1728 0
-62 -1730 0
-63 -1731 0
-60 -1733 0
-62 -1736 0
-63 -1737 0
-59 -1738 0
-60 -1739 0
-61 -1741 0
-62 -1742 0
-63 -1743 0
-61 -1753 0
-62 -1755 0
-63 -1756 0
-60 -1785 0
-61 -1787 0
-62 -1789 0
-63 -1790 0
-59 -1791 0
-60 -1792 0
-62 -1795 0
-63 -1796 0
-60 -1805 0
-62 -1809 0
-63 -1810 0
-60 -1813 0
-61 -1815 0
-62 -1816 0
-63 -1817 0
-60 -1824 0
-61 -1827 0
-62 -1829 0
-63 -1830 0
-60 -1831 0
-61 -1834 0
-62 -1836 0
-63 -1837 0
-60 -1853 0
-61 -1856 0
-62 -1858 0
-63 -1859 0
-64 -73 0
-66 -76 0
-69 -77 0
-70 -78 0
-71 -79 0
-64 -134 0
-66 -136 0
-69 -138 0
-70 -139 0
-71 -140 0
-64 -141 0
-65 -142 0
-66 -144 0
-69 -146 0
-70 -147 0
-71 -148 0
-64 -149 0
-65 -150 0
-66 -153 0
-67 -154 0
-69 -155 0
-70 -156 0
-71 -157 0
-64 -158 0
-65 -159 0
-66 -162 0
-68 -163 0
-69 -165 0
-70 -166 0
-71 -167 0
-64 -243 0
-65 -244 0
-66 -246 0
-69 -247 0
-70 -248 0
-71 -249 0
-64 -287 0
-68 -289 0
-69 -291 0
-70 -292 0
-71 -293 0
-64 -317 0
-65 -318 0
-68 -320 0
-69 -321 0
-70 -322 0
-71 -323 0
-64 -353 0
-66 -355 0
-67 -356 0
-69 -357 0
-70 -358 0
-71 -359 0
-64 -360 0
-69 -364 0
-70 -365 0
-71 -366 0
-64 -367 0
-67 -371 0
-68 -372 0
-69 -373 0
-70 -374 0
-71 -375 0
-64 -404 0
-67 -406 0
-68 -407 0
-69 -409 0
-70 -410 0
-71 -411 0
-65 -412 0
-66 -415 0
-67 -416 0
-68 -417 0
-69 -419 0
-70 -420 0
-71 -421 0
-65 -422 0
-68 -425 0
-69 -426 0
-70 -427 0
-71 -428 0
-64 -429 0
-67 -432 0
-69 -434 0
-70 -435 0
-71 -436 0
-65 -485 0
-66 -487 0
-67 -488 0
-69 -489 0
-70 -490 0
-71 -491 0
-65 -492 0
-67 -495 0
-68 -496 0
-69 -497 0
-70 -498 0
-71 -499 0
-64 -533 0
-65 -534 0
-67 -536 0
-68 -537 0
-70 -539 0
-71 -540 0
-64 -556 0
-67 -559 0
-70 -560 0
-71 -561 0
-64 -569 0
-68 -572 0
-70 -574 0
-71 -575 0
-64 -610 0
-66 -612 0
-70 -614 0
-71 -615 0
-65 -616 0
-66 -618 0
-67 -619 0
-70 -621 0
-71 -622 0
-64 -623 0
-68 -626 0
-70 -628 0
-71 -629 0
-65 -630 0
-66 -633 0
-68 -634 0
-70 -636 0
-71 -637 0
-65 -638 0
-67 -642 0
-68 -643 0
-70 -645 0
-71 -646 0
-65 -677 0
-68 -679 0
-69 -681 0
-70 -682 0
-71 -683 0
-64 -690 0
-66 -693 0
-68 -694 0
-70 -695 0
-71 -696 0
-65 -713 0
-68 -715 0
-70 -717 0
-71 -718 0
-67 -722 0
-68 -723 0
-70 -725 0
-71 -726 0
-66 -730 0
-68 -731 0
-70 -732 0
-71 -733 0
-67 -759 0
-68 -760 0
-70 -762 0
-71 -763 0
-66 -766 0
-67 -767 0
-68 -768 0
-69 -769 0
-70 -770 0
-71 -771 0
-64 -779 0
-66 -781 0
-67 -782 0
-70 -784 0
-71 -785 0
-64 -833 0
-65 -834 0
-66 -835 0
-67 -836 0
-70 -837 0
-71 -838 0
-64 -839 0
-65 -840 0
-66 -842 0
-67 -843 0
-70 -845 0
-71 -846 0
-64 -883 0
-66 -886 0
-68 -887 0
-70 -888 0
-71 -889 0
-64 -890 0
-66 -894 0
-67 -895 0
-68 -896 0
-70 -898 0
-71 -899 0
-64 -908 0
-66 -911 0
-70 -912 0
-71 -913 0
-64 -948 0
-66 -950 0
-68 -951 0
-70 -953 0
-71 -954 0
-64 -955 0
-66 -957 0
-67 -958 0
-68 -959 0
-70 -960 0
-71 -961 0
-65 -962 0
-66 -965 0
-67 -966 0
-68 -967 0
-70 -968 0
-71 -969 0
-65 -970 0
-66 -973 0
-70 -975 0
-71 -976 0
-65 -977 0
-66 -980 0
-67 -981 0
-70 -982 0
-71 -983 0
-64 -992 0
-66 -994 0
-68 -995 0
-69 -997 0
-70 -998 0
-71 -999 0
-65 -1044 0
-66 -1046 0
-68 -1047 0
-69 -1048 0
-70 -1049 0
-71 -1050 0
-65 -1051 0
-66 -1054 0
-67 -1055 0
-68 -1056 0
-69 -1058 0
-70 -1059 0
-71 -1060 0
-64 -1067 0
-66 -1069 0
-70 -1071 0
-71 -1072 0
-64 -1073 0
-67 -1076 0
-70 -1078 0
-71 -1079 0
-64 -1080 0
-68 -1083 0
-70 -1085 0
-71 -1086 0
-65 -1116 0
-66 -1118 0
-68 -1119 0
-70 -1120 0
-71 -1121 0
-65 -1122 0
-67 -1124 0
-68 -1125 0
-70 -1127 0
-71 -1128 0
-64 -1129 0
-69 -1132 0
-70 -1133 0
-71 -1134 0
-65 -1169 0
-66 -1170 0
-69 -1172 0
-70 -1173 0
-71 -1174 0
-66 -1177 0
-68 -1178 0
-70 -1180 0
-71 -1181 0
-66 -1185 0
-67 -1186 0
-70 -1187 0
-71 -1188 0
-70 -1193 0
-71 -1194 0
-66 -1224 0
-67 -1225 0
-70 -1227 0
-71 -1228 0
-66 -1232 0
-67 -1233 0
-68 -1234 0
-69 -1236 0
-70 -1237 0
-71 -1238 0
-68 -1242 0
-69 -1244 0
-70 -1245 0
-71 -1246 0
-67 -1256 0
-69 -1258 0
-70 -1259 0
-71 -1260 0
-66 -1283 0
-67 -1284 0
-68 -1285 0
-69 -1286 0
-70 -1287 0
-71 -1288 0
-64 -1289 0
-67 -1292 0
-69 -1294 0
-70 -1295 0
-71 -1296 0
-64 -1304 0
-67 -1306 0
-68 -1307 0
-69 -1308 0
-70 -1309 0
-71 -1310 0
-64 -1339 0
-66 -1340 0
-67 -1341 0
-69 -1343 0
-70 -1344 0
-71 -1345 0
-65 -1346 0
-66 -1348 0
-67 -1349 0
-69 -1350 0
-70 -1351 0
-71 -1352 0
-65 -1353 0
-66 -1355 0
-67 -1356 0
-68 -1357 0
-69 -1359 0
-70 -1360 0
-71 -1361 0
-65 -1362 0
-67 -1365 0
-68 -1366 0
-69 -1367 0
-70 -1368 0
-71 -1369 0
-66 -1394 0
-67 -1395 0
-68 -1396 0
-69 -1397 0
-70 -1398 0
-71 -1399 0
-66 -1402 0
-69 -1404 0
-70 -1405 0
-71 -1406 0
-67 -1410 0
-69 -1411 0
-70 -1412 0
-71 -1413 0
-66 -1438 0
-67 -1439 0
-68 -1440 0
-69 -1442 0
-70 -1443 0
-71 -1444 0
-66 -1455 0
-69 -1457 0
-70 -1458 0
-71 -1459 0
-67 -1462 0
-69 -1464 0
-70 -1465 0
-71 -1466 0
-67 -1469 0
-68 -1470 0
-70 -1472 0
-71 -1473 0
-66 -1502 0
-68 -1503 0
-70 -1505 0
-71 -1506 0
-67 -1508 0
-69 -1510 0
-70 -1511 0
-71 -1512 0
-68 -1515 0
-69 -1516 0
-70 -1517 0
-71 -1518 0
-66 -1522 0
-67 -1523 0
-68 -1524 0
-69 -1526 0
-70 -1527 0
-71 -1528 0
-68 -1548 0
-69 -1550 0
-70 -1551 0
-71 -1552 0
-66 -1554 0
-68 -1555 0
-70 -1557 0
-71 -1558 0
-64 -1572 0
-66 -1574 0
-70 -1576 0
-71 -1577 0
-64 -1578 0
-66 -1580 0
-67 -1581 0
-68 -1582 0
-70 -1583 0
-71 -1584 0
-65 -1611 0
-66 -1612 0
-67 -1613 0
-68 -1614 0
-70 -1616 0
-71 -1617 0
-65 -1618 0
-66 -1620 0
-68 -1621 0
-70 -1622 0
-71 -1623 0
-65 -1642 0
-66 -1643 0
-69 -1645 0
-70 -1646 0
-71 -1647 0
-64 -1648 0
-67 -1649 0
-68 -1650 0
-70 -1652 0
-71 -1653 0
-66 -1662 0
-67 -1663 0
-68 -1664 0
-70 -1665 0
-71 -1666 0
-67 -1669 0
-68 -1670 0
-70 -1672 0
-71 -1673 0
-67 -1682 0
-69 -1684 0
-70 -1685 0
-71 -1686 0
-67 -1688 0
-68 -1689 0
-69 -1691 0
-70 -1692 0
-71 -1693 0
-65 -1714 0
-67 -1715 0
-68 -1716 0
-69 -1717 0
-70 -1718 0
-71 -1719 0
-68 -1722 0
-69 -1723 0
-70 -1724 0
-71 -1725 0
-66 -1744 0
-67 -1745 0
-68 -1746 0
-69 -1748 0
-70 -1749 0
-71 -1750 0
-68 -1752 0
-69 -1754 0
-70 -1755 0
-71 -1756 0
-66 -1764 0
-68 -1765 0
-69 -1767 0
-70 -1768 0
-71 -1769 0
-64 -1771 0
-66 -1772 0
-67 -1773 0
-69 -1775 0
-70 -1776 0
-71 -1777 0
-66 -1785 0
-68 -1786 0
-69 -1788 0
-70 -1789 0
-71 -1790 0
-66 -1792 0
-67 -1793 0
-69 -1794 0
-70 -1795 0
-71 -1796 0
-66 -1799 0
-69 -1801 0
-70 -1802 0
-71 -1803 0
-66 -1819 0
-68 -1820 0
-70 -1822 0
-71 -1823 0
-66 -1831 0
-67 -1832 0
-68 -1833 0
-69 -1835 0
-70 -1836 0
-71 -1837 0
-68 -1839 0
-69 -1841 0
-70 -1842 0
-71 -1843 0
-67 -1846 0
-68 -1847 0
-69 -1849 0
-70 -1850 0
-71 -1851 0
-78 -285 0
-79 -286 0
-73 -334 0
-76 -336 0
-78 -338 0
-79 -339 0
-74 -341 0
-76 -342 0
-78 -345 0
-79 -346 0
-77 -350 0
-78 -351 0
-79 -352 0
-74 -478 0
-76 -480 0
-78 -483 0
-79 -484 0
-77 -504 0
-78 -505 0
-79 -506 0
-73 -525 0
-74 -527 0
-76 -528 0
-77 -530 0
-78 -531 0
-79 -532 0
-73 -541 0
-77 -545 0
-78 -546 0
-79 -547 0
-74 -549 0
-77 -553 0
-78 -554 0
-79 -555 0
-74 -648 0
-77 -651 0
-78 -652 0
-79 -653 0
-74 -668 0
-75 -669 0
-76 -670 0
-77 -674 0
-78 -675 0
-79 -676 0
-75 -685 0
-78 -688 0
-79 -689 0
-73 -697 0
-74 -698 0
-76 -699 0
-77 -703 0
-78 -704 0
-79 -705 0
-74 -707 0
-76 -708 0
-77 -710 0
-78 -711 0
-79 -712 0
-74 -714 0
-78 -717 0
-79 -718 0
-74 -734 0
-76 -736 0
-77 -739 0
-78 -740 0
-79 -741 0
-74 -757 0
-78 -762 0
-79 -763 0
-74 -772 0
-75 -773 0
-76 -774 0
-78 -777 0
-79 -778 0
-73 -826 0
-77 -830 0
-78 -831 0
-79 -832 0
-76 -849 0
-77 -851 0
-78 -852 0
-79 -853 0
-73 -862 0
-77 -866 0
-78 -867 0
-79 -868 0
-75 -870 0
-77 -873 0
-78 -874 0
-79 -875 0
-76 -877 0
-78 -881 0
-79 -882 0
-76 -986 0
-77 -989 0
-78 -990 0
-79 -991 0
-75 -1038 0
-77 -1041 0
-78 -1042 0
-79 -1043 0
-76 -1063 0
-78 -1065 0
-79 -1066 0
-73 -1087 0
-77 -1090 0
-78 -1091 0
-79 -1092 0
-73 -1093 0
-76 -1095 0
-77 -1097 0
-78 -1098 0
-79 -1099 0
-74 -1101 0
-77 -1104 0
-78 -1105 0
-79 -1106 0
-76 -1118 0
-78 -1120 0
-79 -1121 0
-78 -1127 0
-79 -1128 0
-73 -1135 0
-78 -1139 0
-79 -1140 0
-74 -1142 0
-78 -1145 0
-79 -1146 0
-75 -1148 0
-78 -1151 0
-79 -1152 0
-75 -1155 0
-76 -1156 0
-78 -1158 0
-79 -1159 0
-76 -1170 0
-77 -1172 0
-78 -1173 0
-79 -1174 0
-74 -1195 0
-77 -1199 0
-78 -1200 0
-79 -1201 0
-76 -1224 0
-78 -1227 0
-79 -1228 0
-74 -1247 0
-78 -1252 0
-79 -1253 0
-75 -1262 0
-78 -1265 0
-79 -1266 0
-75 -1268 0
-76 -1269 0
-78 -1273 0
-79 -1274 0
-76 -1283 0
-77 -1286 0
-78 -1287 0
-79 -1288 0
-73 -1297 0
-74 -1298 0
-77 -1301 0
-78 -1302 0
-79 -1303 0
-73 -1311 0
-75 -1312 0
-77 -1314 0
-78 -1315 0
-79 -1316 0
-73 -1317 0
-75 -1319 0
-76 -1320 0
-77 -1322 0
-78 -1323 0
-79 -1324 0
-74 -1326 0
-75 -1327 0
-77 -1329 0
-78 -1330 0
-79 -1331 0
-73 -1339 0
-76 -1340 0
-77 -1343 0
-78 -1344 0
-79 -1345 0
-74 -1347 0
-76 -1348 0
-77 -1350 0
-78 -1351 0
-79 -1352 0
-75 -1354 0
-76 -1355 0
-77 -1359 0
-78 -1360 0
-79 -1361 0
-75 -1364 0
-77 -1367 0
-78 -1368 0
-79 -1369 0
-75 -1378 0
-76 -1379 0
-77 -1382 0
-78 -1383 0
-79 -1384 0
-74 -1414 0
-75 -1416 0
-77 -1419 0
-78 -1420 0
-79 -1421 0
-74 -1436 0
-76 -1438 0
-77 -1442 0
-78 -1443 0
-79 -1444 0
-75 -1454 0
-76 -1455 0
-77 -1457 0
-78 -1458 0
-79 -1459 0
-75 -1461 0
-77 -1464 0
-78 -1465 0
-79 -1466 0
-74 -1474 0
-75 -1475 0
-77 -1477 0
-78 -1478 0
-79 -1479 0
-75 -1481 0
-77 -1485 0
-78 -1486 0
-79 -1487 0
-75 -1489 0
-76 -1490 0
-77 -1492 0
-78 -1493 0
-79 -1494 0
-75 -1501 0
-76 -1502 0
-78 -1505 0
-79 -1506 0
-74 -1507 0
-77 -1510 0
-78 -1511 0
-79 -1512 0
-74 -1513 0
-75 -1514 0
-77 -1516 0
-78 -1517 0
-79 -1518 0
-74 -1519 0
-75 -1521 0
-76 -1522 0
-77 -1526 0
-78 -1527 0
-79 -1528 0
-74 -1535 0
-76 -1536 0
-78 -1539 0
-79 -1540 0
-75 -1542 0
-78 -1545 0
-79 -1546 0
-75 -1553 0
-76 -1554 0
-78 -1557 0
-79 -1558 0
-77 -1639 0
-78 -1640 0
-79 -1641 0
-76 -1655 0
-78 -1659 0
-79 -1660 0
-76 -1696 0
-78 -1699 0
-79 -1700 0
-73 -1708 0
-76 -1709 0
-77 -1711 0
-78 -1712 0
-79 -1713 0
-77 -1717 0
-78 -1718 0
-79 -1719 0
-74 -1726 0
-77 -1729 0
-78 -1730 0
-79 -1731 0
-76 -1744 0
-77 -1748 0
-78 -1749 0
-79 -1750 0
-77 -1754 0
-78 -1755 0
-79 -1756 0
-75 -1757 0
-76 -1758 0
-77 -1760 0
-78 -1761 0
-79 -1762 0
-74 -1763 0
-76 -1764 0
-77 -1767 0
-78 -1768 0
-79 -1769 0
-76 -1779 0
-77 -1781 0
-78 -1782 0
-79 -1783 0
-76 -1805 0
-77 -1808 0
-78 -1809 0
-79 -1810 0
-76 -1824 0
-77 -1828 0
-78 -1829 0
-79 -1830 0
-76 -1831 0
-77 -1835 0
-78 -1836 0
-79 -1837 0
-77 -1841 0
-78 -1842 0
-79 -1843 0
-75 -1845 0
-77 -1849 0
-78 -1850 0
-79 -1851 0
-76 -1853 0
-77 -1857 0
-78 -1858 0
-79 -1859 0
-86 -278 0
-87 -279 0
-80 -308 0
-81 -310 0
-82 -312 0
-84 -313 0
-85 -314 0
-86 -315 0
-87 -316 0
-80 -317 0
-84 -320 0
-86 -322 0
-87 -323 0
-80 -324 0
-82 -327 0
-83 -328 0
-84 -329 0
-85 -330 0
-86 -332 0
-87 -333 0
-81 -341 0
-82 -342 0
-83 -343 0
-85 -344 0
-86 -345 0
-87 -346 0
-83 -348 0
-84 -349 0
-86 -351 0
-87 -352 0
-81 -423 0
-84 -425 0
-86 -427 0
-87 -428 0
-81 -468 0
-82 -471 0
-83 -472 0
-85 -473 0
-86 -475 0
-87 -476 0
-83 -495 0
-84 -496 0
-86 -498 0
-87 -499 0
-80 -515 0
-81 -517 0
-82 -519 0
-83 -520 0
-84 -521 0
-86 -523 0
-87 -524 0
-80 -533 0
-83 -536 0
-84 -537 0
-85 -538 0
-86 -539 0
-87 -540 0
-81 -549 0
-83 -550 0
-84 -551 0
-85 -552 0
-86 -554 0
-87 -555 0
-81 -639 0
-83 -642 0
-84 -643 0
-85 -644 0
-86 -645 0
-87 -646 0
-81 -662 0
-82 -664 0
-86 -665 0
-87 -666 0
-84 -679 0
-85 -680 0
-86 -682 0
-87 -683 0
-80 -690 0
-81 -691 0
-82 -693 0
-84 -694 0
-86 -695 0
-87 -696 0
-81 -707 0
-82 -708 0
-84 -709 0
-86 -711 0
-87 -712 0
-81 -714 0
-84 -715 0
-85 -716 0
-86 -717 0
-87 -718 0
-81 -727 0
-82 -730 0
-84 -731 0
-86 -732 0
-87 -733 0
-81 -749 0
-84 -752 0
-85 -753 0
-86 -755 0
-87 -756 0
-81 -764 0
-82 -766 0
-83 -767 0
-84 -768 0
-86 -770 0
-87 -771 0
-80 -817 0
-83 -821 0
-85 -822 0
-86 -824 0
-87 -825 0
-80 -839 0
-82 -842 0
-83 -843 0
-85 -844 0
-86 -845 0
-87 -846 0
-82 -849 0
-83 -850 0
-86 -852 0
-87 -853 0
-80 -854 0
-83 -857 0
-84 -858 0
-85 -859 0
-86 -860 0
-87 -861 0
-84 -871 0
-85 -872 0
-86 -874 0
-87 -875 0
-82 -877 0
-83 -878 0
-84 -879 0
-85 -880 0
-86 -881 0
-87 -882 0
-82 -980 0
-83 -981 0
-86 -982 0
-87 -983 0
-84 -1032 0
-85 -1033 0
-86 -1034 0
-87 -1035 0
-82 -1054 0
-83 -1055 0
-84 -1056 0
-85 -1057 0
-86 -1059 0
-87 -1060 0
-80 -1073 0
-81 -1074 0
-83 -1076 0
-85 -1077 0
-86 -1078 0
-87 -1079 0
-80 -1080 0
-84 -1083 0
-85 -1084 0
-86 -1085 0
-87 -1086 0
-80 -1093 0
-82 -1095 0
-85 -1096 0
-86 -1098 0
-87 -1099 0
-81 -1101 0
-85 -1103 0
-86 -1105 0
-87 -1106 0
-80 -1107 0
-82 -1109 0
-83 -1110 0
-84 -1111 0
-85 -1112 0
-86 -1114 0
-87 -1115 0
-82 -1118 0
-84 -1119 0
-86 -1120 0
-87 -1121 0
-80 -1129 0
-85 -1131 0
-86 -1133 0
-87 -1134 0
-81 -1142 0
-84 -1143 0
-85 -1144 0
-86 -1145 0
-87 -1146 0
-83 -1149 0
-85 -1150 0
-86 -1151 0
-87 -1152 0
-82 -1162 0
-83 -1163 0
-84 -1164 0
-85 -1165 0
-86 -1167 0
-87 -1168 0
-82 -1170 0
-85 -1171 0
-86 -1173 0
-87 -1174 0
-81 -1189 0
-85 -1192 0
-86 -1193 0
-87 -1194 0
-81 -1208 0
-82 -1210 0
-83 -1211 0
-85 -1212 0
-86 -1214 0
-87 -1215 0
-82 -1218 0
-84 -1219 0
-86 -1221 0
-87 -1222 0
-81 -1239 0
-84 -1242 0
-85 -1243 0
-86 -1245 0
-87 -1246 0
-83 -1256 0
-85 -1257 0
-86 -1259 0
-87 -1260 0
-82 -1269 0
-83 -1270 0
-84 -1271 0
-85 -1272 0
-86 -1273 0
-87 -1274 0
-82 -1277 0
-85 -1278 0
-86 -1280 0
-87 -1281 0
-80 -1289 0
-81 -1290 0
-83 -1292 0
-85 -1293 0
-86 -1295 0
-87 -1296 0
-80 -1304 0
-83 -1306 0
-84 -1307 0
-86 -1309 0
-87 -1310 0
-80 -1317 0
-82 -1320 0
-83 -1321 0
-86 -1323 0
-87 -1324 0
-81 -1326 0
-83 -1328 0
-86 -1330 0
-87 -1331 0
-80 -1332 0
-82 -1334 0
-83 -1335 0
-84 -1336 0
-86 -1337 0
-87 -1338 0
-81 -1347 0
-82 -1348 0
-83 -1349 0
-86 -1351 0
-87 -1352 0
-82 -1355 0
-83 -1356 0
-84 -1357 0
-85 -1358 0
-86 -1360 0
-87 -1361 0
-83 -1372 0
-85 -1373 0
-86 -1375 0
-87 -1376 0
-82 -1387 0
-84 -1388 0
-86 -1390 0
-87 -1391 0
-81 -1407 0
-83 -1410 0
-86 -1412 0
-87 -1413 0
-81 -1429 0
-82 -1432 0
-83 -1433 0
-86 -1434 0
-87 -1435 0
-82 -1447 0
-83 -1448 0
-84 -1449 0
-85 -1450 0
-86 -1451 0
-87 -1452 0
-83 -1462 0
-85 -1463 0
-86 -1465 0
-87 -1466 0
-81 -1467 0
-83 -1469 0
-84 -1470 0
-85 -1471 0
-86 -1472 0
-87 -1473 0
-82 -1490 0
-84 -1491 0
-86 -1493 0
-87 -1494 0
-82 -1496 0
-83 -1497 0
-86 -1499 0
-87 -1500 0
-81 -1507 0
-83 -1508 0
-85 -1509 0
-86 -1511 0
-87 -1512 0
-81 -1513 0
-84 -1515 0
-86 -1517 0
-87 -1518 0
-81 -1529 0
-82 -1531 0
-86 -1533 0
-87 -1534 0
-81 -1535 0
-82 -1536 0
-83 -1537 0
-84 -1538 0
-86 -1539 0
-87 -1540 0
-84 -1548 0
-85 -1549 0
-86 -1551 0
-87 -1552 0
-82 -1560 0
-83 -1561 0
-86 -1563 0
-87 -1564 0
-80 -1565 0
-84 -1567 0
-85 -1568 0
-86 -1570 0
-87 -1571 0
-82 -1620 0
-84 -1621 0
-86 -1622 0
-87 -1623 0
-83 -1632 0
-85 -1633 0
-86 -1634 0
-87 -1635 0
-82 -1643 0
-85 -1644 0
-86 -1646 0
-87 -1647 0
-80 -1648 0
-83 -1649 0
-84 -1650 0
-85 -1651 0
-86 -1652 0
-87 -1653 0
-81 -1667 0
-83 -1669 0
-84 -1670 0
-85 -1671 0
-86 -1672 0
-87 -1673 0
-82 -1675 0
-83 -1676 0
-84 -1677 0
-86 -1679 0
-87 -1680 0
-81 -1681 0
-83 -1682 0
-85 -1683 0
-86 -1685 0
-87 -1686 0
-83 -1688 0
-84 -1689 0
-85 -1690 0
-86 -1692 0
-87 -1693 0
-82 -1696 0
-83 -1697 0
-85 -1698 0
-86 -1699 0
-87 -1700 0
-82 -1701 0
-83 -1702 0
-84 -1703 0
-85 -1704 0
-86 -1706 0
-87 -1707 0
-80 -1708 0
-82 -1709 0
-84 -1710 0
-86 -1712 0
-87 -1713 0
-81 -1720 0
-84 -1722 0
-86 -1724 0
-87 -1725 0
-81 -1732 0
-82 -1733 0
-83 -1734 0
-84 -1735 0
-86 -1736 0
-87 -1737 0
-82 -1739 0
-84 -1740 0
-85 -1741 0
-86 -1742 0
-87 -1743 0
-84 -1752 0
-85 -1753 0
-86 -1755 0
-87 -1756 0
-82 -1758 0
-83 -1759 0
-86 -1761 0
-87 -1762 0
-80 -1771 0
-82 -1772 0
-83 -1773 0
-85 -1774 0
-86 -1776 0
-87 -1777 0
-82 -1779 0
-85 -1780 0
-86 -1782 0
-87 -1783 0
-82 -1799 0
-85 -1800 0
-86 -1802 0
-87 -1803 0
-82 -1813 0
-83 -1814 0
-85 -1815 0
-86 -1816 0
-87 -1817 0
-82 -1819 0
-84 -1820 0
-85 -1821 0
-86 -1822 0
-87 -1823 0
-82 -1831 0
-83 -1832 0
-84 -1833 0
-85 -1834 0
-86 -1836 0
-87 -1837 0
-92 -272 0
-93 -273 0
-88 -301 0
-89 -303 0
-91 -305 0
-92 -306 0
-93 -307 0
-88 -317 0
-90 -319 0
-91 -320 0
-92 -322 0
-93 -323 0
-88 -324 0
-91 -329 0
-92 -332 0
-93 -333 0
-88 -334 0
-92 -338 0
-93 -339 0
-89 -341 0
-92 -345 0
-93 -346 0
-89 -413 0
-90 -414 0
-91 -417 0
-92 -420 0
-93 -421 0
-89 -461 0
-92 -465 0
-93 -466 0
-89 -486 0
-92 -490 0
-93 -491 0
-90 -493 0
-91 -496 0
-92 -498 0
-93 -499 0
-90 -501 0
-92 -505 0
-93 -506 0
-88 -533 0
-91 -537 0
-92 -539 0
-93 -540 0
-88 -541 0
-91 -543 0
-92 -546 0
-93 -547 0
-89 -549 0
-91 -551 0
-92 -554 0
-93 -555 0
-89 -631 0
-91 -634 0
-92 -636 0
-93 -637 0
-91 -679 0
-92 -682 0
-93 -683 0
-92 -688 0
-93 -689 0
-88 -690 0
-89 -691 0
-91 -694 0
-92 -695 0
-93 -696 0
-88 -697 0
-89 -698 0
-91 -701 0
-92 -704 0
-93 -705 0
-89 -707 0
-91 -709 0
-92 -711 0
-93 -712 0
-89 -720 0
-91 -723 0
-92 -725 0
-93 -726 0
-89 -742 0
-91 -744 0
-92 -747 0
-93 -748 0
-89 -749 0
-90 -750 0
-91 -752 0
-92 -755 0
-93 -756 0
-89 -757 0
-90 -758 0
-91 -760 0
-92 -762 0
-93 -763 0
-89 -764 0
-91 -768 0
-92 -770 0
-93 -771 0
-89 -772 0
-92 -777 0
-93 -778 0
-88 -810 0
-92 -815 0
-93 -816 0
-88 -833 0
-92 -837 0
-93 -838 0
-90 -848 0
-92 -852 0
-93 -853 0
-91 -871 0
-92 -874 0
-93 -875 0
-91 -879 0
-92 -881 0
-93 -882 0
-90 -971 0
-92 -975 0
-93 -976 0
-91 -1026 0
-92 -1027 0
-93 -1028 0
-91 -1047 0
-92 -1049 0
-93 -1050 0
-88 -1067 0
-89 -1068 0
-92 -1071 0
-93 -1072 0
-88 -1080 0
-90 -1081 0
-91 -1083 0
-92 -1085 0
-93 -1086 0
-88 -1087 0
-90 -1088 0
-92 -1091 0
-93 -1092 0
-89 -1101 0
-90 -1102 0
-92 -1105 0
-93 -1106 0
-88 -1107 0
-90 -1108 0
-91 -1111 0
-92 -1114 0
-93 -1115 0
-90 -1123 0
-91 -1125 0
-92 -1127 0
-93 -1128 0
-88 -1129 0
-92 -1133 0
-93 -1134 0
-88 -1135 0
-91 -1137 0
-92 -1139 0
-93 -1140 0
-89 -1142 0
-91 -1143 0
-92 -1145 0
-93 -1146 0
-90 -1154 0
-92 -1158 0
-93 -1159 0
-90 -1161 0
-91 -1164 0
-92 -1167 0
-93 -1168 0
-89 -1182 0
-90 -1183 0
-92 -1187 0
-93 -1188 0
-89 -1202 0
-90 -1203 0
-92 -1206 0
-93 -1207 0
-90 -1216 0
-91 -1219 0
-92 -1221 0
-93 -1222 0
-90 -1223 0
-92 -1227 0
-93 -1228 0
-89 -1230 0
-91 -1234 0
-92 -1237 0
-93 -1238 0
-90 -1254 0
-92 -1259 0
-93 -1260 0
-90 -1261 0
-91 -1264 0
-92 -1265 0
-93 -1266 0
-90 -1275 0
-92 -1280 0
-93 -1281 0
-90 -1282 0
-91 -1285 0
-92 -1287 0
-93 -1288 0
-88 -1304 0
-91 -1307 0
-92 -1309 0
-93 -1310 0
-88 -1311 0
-92 -1315 0
-93 -1316 0
-89 -1326 0
-92 -1330 0
-93 -1331 0
-88 -1332 0
-91 -1336 0
-92 -1337 0
-93 -1338 0
-88 -1339 0
-92 -1344 0
-93 -1345 0
-89 -1347 0
-92 -1351 0
-93 -1352 0
-90 -1363 0
-91 -1366 0
-92 -1368 0
-93 -1369 0
-90 -1371 0
-92 -1375 0
-93 -1376 0
-92 -1383 0
-93 -1384 0
-91 -1388 0
-92 -1390 0
-93 -1391 0
-89 -1400 0
-92 -1405 0
-93 -1406 0
-89 -1422 0
-92 -1427 0
-93 -1428 0
-90 -1445 0
-91 -1449 0
-92 -1451 0
-93 -1452 0
-90 -1453 0
-92 -1458 0
-93 -1459 0
-91 -1483 0
-92 -1486 0
-93 -1487 0
-92 -1499 0
-93 -1500 0
-91 -1503 0
-92 -1505 0
-93 -1506 0
-89 -1507 0
-92 -1511 0
-93 -1512 0
-89 -1519 0
-90 -1520 0
-91 -1524 0
-92 -1527 0
-93 -1528 0
-89 -1529 0
-90 -1530 0
-92 -1533 0
-93 -1534 0
-91 -1614 0
-92 -1616 0
-93 -1617 0
-88 -1648 0
-91 -1650 0
-92 -1652 0
-93 -1653 0
-91 -1657 0
-92 -1659 0
-93 -1660 0
-89 -1661 0
-91 -1664 0
-92 -1665 0
-93 -1666 0
-90 -1674 0
-91 -1677 0
-92 -1679 0
-93 -1680 0
-91 -1689 0
-92 -1692 0
-93 -1693 0
-91 -1703 0
-92 -1706 0
-93 -1707 0
-91 -1716 0
-92 -1718 0
-93 -1719 0
-91 -1740 0
-92 -1742 0
-93 -1743 0
-91 -1746 0
-92 -1749 0
-93 -1750 0
-89 -1763 0
-91 -1765 0
-92 -1768 0
-93 -1769 0
-92 -1782 0
-93 -1783 0
-92 -1795 0
-93 -1796 0
-90 -1838 0
-91 -1839 0
-92 -1842 0
-93 -1843 0
-91 -1847 0
-92 -1850 0
-93 -1851 0
-91 -1855 0
-92 -1858 0
-93 -1859 0
-94 -294 0
-97 -296 0
-98 -298 0
-99 -299 0
-100 -300 0
-94 -317 0
-95 -318 0
-98 -320 0
-99 -322 0
-100 -323 0
-94 -324 0
-95 -325 0
-97 -327 0
-98 -329 0
-99 -332 0
-100 -333 0
-94 -334 0
-95 -335 0
-97 -336 0
-99 -338 0
-100 -339 0
-95 -347 0
-98 -349 0
-99 -351 0
-100 -352 0
-94 -404 0
-98 -407 0
-99 -410 0
-100 -411 0
-94 -452 0
-97 -455 0
-99 -458 0
-100 -459 0
-95 -492 0
-98 -496 0
-99 -498 0
-100 -499 0
-95 -500 0
-99 -505 0
-100 -506 0
-94 -507 0
-97 -509 0
-98 -510 0
-99 -513 0
-100 -514 0
-94 -533 0
-95 -534 0
-98 -537 0
-99 -539 0
-100 -540 0
-94 -541 0
-95 -542 0
-98 -543 0
-99 -546 0
-100 -547 0
-94 -623 0
-98 -626 0
-99 -628 0
-100 -629 0
-94 -654 0
-97 -656 0
-99 -659 0
-100 -660 0
-95 -677 0
-98 -679 0
-99 -682 0
-100 -683 0
-95 -684 0
-99 -688 0
-100 -689 0
-94 -690 0
-96 -691 0
-97 -693 0
-98 -694 0
-99 -695 0
-100 -696 0
-94 -697 0
-96 -698 0
-97 -699 0
-98 -701 0
-99 -704 0
-100 -705 0
-95 -713 0
-96 -714 0
-98 -715 0
-99 -717 0
-100 -718 0
-96 -749 0
-98 -752 0
-99 -755 0
-100 -756 0
-96 -757 0
-98 -760 0
-99 -762 0
-100 -763 0
-96 -764 0
-97 -766 0
-98 -768 0
-99 -770 0
-100 -771 0
-96 -772 0
-97 -774 0
-99 -777 0
-100 -778 0
-94 -1080 0
-98 -1083 0
-99 -1085 0
-100 -1086 0
-94 -1087 0
-99 -1091 0
-100 -1092 0
-94 -1093 0
-97 -1095 0
-99 -1098 0
-100 -1099 0
-94 -1107 0
-97 -1109 0
-98 -1111 0
-99 -1114 0
-100 -1115 0
-95 -1116 0
-97 -1118 0
-98 -1119 0
-99 -1120 0
-100 -1121 0
-95 -1122 0
-98 -1125 0
-99 -1127 0
-100 -1128 0
-94 -1129 0
-99 -1133 0
-100 -1134 0
-94 -1135 0
-98 -1137 0
-99 -1139 0
-100 -1140 0
-95 -1147 0
-99 -1151 0
-100 -1152 0
-95 -1153 0
-97 -1156 0
-99 -1158 0
-100 -1159 0
-95 -1160 0
-97 -1162 0
-98 -1164 0
-99 -1167 0
-100 -1168 0
-95 -1169 0
-97 -1170 0
-99 -1173 0
-100 -1174 0
-97 -1218 0
-98 -1219 0
-99 -1221 0
-100 -1222 0
-97 -1224 0
-99 -1227 0
-100 -1228 0
-99 -1259 0
-100 -1260 0
-98 -1264 0
-99 -1265 0
-100 -1266 0
-97 -1269 0
-98 -1271 0
-99 -1273 0
-100 -1274 0
-97 -1277 0
-99 -1280 0
-100 -1281 0
-97 -1283 0
-98 -1285 0
-99 -1287 0
-100 -1288 0
-94 -1304 0
-98 -1307 0
-99 -1309 0
-100 -1310 0
-94 -1311 0
-99 -1315 0
-100 -1316 0
-94 -1317 0
-97 -1320 0
-99 -1323 0
-100 -1324 0
-94 -1332 0
-97 -1334 0
-98 -1336 0
-99 -1337 0
-100 -1338 0
-94 -1339 0
-97 -1340 0
-99 -1344 0
-100 -1345 0
-95 -1353 0
-97 -1355 0
-98 -1357 0
-99 -1360 0
-100 -1361 0
-95 -1362 0
-98 -1366 0
-99 -1368 0
-100 -1369 0
-95 -1370 0
-99 -1375 0
-100 -1376 0
-95 -1377 0
-97 -1379 0
-99 -1383 0
-100 -1384 0
-95 -1385 0
-97 -1387 0
-98 -1388 0
-99 -1390 0
-100 -1391 0
-97 -1447 0
-98 -1449 0
-99 -1451 0
-100 -1452 0
-97 -1455 0
-99 -1458 0
-100 -1459 0
-99 -1465 0
-100 -1466 0
-98 -1483 0
-99 -1486 0
-100 -1487 0
-97 -1490 0
-98 -1491 0
-99 -1493 0
-100 -1494 0
-97 -1496 0
-99 -1499 0
-100 -1500 0
-97 -1502 0
-98 -1503 0
-99 -1505 0
-100 -1506 0
-96 -1513 0
-98 -1515 0
-99 -1517 0
-100 -1518 0
-96 -1519 0
-97 -1522 0
-98 -1524 0
-99 -1527 0
-100 -1528 0
-96 -1529 0
-97 -1531 0
-99 -1533 0
-100 -1534 0
-96 -1535 0
-97 -1536 0
-98 -1538 0
-99 -1539 0
-100 -1540 0
-94 -1648 0
-98 -1650 0
-99 -1652 0
-100 -1653 0
-95 -1654 0
-97 -1655 0
-98 -1657 0
-99 -1659 0
-100 -1660 0
-97 -1675 0
-98 -1677 0
-99 -1679 0
-100 -1680 0
-98 -1689 0
-99 -1692 0
-100 -1693 0
-97 -1696 0
-99 -1699 0
-100 -1700 0
-97 -1701 0
-98 -1703 0
-99 -1706 0
-100 -1707 0
-94 -1708 0
-97 -1709 0
-98 -1710 0
-99 -1712 0
-100 -1713 0
-95 -1714 0
-98 -1716 0
-99 -1718 0
-100 -1719 0
-97 -1739 0
-98 -1740 0
-99 -1742 0
-100 -1743 0
-97 -1744 0
-98 -1746 0
-99 -1749 0
-100 -1750 0
-98 -1752 0
-99 -1755 0
-100 -1756 0
-97 -1758 0
-99 -1761 0
-100 -1762 0
-96 -1763 0
-97 -1764 0
-98 -1765 0
-99 -1768 0
-100 -1769 0
-97 -1831 0
-98 -1833 0
-99 -1836 0
-100 -1837 0
-98 -1839 0
-99 -1842 0
-100 -1843 0
-98 -1847 0
-99 -1850 0
-100 -1851 0
-97 -1853 0
-98 -1855 0
-99 -1858 0
-100 -1859 0
-106 -264 0
-107 -265 0
-104 -343 0
-105 -344 0
-106 -345 0
-107 -346 0
-104 -348 0
-106 -351 0
-107 -352 0
-104 -446 0
-105 -448 0
-106 -450 0
-107 -451 0
-104 -488 0
-106 -490 0
-107 -491 0
-104 -550 0
-105 -552 0
-106 -554 0
-107 -555 0
-104 -619 0
-105 -620 0
-106 -621 0
-107 -622 0
-106 -711 0
-107 -712 0
-105 -716 0
-106 -717 0
-107 -718 0
-105 -745 0
-106 -747 0
-107 -748 0
-101 -800 0
-104 -804 0
-105 -806 0
-106 -808 0
-107 -809 0
-101 -833 0
-104 -836 0
-106 -837 0
-107 -838 0
-101 -839 0
-102 -841 0
-104 -843 0
-105 -844 0
-106 -845 0
-107 -846 0
-102 -848 0
-104 -850 0
-106 -852 0
-107 -853 0
-101 -854 0
-103 -856 0
-104 -857 0
-105 -859 0
-106 -860 0
-107 -861 0
-101 -862 0
-105 -865 0
-106 -867 0
-107 -868 0
-103 -870 0
-105 -872 0
-106 -874 0
-107 -875 0
-102 -964 0
-104 -966 0
-106 -968 0
-107 -969 0
-103 -1016 0
-105 -1019 0
-106 -1020 0
-107 -1021 0
-103 -1045 0
-106 -1049 0
-107 -1050 0
-102 -1052 0
-103 -1053 0
-104 -1055 0
-105 -1057 0
-106 -1059 0
-107 -1060 0
-102 -1062 0
-106 -1065 0
-107 -1066 0
-101 -1067 0
-105 -1070 0
-106 -1071 0
-107 -1072 0
-101 -1073 0
-102 -1075 0
-104 -1076 0
-105 -1077 0
-106 -1078 0
-107 -1079 0
-102 -1102 0
-105 -1103 0
-106 -1105 0
-107 -1106 0
-101 -1107 0
-102 -1108 0
-104 -1110 0
-105 -1112 0
-106 -1114 0
-107 -1115 0
-102 -1117 0
-106 -1120 0
-107 -1121 0
-102 -1123 0
-104 -1124 0
-105 -1126 0
-106 -1127 0
-107 -1128 0
-101 -1129 0
-103 -1130 0
-105 -1131 0
-106 -1133 0
-107 -1134 0
-101 -1135 0
-104 -1136 0
-105 -1138 0
-106 -1139 0
-107 -1140 0
-103 -1148 0
-104 -1149 0
-105 -1150 0
-106 -1151 0
-107 -1152 0
-102 -1154 0
-103 -1155 0
-105 -1157 0
-106 -1158 0
-107 -1159 0
-102 -1161 0
-104 -1163 0
-105 -1165 0
-106 -1167 0
-107 -1168 0
-102 -1176 0
-105 -1179 0
-106 -1180 0
-107 -1181 0
-102 -1203 0
-106 -1206 0
-107 -1207 0
-102 -1209 0
-104 -1211 0
-105 -1212 0
-106 -1214 0
-107 -1215 0
-103 -1231 0
-104 -1233 0
-105 -1235 0
-106 -1237 0
-107 -1238 0
-102 -1240 0
-103 -1241 0
-105 -1243 0
-106 -1245 0
-107 -1246 0
-102 -1248 0
-104 -1249 0
-105 -1251 0
-106 -1252 0
-107 -1253 0
-102 -1275 0
-103 -1276 0
-105 -1278 0
-106 -1280 0
-107 -1281 0
-102 -1282 0
-104 -1284 0
-106 -1287 0
-107 -1288 0
-101 -1289 0
-103 -1291 0
-104 -1292 0
-105 -1293 0
-106 -1295 0
-107 -1296 0
-101 -1297 0
-104 -1299 0
-106 -1302 0
-107 -1303 0
-103 -1327 0
-104 -1328 0
-106 -1330 0
-107 -1331 0
-101 -1332 0
-103 -1333 0
-104 -1335 0
-106 -1337 0
-107 -1338 0
-101 -1339 0
-104 -1341 0
-105 -1342 0
-106 -1344 0
-107 -1345 0
-103 -1354 0
-104 -1356 0
-105 -1358 0
-106 -1360 0
-107 -1361 0
-102 -1363 0
-103 -1364 0
-104 -1365 0
-106 -1368 0
-107 -1369 0
-102 -1371 0
-104 -1372 0
-105 -1373 0
-106 -1375 0
-107 -1376 0
-103 -1378 0
-104 -1380 0
-105 -1381 0
-106 -1383 0
-107 -1384 0
-103 -1386 0
-106 -1390 0
-107 -1391 0
-103 -1393 0
-104 -1395 0
-106 -1398 0
-107 -1399 0
-103 -1423 0
-104 -1425 0
-105 -1426 0
-106 -1427 0
-107 -1428 0
-102 -1430 0
-103 -1431 0
-104 -1433 0
-106 -1434 0
-107 -1435 0
-102 -1437 0
-104 -1439 0
-105 -1441 0
-106 -1443 0
-107 -1444 0
-103 -1468 0
-104 -1469 0
-105 -1471 0
-106 -1472 0
-107 -1473 0
-103 -1475 0
-106 -1478 0
-107 -1479 0
-103 -1495 0
-104 -1497 0
-106 -1499 0
-107 -1500 0
-103 -1501 0
-105 -1504 0
-106 -1505 0
-107 -1506 0
-103 -1514 0
-106 -1517 0
-107 -1518 0
-102 -1520 0
-103 -1521 0
-104 -1523 0
-105 -1525 0
-106 -1527 0
-107 -1528 0
-102 -1530 0
-106 -1533 0
-107 -1534 0
-102 -1541 0
-103 -1542 0
-104 -1543 0
-106 -1545 0
-107 -1546 0
-102 -1547 0
-105 -1549 0
-106 -1551 0
-107 -1552 0
-103 -1553 0
-105 -1556 0
-106 -1557 0
-107 -1558 0
-103 -1559 0
-104 -1561 0
-106 -1563 0
-107 -1564 0
-105 -1644 0
-106 -1646 0
-107 -1647 0
-104 -1656 0
-105 -1658 0
-106 -1659 0
-107 -1660 0
-104 -1682 0
-105 -1683 0
-106 -1685 0
-107 -1686 0
-104 -1702 0
-105 -1704 0
-106 -1706 0
-107 -1707 0
-104 -1715 0
-106 -1718 0
-107 -1719 0
-104 -1734 0
-106 -1736 0
-107 -1737 0
-105 -1766 0
-106 -1768 0
-107 -1769 0
-101 -1771 0
-104 -1773 0
-105 -1774 0
-106 -1776 0
-107 -1777 0
-105 -1780 0
-106 -1782 0
-107 -1783 0
-105 -1787 0
-106 -1789 0
-107 -1790 0
-102 -1812 0
-104 -1814 0
-105 -1815 0
-106 -1816 0
-107 -1817 0
-103 -1818 0
-105 -1821 0
-106 -1822 0
-107 -1823 0
-104 -1825 0
-105 -1827 0
-106 -1829 0
-107 -1830 0
-104 -1832 0
-105 -1834 0
-106 -1836 0
-107 -1837 0
-102 -1838 0
-105 -1840 0
-106 -1842 0
-107 -1843 0
-103 -1845 0
-104 -1846 0
-105 -1848 0
-106 -1850 0
-107 -1851 0
-108 -792 0
-113 -794 0
-114 -796 0
-115 -798 0
-116 -799 0
-108 -839 0
-109 -840 0
-112 -842 0
-113 -843 0
-114 -844 0
-115 -845 0
-116 -846 0
-108 -854 0
-109 -855 0
-111 -856 0
-113 -857 0
-114 -859 0
-115 -860 0
-116 -861 0
-108 -862 0
-109 -863 0
-114 -865 0
-115 -867 0
-116 -868 0
-109 -876 0
-112 -877 0
-113 -878 0
-114 -880 0
-115 -881 0
-116 -882 0
-108 -955 0
-112 -957 0
-113 -958 0
-115 -960 0
-116 -961 0
-108 -1007 0
-111 -1009 0
-114 -1011 0
-115 -1012 0
-116 -1013 0
-109 -1051 0
-111 -1053 0
-112 -1054 0
-113 -1055 0
-114 -1057 0
-115 -1059 0
-116 -1060 0
-109 -1061 0
-112 -1063 0
-115 -1065 0
-116 -1066 0
-108 -1073 0
-110 -1074 0
-113 -1076 0
-114 -1077 0
-115 -1078 0
-116 -1079 0
-108 -1093 0
-112 -1095 0
-114 -1096 0
-115 -1098 0
-116 -1099 0
-108 -1107 0
-112 -1109 0
-113 -1110 0
-114 -1112 0
-115 -1114 0
-116 -1115 0
-109 -1122 0
-113 -1124 0
-114 -1126 0
-115 -1127 0
-116 -1128 0
-108 -1129 0
-111 -1130 0
-114 -1131 0
-115 -1133 0
-116 -1134 0
-108 -1135 0
-113 -1136 0
-114 -1138 0
-115 -1139 0
-116 -1140 0
-109 -1141 0
-110 -1142 0
-114 -1144 0
-115 -1145 0
-116 -1146 0
-109 -1153 0
-111 -1155 0
-112 -1156 0
-114 -1157 0
-115 -1158 0
-116 -1159 0
-109 -1160 0
-112 -1162 0
-113 -1163 0
-114 -1165 0
-115 -1167 0
-116 -1168 0
-109 -1169 0
-112 -1170 0
-114 -1171 0
-115 -1173 0
-116 -1174 0
-110 -1208 0
-112 -1210 0
-113 -1211 0
-114 -1212 0
-115 -1214 0
-116 -1215 0
-110 -1239 0
-111 -1241 0
-114 -1243 0
-115 -1245 0
-116 -1246 0
-110 -1247 0
-113 -1249 0
-114 -1251 0
-115 -1252 0
-116 -1253 0
-111 -1268 0
-112 -1269 0
-113 -1270 0
-114 -1272 0
-115 -1273 0
-116 -1274 0
-111 -1276 0
-112 -1277 0
-114 -1278 0
-115 -1280 0
-116 -1281 0
-112 -1283 0
-113 -1284 0
-115 -1287 0
-116 -1288 0
-108 -1289 0
-110 -1290 0
-111 -1291 0
-113 -1292 0
-114 -1293 0
-115 -1295 0
-116 -1296 0
-108 -1297 0
-110 -1298 0
-113 -1299 0
-115 -1302 0
-116 -1303 0
-108 -1317 0
-111 -1319 0
-112 -1320 0
-113 -1321 0
-115 -1323 0
-116 -1324 0
-108 -1332 0
-111 -1333 0
-112 -1334 0
-113 -1335 0
-115 -1337 0
-116 -1338 0
-108 -1339 0
-112 -1340 0
-113 -1341 0
-114 -1342 0
-115 -1344 0
-116 -1345 0
-109 -1346 0
-110 -1347 0
-112 -1348 0
-113 -1349 0
-115 -1351 0
-116 -1352 0
-109 -1362 0
-111 -1364 0
-113 -1365 0
-115 -1368 0
-116 -1369 0
-109 -1370 0
-113 -1372 0
-114 -1373 0
-115 -1375 0
-116 -1376 0
-109 -1377 0
-111 -1378 0
-112 -1379 0
-113 -1380 0
-114 -1381 0
-115 -1383 0
-116 -1384 0
-109 -1385 0
-111 -1386 0
-112 -1387 0
-115 -1390 0
-116 -1391 0
-110 -1429 0
-111 -1431 0
-112 -1432 0
-113 -1433 0
-115 -1434 0
-116 -1435 0
-110 -1436 0
-112 -1438 0
-113 -1439 0
-114 -1441 0
-115 -1443 0
-116 -1444 0
-111 -1461 0
-113 -1462 0
-114 -1463 0
-115 -1465 0
-116 -1466 0
-110 -1467 0
-111 -1468 0
-113 -1469 0
-114 -1471 0
-115 -1472 0
-116 -1473 0
-110 -1474 0
-111 -1475 0
-115 -1478 0
-116 -1479 0
-111 -1489 0
-112 -1490 0
-115 -1493 0
-116 -1494 0
-111 -1495 0
-112 -1496 0
-113 -1497 0
-115 -1499 0
-116 -1500 0
-111 -1501 0
-112 -1502 0
-114 -1504 0
-115 -1505 0
-116 -1506 0
-110 -1507 0
-113 -1508 0
-114 -1509 0
-115 -1511 0
-116 -1512 0
-110 -1519 0
-111 -1521 0
-112 -1522 0
-113 -1523 0
-114 -1525 0
-115 -1527 0
-116 -1528 0
-110 -1529 0
-112 -1531 0
-115 -1533 0
-116 -1534 0
-110 -1535 0
-112 -1536 0
-113 -1537 0
-115 -1539 0
-116 -1540 0
-111 -1542 0
-113 -1543 0
-115 -1545 0
-116 -1546 0
-114 -1549 0
-115 -1551 0
-116 -1552 0
-111 -1553 0
-112 -1554 0
-114 -1556 0
-115 -1557 0
-116 -1558 0
-111 -1559 0
-112 -1560 0
-113 -1561 0
-115 -1563 0
-116 -1564 0
-108 -1624 0
-113 -1625 0
-114 -1627 0
-115 -1628 0
-116 -1629 0
-109 -1642 0
-112 -1643 0
-114 -1644 0
-115 -1646 0
-116 -1647 0
-109 -1654 0
-112 -1655 0
-113 -1656 0
-114 -1658 0
-115 -1659 0
-116 -1660 0
-110 -1681 0
-113 -1682 0
-114 -1683 0
-115 -1685 0
-116 -1686 0
-112 -1696 0
-113 -1697 0
-114 -1698 0
-115 -1699 0
-116 -1700 0
-112 -1701 0
-113 -1702 0
-114 -1704 0
-115 -1706 0
-116 -1707 0
-108 -1708 0
-112 -1709 0
-115 -1712 0
-116 -1713 0
-109 -1714 0
-113 -1715 0
-115 -1718 0
-116 -1719 0
-110 -1732 0
-112 -1733 0
-113 -1734 0
-115 -1736 0
-116 -1737 0
-114 -1753 0
-115 -1755 0
-116 -1756 0
-111 -1757 0
-112 -1758 0
-113 -1759 0
-115 -1761 0
-116 -1762 0
-110 -1763 0
-112 -1764 0
-114 -1766 0
-115 -1768 0
-116 -1769 0
-108 -1771 0
-112 -1772 0
-113 -1773 0
-114 -1774 0
-115 -1776 0
-116 -1777 0
-112 -1813 0
-113 -1814 0
-114 -1815 0
-115 -1816 0
-116 -1817 0
-111 -1818 0
-112 -1819 0
-114 -1821 0
-115 -1822 0
-116 -1823 0
-112 -1824 0
-113 -1825 0
-114 -1827 0
-115 -1829 0
-116 -1830 0
-114 -1840 0
-115 -1842 0
-116 -1843 0
-111 -1845 0
-113 -1846 0
-114 -1848 0
-115 -1850 0
-116 -1851 0
-117 -250 0
-118 -251 0
-122 -257 0
-123 -258 0
-117 -334 0
-118 -335 0
-122 -338 0
-123 -339 0
-118 -347 0
-122 -351 0
-123 -352 0
-117 -437 0
-119 -438 0
-122 -442 0
-123 -443 0
-118 -485 0
-119 -486 0
-122 -490 0
-123 -491 0
-118 -500 0
-120 -501 0
-122 -505 0
-123 -506 0
-117 -541 0
-118 -542 0
-122 -546 0
-123 -547 0
-117 -610 0
-119 -611 0
-122 -614 0
-123 -615 0
-118 -684 0
-121 -685 0
-122 -688 0
-123 -689 0
-117 -697 0
-119 -698 0
-122 -704 0
-123 -705 0
-118 -713 0
-119 -714 0
-122 -717 0
-123 -718 0
-119 -742 0
-122 -747 0
-123 -748 0
-119 -757 0
-120 -758 0
-122 -762 0
-123 -763 0
-119 -772 0
-121 -773 0
-122 -777 0
-123 -778 0
-117 -786 0
-122 -790 0
-123 -791 0
-117 -833 0
-118 -834 0
-122 -837 0
-123 -838 0
-117 -862 0
-118 -863 0
-122 -867 0
-123 -868 0
-118 -876 0
-122 -881 0
-123 -882 0
-117 -948 0
-120 -949 0
-122 -953 0
-123 -954 0
-117 -1000 0
-121 -1001 0
-122 -1005 0
-123 -1006 0
-118 -1044 0
-121 -1045 0
-122 -1049 0
-123 -1050 0
-118 -1061 0
-120 -1062 0
-122 -1065 0
-123 -1066 0
-117 -1067 0
-119 -1068 0
-122 -1071 0
-123 -1072 0
-117 -1087 0
-120 -1088 0
-122 -1091 0
-123 -1092 0
-117 -1107 0
-120 -1108 0
-122 -1114 0
-123 -1115 0
-118 -1116 0
-120 -1117 0
-122 -1120 0
-123 -1121 0
-117 -1129 0
-121 -1130 0
-122 -1133 0
-123 -1134 0
-118 -1141 0
-119 -1142 0
-122 -1145 0
-123 -1146 0
-118 -1147 0
-121 -1148 0
-122 -1151 0
-123 -1152 0
-118 -1160 0
-120 -1161 0
-122 -1167 0
-123 -1168 0
-119 -1202 0
-120 -1203 0
-122 -1206 0
-123 -1207 0
-120 -1223 0
-122 -1227 0
-123 -1228 0
-119 -1230 0
-121 -1231 0
-122 -1237 0
-123 -1238 0
-119 -1247 0
-120 -1248 0
-122 -1252 0
-123 -1253 0
-120 -1261 0
-121 -1262 0
-122 -1265 0
-123 -1266 0
-120 -1275 0
-121 -1276 0
-122 -1280 0
-123 -1281 0
-117 -1297 0
-119 -1298 0
-122 -1302 0
-123 -1303 0
-117 -1311 0
-121 -1312 0
-122 -1315 0
-123 -1316 0
-117 -1332 0
-121 -1333 0
-122 -1337 0
-123 -1338 0
-118 -1346 0
-119 -1347 0
-122 -1351 0
-123 -1352 0
-118 -1353 0
-121 -1354 0
-122 -1360 0
-123 -1361 0
-118 -1370 0
-120 -1371 0
-122 -1375 0
-123 -1376 0
-118 -1385 0
-121 -1386 0
-122 -1390 0
-123 -1391 0
-119 -1422 0
-121 -1423 0
-122 -1427 0
-123 -1428 0
-119 -1436 0
-120 -1437 0
-122 -1443 0
-123 -1444 0
-120 -1453 0
-121 -1454 0
-122 -1458 0
-123 -1459 0
-119 -1474 0
-121 -1475 0
-122 -1478 0
-123 -1479 0
-121 -1481 0
-122 -1486 0
-123 -1487 0
-121 -1495 0
-122 -1499 0
-123 -1500 0
-119 -1507 0
-122 -1511 0
-123 -1512 0
-119 -1513 0
-121 -1514 0
-122 -1517 0
-123 -1518 0
-119 -1529 0
-120 -1530 0
-122 -1533 0
-123 -1534 0
-120 -1541 0
-121 -1542 0
-122 -1545 0
-123 -1546 0
-121 -1553 0
-122 -1557 0
-123 -1558 0
-122 -1706 0
-123 -1707 0
-122 -1749 0
-123 -1750 0
-122 -1829 0
-123 -1830 0
-122 -1836 0
-123 -1837 0
-122 -1858 0
-123 -1859 0
-124 -243 0
-125 -244 0
-131 -247 0
-132 -248 0
-133 -249 0
-124 -287 0
-126 -288 0
-129 -289 0
-130 -290 0
-131 -291 0
-132 -292 0
-133 -293 0
-124 -317 0
-125 -318 0
-127 -319 0
-129 -320 0
-131 -321 0
-132 -322 0
-133 -323 0
-124 -324 0
-125 -325 0
-128 -328 0
-129 -329 0
-130 -330 0
-131 -331 0
-132 -332 0
-133 -333 0
-125 -347 0
-128 -348 0
-129 -349 0
-131 -350 0
-132 -351 0
-133 -352 0
-124 -396 0
-126 -397 0
-127 -398 0
-129 -400 0
-131 -401 0
-132 -402 0
-133 -403 0
-124 -429 0
-126 -430 0
-128 -432 0
-130 -433 0
-131 -434 0
-132 -435 0
-133 -436 0
-125 -485 0
-126 -486 0
-128 -488 0
-131 -489 0
-132 -490 0
-133 -491 0
-125 -492 0
-127 -493 0
-128 -495 0
-129 -496 0
-131 -497 0
-132 -498 0
-133 -499 0
-124 -533 0
-125 -534 0
-128 -536 0
-129 -537 0
-130 -538 0
-132 -539 0
-133 -540 0
-124 -600 0
-126 -601 0
-128 -604 0
-129 -605 0
-130 -606 0
-131 -607 0
-132 -608 0
-133 -609 0
-125 -677 0
-129 -679 0
-130 -680 0
-131 -681 0
-132 -682 0
-133 -683 0
-124 -690 0
-126 -691 0
-129 -694 0
-132 -695 0
-133 -696 0
-125 -713 0
-126 -714 0
-129 -715 0
-130 -716 0
-132 -717 0
-133 -718 0
-126 -742 0
-129 -744 0
-130 -745 0
-131 -746 0
-132 -747 0
-133 -748 0
-126 -749 0
-127 -750 0
-129 -752 0
-130 -753 0
-131 -754 0
-132 -755 0
-133 -756 0
-126 -764 0
-128 -767 0
-129 -768 0
-131 -769 0
-132 -770 0
-133 -771 0
-124 -779 0
-128 -782 0
-130 -783 0
-132 -784 0
-133 -785 0
-124 -833 0
-125 -834 0
-128 -836 0
-132 -837 0
-133 -838 0
-124 -839 0
-125 -840 0
-127 -841 0
-128 -843 0
-130 -844 0
-132 -845 0
-133 -846 0
-124 -854 0
-125 -855 0
-128 -857 0
-129 -858 0
-130 -859 0
-132 -860 0
-133 -861 0
-125 -876 0
-128 -878 0
-129 -879 0
-130 -880 0
-132 -881 0
-133 -882 0
-124 -940 0
-127 -941 0
-128 -944 0
-131 -945 0
-132 -946 0
-133 -947 0
-124 -992 0
-129 -995 0
-130 -996 0
-131 -997 0
-132 -998 0
-133 -999 0
-125 -1044 0
-129 -1047 0
-131 -1048 0
-132 -1049 0
-133 -1050 0
-125 -1051 0
-127 -1052 0
-128 -1055 0
-129 -1056 0
-130 -1057 0
-131 -1058 0
-132 -1059 0
-133 -1060 0
-124 -1067 0
-126 -1068 0
-130 -1070 0
-132 -1071 0
-133 -1072 0
-124 -1073 0
-126 -1074 0
-127 -1075 0
-128 -1076 0
-130 -1077 0
-132 -1078 0
-133 -1079 0
-124 -1080 0
-127 -1081 0
-129 -1083 0
-130 -1084 0
-132 -1085 0
-133 -1086 0
-125 -1116 0
-127 -1117 0
-129 -1119 0
-132 -1120 0
-133 -1121 0
-125 -1122 0
-127 -1123 0
-128 -1124 0
-129 -1125 0
-130 -1126 0
-132 -1127 0
-133 -1128 0
-124 -1135 0
-128 -1136 0
-129 -1137 0
-130 -1138 0
-132 -1139 0
-133 -1140 0
-125 -1141 0
-126 -1142 0
-129 -1143 0
-130 -1144 0
-132 -1145 0
-133 -1146 0
-125 -1147 0
-128 -1149 0
-130 -1150 0
-132 -1151 0
-133 -1152 0
-125 -1153 0
-127 -1154 0
-130 -1157 0
-132 -1158 0
-133 -1159 0
-126 -1202 0
-127 -1203 0
-131 -1205 0
-132 -1206 0
-133 -1207 0
-126 -1208 0
-127 -1209 0
-128 -1211 0
-130 -1212 0
-131 -1213 0
-132 -1214 0
-133 -1215 0
-127 -1216 0
-129 -1219 0
-131 -1220 0
-132 -1221 0
-133 -1222 0
-126 -1230 0
-128 -1233 0
-129 -1234 0
-130 -1235 0
-131 -1236 0
-132 -1237 0
-133 -1238 0
-126 -1239 0
-127 -1240 0
-129 -1242 0
-130 -1243 0
-131 -1244 0
-132 -1245 0
-133 -1246 0
-127 -1254 0
-128 -1256 0
-130 -1257 0
-131 -1258 0
-132 -1259 0
-133 -1260 0
-127 -1282 0
-128 -1284 0
-129 -1285 0
-131 -1286 0
-132 -1287 0
-133 -1288 0
-124 -1289 0
-126 -1290 0
-128 -1292 0
-130 -1293 0
-131 -1294 0
-132 -1295 0
-133 -1296 0
-124 -1304 0
-128 -1306 0
-129 -1307 0
-131 -1308 0
-132 -1309 0
-133 -1310 0
-124 -1339 0
-128 -1341 0
-130 -1342 0
-131 -1343 0
-132 -1344 0
-133 -1345 0
-125 -1346 0
-126 -1347 0
-128 -1349 0
-131 -1350 0
-132 -1351 0
-133 -1352 0
-125 -1353 0
-128 -1356 0
-129 -1357 0
-130 -1358 0
-131 -1359 0
-132 -1360 0
-133 -1361 0
-125 -1362 0
-127 -1363 0
-128 -1365 0
-129 -1366 0
-131 -1367 0
-132 -1368 0
-133 -1369 0
-125 -1377 0
-128 -1380 0
-130 -1381 0
-131 -1382 0
-132 -1383 0
-133 -1384 0
-126 -1422 0
-128 -1425 0
-130 -1426 0
-132 -1427 0
-133 -1428 0
-126 -1429 0
-127 -1430 0
-128 -1433 0
-132 -1434 0
-133 -1435 0
-127 -1445 0
-128 -1448 0
-129 -1449 0
-130 -1450 0
-132 -1451 0
-133 -1452 0
-126 -1467 0
-128 -1469 0
-129 -1470 0
-130 -1471 0
-132 -1472 0
-133 -1473 0
-129 -1503 0
-130 -1504 0
-132 -1505 0
-133 -1506 0
-126 -1507 0
-128 -1508 0
-130 -1509 0
-131 -1510 0
-132 -1511 0
-133 -1512 0
-126 -1513 0
-129 -1515 0
-131 -1516 0
-132 -1517 0
-133 -1518 0
-126 -1519 0
-127 -1520 0
-128 -1523 0
-129 -1524 0
-130 -1525 0
-131 -1526 0
-132 -1527 0
-133 -1528 0
-127 -1547 0
-129 -1548 0
-130 -1549 0
-131 -1550 0
-132 -1551 0
-133 -1552 0
-128 -1561 0
-131 -1562 0
-132 -1563 0
-133 -1564 0
-124 -1605 0
-129 -1607 0
-131 -1608 0
-132 -1609 0
-133 -1610 0
-125 -1642 0
-130 -1644 0
-131 -1645 0
-132 -1646 0
-133 -1647 0
-124 -1648 0
-128 -1649 0
-129 -1650 0
-130 -1651 0
-132 -1652 0
-133 -1653 0
-125 -1654 0
-128 -1656 0
-129 -1657 0
-130 -1658 0
-132 -1659 0
-133 -1660 0
-127 -1674 0
-128 -1676 0
-129 -1677 0
-131 -1678 0
-132 -1679 0
-133 -1680 0
-126 -1681 0
-128 -1682 0
-130 -1683 0
-131 -1684 0
-132 -1685 0
-133 -1686 0
-128 -1688 0
-129 -1689 0
-130 -1690 0
-131 -1691 0
-132 -1692 0
-133 -1693 0
-125 -1714 0
-128 -1715 0
-129 -1716 0
-131 -1717 0
-132 -1718 0
-133 -1719 0
-126 -1732 0
-128 -1734 0
-129 -1735 0
-132 -1736 0
-133 -1737 0
-129 -1740 0
-130 -1741 0
-132 -1742 0
-133 -1743 0
-126 -1763 0
-129 -1765 0
-130 -1766 0
-131 -1767 0
-132 -1768 0
-133 -1769 0
-124 -1771 0
-128 -1773 0
-130 -1774 0
-131 -1775 0
-132 -1776 0
-133 -1777 0
-127 -1812 0
-128 -1814 0
-130 -1815 0
-132 -1816 0
-133 -1817 0
-129 -1820 0
-130 -1821 0
-132 -1822 0
-133 -1823 0
-128 -1832 0
-129 -1833 0
-130 -1834 0
-131 -1835 0
-132 -1836 0
-133 -1837 0
-127 -1838 0
-129 -1839 0
-130 -1840 0
-131 -1841 0
-132 -1842 0
-133 -1843 0
-128 -1846 0
-129 -1847 0
-130 -1848 0
-131 -1849 0
-132 -1850 0
-133 -1851 0
-139 -241 0
-140 -242 0
-134 -301 0
-139 -306 0
-140 -307 0
-134 -308 0
-135 -311 0
-136 -312 0
-137 -314 0
-139 -315 0
-140 -316 0
-134 -324 0
-136 -327 0
-137 -330 0
-138 -331 0
-139 -332 0
-140 -333 0
-134 -334 0
-136 -336 0
-139 -338 0
-140 -339 0
-138 -350 0
-139 -351 0
-140 -352 0
-135 -392 0
-139 -394 0
-140 -395 0
-137 -448 0
-138 -449 0
-139 -450 0
-140 -451 0
-138 -464 0
-139 -465 0
-140 -466 0
-135 -469 0
-136 -471 0
-137 -473 0
-138 -474 0
-139 -475 0
-140 -476 0
-135 -479 0
-136 -480 0
-139 -483 0
-140 -484 0
-134 -515 0
-136 -519 0
-138 -522 0
-139 -523 0
-140 -524 0
-134 -525 0
-136 -528 0
-137 -529 0
-138 -530 0
-139 -531 0
-140 -532 0
-137 -552 0
-138 -553 0
-139 -554 0
-140 -555 0
-137 -596 0
-138 -597 0
-139 -598 0
-140 -599 0
-136 -664 0
-139 -665 0
-140 -666 0
-136 -670 0
-137 -673 0
-138 -674 0
-139 -675 0
-140 -676 0
-134 -690 0
-136 -693 0
-139 -695 0
-140 -696 0
-134 -697 0
-136 -699 0
-137 -702 0
-138 -703 0
-139 -704 0
-140 -705 0
-137 -716 0
-139 -717 0
-140 -718 0
-137 -724 0
-139 -725 0
-140 -726 0
-135 -728 0
-136 -730 0
-139 -732 0
-140 -733 0
-135 -735 0
-136 -736 0
-137 -738 0
-138 -739 0
-139 -740 0
-140 -741 0
-136 -766 0
-138 -769 0
-139 -770 0
-140 -771 0
-136 -774 0
-137 -776 0
-139 -777 0
-140 -778 0
-134 -800 0
-136 -803 0
-137 -806 0
-138 -807 0
-139 -808 0
-140 -809 0
-134 -810 0
-136 -813 0
-138 -814 0
-139 -815 0
-140 -816 0
-134 -817 0
-135 -819 0
-137 -822 0
-138 -823 0
-139 -824 0
-140 -825 0
-134 -826 0
-135 -828 0
-138 -830 0
-139 -831 0
-140 -832 0
-135 -848 0
-136 -849 0
-138 -851 0
-139 -852 0
-140 -853 0
-134 -854 0
-137 -859 0
-139 -860 0
-140 -861 0
-134 -862 0
-137 -865 0
-138 -866 0
-139 -867 0
-140 -868 0
-136 -877 0
-137 -880 0
-139 -881 0
-140 -882 0
-135 -933 0
-136 -935 0
-138 -937 0
-139 -938 0
-140 -939 0
-136 -1017 0
-137 -1019 0
-139 -1020 0
-140 -1021 0
-136 -1024 0
-139 -1027 0
-140 -1028 0
-135 -1030 0
-137 -1033 0
-139 -1034 0
-140 -1035 0
-135 -1037 0
-138 -1041 0
-139 -1042 0
-140 -1043 0
-134 -1067 0
-136 -1069 0
-137 -1070 0
-139 -1071 0
-140 -1072 0
-134 -1073 0
-135 -1075 0
-137 -1077 0
-139 -1078 0
-140 -1079 0
-134 -1080 0
-135 -1081 0
-137 -1084 0
-139 -1085 0
-140 -1086 0
-134 -1087 0
-135 -1088 0
-138 -1090 0
-139 -1091 0
-140 -1092 0
-134 -1093 0
-135 -1094 0
-136 -1095 0
-137 -1096 0
-138 -1097 0
-139 -1098 0
-140 -1099 0
-135 -1117 0
-136 -1118 0
-139 -1120 0
-140 -1121 0
-135 -1123 0
-137 -1126 0
-139 -1127 0
-140 -1128 0
-134 -1129 0
-137 -1131 0
-138 -1132 0
-139 -1133 0
-140 -1134 0
-134 -1135 0
-137 -1138 0
-139 -1139 0
-140 -1140 0
-136 -1170 0
-137 -1171 0
-138 -1172 0
-139 -1173 0
-140 -1174 0
-135 -1176 0
-136 -1177 0
-137 -1179 0
-139 -1180 0
-140 -1181 0
-135 -1183 0
-136 -1185 0
-139 -1187 0
-140 -1188 0
-135 -1190 0
-137 -1192 0
-139 -1193 0
-140 -1194 0
-135 -1196 0
-138 -1199 0
-139 -1200 0
-140 -1201 0
-136 -1232 0
-137 -1235 0
-138 -1236 0
-139 -1237 0
-140 -1238 0
-135 -1240 0
-137 -1243 0
-138 -1244 0
-139 -1245 0
-140 -1246 0
-135 -1248 0
-137 -1251 0
-139 -1252 0
-140 -1253 0
-135 -1254 0
-137 -1257 0
-138 -1258 0
-139 -1259 0
-140 -1260 0
-135 -1261 0
-139 -1265 0
-140 -1266 0
-135 -1267 0
-136 -1269 0
-137 -1272 0
-139 -1273 0
-140 -1274 0
-134 -1289 0
-137 -1293 0
-138 -1294 0
-139 -1295 0
-140 -1296 0
-134 -1297 0
-138 -1301 0
-139 -1302 0
-140 -1303 0
-134 -1304 0
-138 -1308 0
-139 -1309 0
-140 -1310 0
-134 -1311 0
-137 -1313 0
-138 -1314 0
-139 -1315 0
-140 -1316 0
-134 -1317 0
-135 -1318 0
-136 -1320 0
-138 -1322 0
-139 -1323 0
-140 -1324 0
-136 -1348 0
-138 -1350 0
-139 -1351 0
-140 -1352 0
-136 -1355 0
-137 -1358 0
-138 -1359 0
-139 -1360 0
-140 -1361 0
-135 -1363 0
-138 -1367 0
-139 -1368 0
-140 -1369 0
-135 -1371 0
-137 -1373 0
-138 -1374 0
-139 -1375 0
-140 -1376 0
-136 -1394 0
-138 -1397 0
-139 -1398 0
-140 -1399 0
-136 -1402 0
-137 -1403 0
-138 -1404 0
-139 -1405 0
-140 -1406 0
-135 -1408 0
-138 -1411 0
-139 -1412 0
-140 -1413 0
-135 -1415 0
-137 -1418 0
-138 -1419 0
-139 -1420 0
-140 -1421 0
-137 -1471 0
-139 -1472 0
-140 -1473 0
-138 -1477 0
-139 -1478 0
-140 -1479 0
-137 -1484 0
-138 -1485 0
-139 -1486 0
-140 -1487 0
-135 -1488 0
-136 -1490 0
-138 -1492 0
-139 -1493 0
-140 -1494 0
-136 -1536 0
-139 -1539 0
-140 -1540 0
-135 -1541 0
-139 -1545 0
-140 -1546 0
-135 -1547 0
-137 -1549 0
-138 -1550 0
-139 -1551 0
-140 -1552 0
-134 -1565 0
-137 -1568 0
-138 -1569 0
-139 -1570 0
-140 -1571 0
-136 -1600 0
-138 -1602 0
-139 -1603 0
-140 -1604 0
-137 -1633 0
-139 -1634 0
-140 -1635 0
-138 -1639 0
-139 -1640 0
-140 -1641 0
-134 -1648 0
-137 -1651 0
-139 -1652 0
-140 -1653 0
-136 -1662 0
-139 -1665 0
-140 -1666 0
-135 -1668 0
-137 -1671 0
-139 -1672 0
-140 -1673 0
-137 -1683 0
-138 -1684 0
-139 -1685 0
-140 -1686 0
-137 -1690 0
-138 -1691 0
-139 -1692 0
-140 -1693 0
-135 -1695 0
-136 -1696 0
-137 -1698 0
-139 -1699 0
-140 -1700 0
-134 -1708 0
-136 -1709 0
-138 -1711 0
-139 -1712 0
-140 -1713 0
-138 -1717 0
-139 -1718 0
-140 -1719 0
-138 -1723 0
-139 -1724 0
-140 -1725 0
-137 -1728 0
-138 -1729 0
-139 -1730 0
-140 -1731 0
-136 -1758 0
-138 -1760 0
-139 -1761 0
-140 -1762 0
-134 -1771 0
-136 -1772 0
-137 -1774 0
-138 -1775 0
-139 -1776 0
-140 -1777 0
-136 -1785 0
-137 -1787 0
-138 -1788 0
-139 -1789 0
-140 -1790 0
-136 -1792 0
-138 -1794 0
-139 -1795 0
-140 -1796 0
-135 -1797 0
-136 -1799 0
-137 -1800 0
-138 -1801 0
-139 -1802 0
-140 -1803 0
-135 -1804 0
-136 -1805 0
-138 -1808 0
-139 -1809 0
-140 -1810 0
-136 -1819 0
-137 -1821 0
-139 -1822 0
-140 -1823 0
-136 -1824 0
-137 -1827 0
-138 -1828 0
-139 -1829 0
-140 -1830 0
-136 -1853 0
-137 -1856 0
-138 -1857 0
-139 -1858 0
-140 -1859 0
-141 -227 0
-142 -228 0
-144 -231 0
-147 -234 0
-148 -235 0
-141 -294 0
-144 -296 0
-147 -299 0
-148 -300 0
-141 -308 0
-142 -309 0
-143 -310 0
-144 -312 0
-145 -314 0
-147 -315 0
-148 -316 0
-141 -324 0
-142 -325 0
-144 -327 0
-145 -330 0
-146 -331 0
-147 -332 0
-148 -333 0
-141 -334 0
-142 -335 0
-144 -336 0
-147 -338 0
-148 -339 0
-142 -340 0
-143 -341 0
-144 -342 0
-145 -344 0
-147 -345 0
-148 -346 0
-141 -383 0
-143 -384 0
-144 -386 0
-147 -388 0
-148 -389 0
-141 -452 0
-144 -455 0
-146 -457 0
-147 -458 0
-148 -459 0
-142 -467 0
-143 -468 0
-144 -471 0
-145 -473 0
-146 -474 0
-147 -475 0
-148 -476 0
-142 -477 0
-143 -478 0
-144 -480 0
-147 -483 0
-148 -484 0
-141 -507 0
-144 -509 0
-145 -511 0
-146 -512 0
-147 -513 0
-148 -514 0
-141 -515 0
-142 -516 0
-143 -517 0
-144 -519 0
-146 -522 0
-147 -523 0
-148 -524 0
-141 -525 0
-142 -526 0
-143 -527 0
-144 -528 0
-145 -529 0
-146 -530 0
-147 -531 0
-148 -532 0
-141 -584 0
-143 -585 0
-144 -588 0
-145 -589 0
-146 -590 0
-147 -591 0
-148 -592 0
-141 -654 0
-144 -656 0
-145 -658 0
-147 -659 0
-148 -660 0
-142 -661 0
-143 -662 0
-144 -664 0
-147 -665 0
-148 -666 0
-142 -667 0
-143 -668 0
-144 -670 0
-145 -673 0
-146 -674 0
-147 -675 0
-148 -676 0
-141 -690 0
-143 -691 0
-144 -693 0
-147 -695 0
-148 -696 0
-141 -697 0
-143 -698 0
-144 -699 0
-145 -702 0
-146 -703 0
-147 -704 0
-148 -705 0
-142 -706 0
-143 -707 0
-144 -708 0
-146 -710 0
-147 -711 0
-148 -712 0
-143 -727 0
-144 -730 0
-147 -732 0
-148 -733 0
-143 -734 0
-144 -736 0
-145 -738 0
-146 -739 0
-147 -740 0
-148 -741 0
-143 -764 0
-144 -766 0
-146 -769 0
-147 -770 0
-148 -771 0
-143 -772 0
-144 -774 0
-145 -776 0
-147 -777 0
-148 -778 0
-141 -792 0
-145 -796 0
-146 -797 0
-147 -798 0
-148 -799 0
-141 -817 0
-142 -818 0
-145 -822 0
-146 -823 0
-147 -824 0
-148 -825 0
-141 -826 0
-142 -827 0
-146 -830 0
-147 -831 0
-148 -832 0
-141 -854 0
-142 -855 0
-145 -859 0
-147 -860 0
-148 -861 0
-141 -862 0
-142 -863 0
-145 -865 0
-146 -866 0
-147 -867 0
-148 -868 0
-142 -869 0
-145 -872 0
-146 -873 0
-147 -874 0
-148 -875 0
-141 -924 0
-146 -928 0
-147 -929 0
-148 -930 0
-141 -1007 0
-145 -1011 0
-147 -1012 0
-148 -1013 0
-142 -1029 0
-145 -1033 0
-147 -1034 0
-148 -1035 0
-142 -1036 0
-146 -1041 0
-147 -1042 0
-148 -1043 0
-141 -1073 0
-143 -1074 0
-145 -1077 0
-147 -1078 0
-148 -1079 0
-141 -1080 0
-145 -1084 0
-147 -1085 0
-148 -1086 0
-141 -1087 0
-146 -1090 0
-147 -1091 0
-148 -1092 0
-142 -1100 0
-143 -1101 0
-145 -1103 0
-146 -1104 0
-147 -1105 0
-148 -1106 0
-142 -1122 0
-145 -1126 0
-147 -1127 0
-148 -1128 0
-141 -1129 0
-145 -1131 0
-146 -1132 0
-147 -1133 0
-148 -1134 0
-141 -1135 0
-145 -1138 0
-147 -1139 0
-148 -1140 0
-142 -1141 0
-143 -1142 0
-145 -1144 0
-147 -1145 0
-148 -1146 0
-142 -1147 0
-145 -1150 0
-147 -1151 0
-148 -1152 0
-143 -1189 0
-145 -1192 0
-147 -1193 0
-148 -1194 0
-143 -1195 0
-146 -1199 0
-147 -1200 0
-148 -1201 0
-143 -1239 0
-145 -1243 0
-146 -1244 0
-147 -1245 0
-148 -1246 0
-143 -1247 0
-145 -1251 0
-147 -1252 0
-148 -1253 0
-145 -1257 0
-146 -1258 0
-147 -1259 0
-148 -1260 0
-147 -1265 0
-148 -1266 0
-141 -1289 0
-143 -1290 0
-145 -1293 0
-146 -1294 0
-147 -1295 0
-148 -1296 0
-141 -1297 0
-143 -1298 0
-146 -1301 0
-147 -1302 0
-148 -1303 0
-141 -1304 0
-146 -1308 0
-147 -1309 0
-148 -1310 0
-141 -1311 0
-145 -1313 0
-146 -1314 0
-147 -1315 0
-148 -1316 0
-142 -1325 0
-143 -1326 0
-146 -1329 0
-147 -1330 0
-148 -1331 0
-142 -1362 0
-146 -1367 0
-147 -1368 0
-148 -1369 0
-142 -1370 0
-145 -1373 0
-146 -1374 0
-147 -1375 0
-148 -1376 0
-143 -1407 0
-146 -1411 0
-147 -1412 0
-148 -1413 0
-143 -1414 0
-145 -1418 0
-146 -1419 0
-147 -1420 0
-148 -1421 0
-145 -1463 0
-146 -1464 0
-147 -1465 0
-148 -1466 0
-143 -1467 0
-145 -1471 0
-147 -1472 0
-148 -1473 0
-143 -1474 0
-146 -1477 0
-147 -1478 0
-148 -1479 0
-145 -1484 0
-146 -1485 0
-147 -1486 0
-148 -1487 0
-143 -1507 0
-145 -1509 0
-146 -1510 0
-147 -1511 0
-148 -1512 0
-143 -1513 0
-146 -1516 0
-147 -1517 0
-148 -1518 0
-147 -1545 0
-148 -1546 0
-145 -1549 0
-146 -1550 0
-147 -1551 0
-148 -1552 0
-141 -1565 0
-142 -1566 0
-145 -1568 0
-146 -1569 0
-147 -1570 0
-148 -1571 0
-141 -1592 0
-146 -1595 0
-147 -1596 0
-148 -1597 0
-141 -1624 0
-145 -1627 0
-147 -1628 0
-148 -1629 0
-142 -1630 0
-145 -1633 0
-147 -1634 0
-148 -1635 0
-142 -1636 0
-146 -1639 0
-147 -1640 0
-148 -1641 0
-141 -1648 0
-145 -1651 0
-147 -1652 0
-148 -1653 0
-143 -1667 0
-145 -1671 0
-147 -1672 0
-148 -1673 0
-143 -1681 0
-145 -1683 0
-146 -1684 0
-147 -1685 0
-148 -1686 0
-145 -1690 0
-146 -1691 0
-147 -1692 0
-148 -1693 0
-142 -1714 0
-146 -1717 0
-147 -1718 0
-148 -1719 0
-143 -1720 0
-146 -1723 0
-147 -1724 0
-148 -1725 0
-143 -1726 0
-145 -1728 0
-146 -1729 0
-147 -1730 0
-148 -1731 0
-145 -1753 0
-146 -1754 0
-147 -1755 0
-148 -1756 0
-141 -1771 0
-144 -1772 0
-145 -1774 0
-146 -1775 0
-147 -1776 0
-148 -1777 0
-142 -1778 0
-144 -1779 0
-145 -1780 0
-146 -1781 0
-147 -1782 0
-148 -1783 0
-144 -1799 0
-145 -1800 0
-146 -1801 0
-147 -1802 0
-148 -1803 0
-144 -1805 0
-146 -1808 0
-147 -1809 0
-148 -1810 0
-144 -1819 0
-145 -1821 0
-147 -1822 0
-148 -1823 0
-144 -1824 0
-145 -1827 0
-146 -1828 0
-147 -1829 0
-148 -1830 0
-144 -1831 0
-145 -1834 0
-146 -1835 0
-147 -1836 0
-148 -1837 0
-144 -1853 0
-145 -1856 0
-146 -1857 0
-147 -1858 0
-148 -1859 0
-149 -219 0
-150 -220 0
-154 -222 0
-156 -225 0
-157 -226 0
-149 -294 0
-152 -295 0
-153 -296 0
-154 -297 0
-156 -299 0
-157 -300 0
-149 -301 0
-150 -302 0
-151 -303 0
-154 -304 0
-156 -306 0
-157 -307 0
-149 -324 0
-150 -325 0
-153 -327 0
-154 -328 0
-155 -331 0
-156 -332 0
-157 -333 0
-150 -340 0
-151 -341 0
-153 -342 0
-154 -343 0
-156 -345 0
-157 -346 0
-150 -347 0
-154 -348 0
-155 -350 0
-156 -351 0
-157 -352 0
-149 -376 0
-151 -377 0
-152 -378 0
-154 -379 0
-156 -381 0
-157 -382 0
-149 -437 0
-151 -438 0
-154 -439 0
-155 -441 0
-156 -442 0
-157 -443 0
-149 -452 0
-152 -453 0
-153 -455 0
-154 -456 0
-155 -457 0
-156 -458 0
-157 -459 0
-150 -460 0
-151 -461 0
-154 -463 0
-155 -464 0
-156 -465 0
-157 -466 0
-150 -477 0
-151 -478 0
-152 -479 0
-153 -480 0
-154 -481 0
-156 -483 0
-157 -484 0
-150 -500 0
-152 -501 0
-154 -502 0
-155 -504 0
-156 -505 0
-157 -506 0
-149 -507 0
-153 -509 0
-155 -512 0
-156 -513 0
-157 -514 0
-149 -525 0
-150 -526 0
-151 -527 0
-153 -528 0
-155 -530 0
-156 -531 0
-157 -532 0
-149 -541 0
-150 -542 0
-155 -545 0
-156 -546 0
-157 -547 0
-149 -576 0
-151 -577 0
-154 -579 0
-155 -581 0
-156 -582 0
-157 -583 0
-149 -654 0
-153 -656 0
-154 -657 0
-156 -659 0
-157 -660 0
-150 -667 0
-151 -668 0
-153 -670 0
-154 -671 0
-155 -674 0
-156 -675 0
-157 -676 0
-150 -684 0
-154 -686 0
-156 -688 0
-157 -689 0
-149 -690 0
-151 -691 0
-153 -693 0
-156 -695 0
-157 -696 0
-150 -706 0
-151 -707 0
-153 -708 0
-155 -710 0
-156 -711 0
-157 -712 0
-150 -713 0
-151 -714 0
-156 -717 0
-157 -718 0
-151 -720 0
-154 -722 0
-156 -725 0
-157 -726 0
-151 -734 0
-152 -735 0
-153 -736 0
-154 -737 0
-155 -739 0
-156 -740 0
-157 -741 0
-151 -757 0
-152 -758 0
-154 -759 0
-156 -762 0
-157 -763 0
-151 -764 0
-153 -766 0
-154 -767 0
-155 -769 0
-156 -770 0
-157 -771 0
-149 -786 0
-153 -787 0
-155 -789 0
-156 -790 0
-157 -791 0
-149 -810 0
-150 -811 0
-153 -813 0
-155 -814 0
-156 -815 0
-157 -816 0
-149 -826 0
-150 -827 0
-152 -828 0
-155 -830 0
-156 -831 0
-157 -832 0
-149 -862 0
-150 -863 0
-155 -866 0
-156 -867 0
-157 -868 0
-150 -869 0
-155 -873 0
-156 -874 0
-157 -875 0
-149 -914 0
-152 -915 0
-153 -917 0
-154 -918 0
-155 -921 0
-156 -922 0
-157 -923 0
-149 -1000 0
-153 -1002 0
-154 -1003 0
-156 -1005 0
-157 -1006 0
-150 -1022 0
-153 -1024 0
-154 -1025 0
-156 -1027 0
-157 -1028 0
-150 -1036 0
-152 -1037 0
-154 -1039 0
-155 -1041 0
-156 -1042 0
-157 -1043 0
-149 -1067 0
-151 -1068 0
-153 -1069 0
-156 -1071 0
-157 -1072 0
-149 -1080 0
-152 -1081 0
-156 -1085 0
-157 -1086 0
-149 -1093 0
-152 -1094 0
-153 -1095 0
-155 -1097 0
-156 -1098 0
-157 -1099 0
-150 -1100 0
-151 -1101 0
-152 -1102 0
-155 -1104 0
-156 -1105 0
-157 -1106 0
-150 -1116 0
-152 -1117 0
-153 -1118 0
-156 -1120 0
-157 -1121 0
-149 -1129 0
-155 -1132 0
-156 -1133 0
-157 -1134 0
-150 -1141 0
-151 -1142 0
-156 -1145 0
-157 -1146 0
-150 -1153 0
-152 -1154 0
-153 -1156 0
-156 -1158 0
-157 -1159 0
-150 -1169 0
-153 -1170 0
-155 -1172 0
-156 -1173 0
-157 -1174 0
-151 -1182 0
-152 -1183 0
-153 -1185 0
-154 -1186 0
-156 -1187 0
-157 -1188 0
-151 -1195 0
-152 -1196 0
-154 -1197 0
-155 -1199 0
-156 -1200 0
-157 -1201 0
-152 -1223 0
-153 -1224 0
-154 -1225 0
-156 -1227 0
-157 -1228 0
-151 -1230 0
-153 -1232 0
-154 -1233 0
-155 -1236 0
-156 -1237 0
-157 -1238 0
-151 -1247 0
-152 -1248 0
-154 -1249 0
-156 -1252 0
-157 -1253 0
-152 -1254 0
-154 -1256 0
-155 -1258 0
-156 -1259 0
-157 -1260 0
-152 -1267 0
-153 -1269 0
-154 -1270 0
-156 -1273 0
-157 -1274 0
-152 -1282 0
-153 -1283 0
-154 -1284 0
-155 -1286 0
-156 -1287 0
-157 -1288 0
-149 -1297 0
-151 -1298 0
-154 -1299 0
-155 -1301 0
-156 -1302 0
-157 -1303 0
-149 -1304 0
-154 -1306 0
-155 -1308 0
-156 -1309 0
-157 -1310 0
-149 -1317 0
-152 -1318 0
-153 -1320 0
-154 -1321 0
-155 -1322 0
-156 -1323 0
-157 -1324 0
-150 -1325 0
-151 -1326 0
-154 -1328 0
-155 -1329 0
-156 -1330 0
-157 -1331 0
-149 -1339 0
-153 -1340 0
-154 -1341 0
-155 -1343 0
-156 -1344 0
-157 -1345 0
-150 -1353 0
-153 -1355 0
-154 -1356 0
-155 -1359 0
-156 -1360 0
-157 -1361 0
-150 -1370 0
-152 -1371 0
-154 -1372 0
-155 -1374 0
-156 -1375 0
-157 -1376 0
-150 -1377 0
-153 -1379 0
-154 -1380 0
-155 -1382 0
-156 -1383 0
-157 -1384 0
-151 -1400 0
-153 -1402 0
-155 -1404 0
-156 -1405 0
-157 -1406 0
-151 -1414 0
-152 -1415 0
-155 -1419 0
-156 -1420 0
-157 -1421 0
-152 -1453 0
-153 -1455 0
-155 -1457 0
-156 -1458 0
-157 -1459 0
-151 -1474 0
-155 -1477 0
-156 -1478 0
-157 -1479 0
-152 -1488 0
-153 -1490 0
-155 -1492 0
-156 -1493 0
-157 -1494 0
-153 -1502 0
-156 -1505 0
-157 -1506 0
-151 -1507 0
-154 -1508 0
-155 -1510 0
-156 -1511 0
-157 -1512 0
-151 -1519 0
-152 -1520 0
-153 -1522 0
-154 -1523 0
-155 -1526 0
-156 -1527 0
-157 -1528 0
-151 -1535 0
-153 -1536 0
-154 -1537 0
-156 -1539 0
-157 -1540 0
-152 -1541 0
-154 -1543 0
-156 -1545 0
-157 -1546 0
-149 -1585 0
-153 -1586 0
-154 -1587 0
-155 -1589 0
-156 -1590 0
-157 -1591 0
-150 -1636 0
-154 -1637 0
-155 -1639 0
-156 -1640 0
-157 -1641 0
-149 -1648 0
-154 -1649 0
-156 -1652 0
-157 -1653 0
-150 -1654 0
-153 -1655 0
-154 -1656 0
-156 -1659 0
-157 -1660 0
-151 -1661 0
-153 -1662 0
-154 -1663 0
-156 -1665 0
-157 -1666 0
-154 -1688 0
-155 -1691 0
-156 -1692 0
-157 -1693 0
-152 -1695 0
-153 -1696 0
-154 -1697 0
-156 -1699 0
-157 -1700 0
-149 -1708 0
-153 -1709 0
-155 -1711 0
-156 -1712 0
-157 -1713 0
-151 -1726 0
-154 -1727 0
-155 -1729 0
-156 -1730 0
-157 -1731 0
-153 -1744 0
-154 -1745 0
-155 -1748 0
-156 -1749 0
-157 -1750 0
-153 -1758 0
-154 -1759 0
-155 -1760 0
-156 -1761 0
-157 -1762 0
-151 -1763 0
-153 -1764 0
-155 -1767 0
-156 -1768 0
-157 -1769 0
-150 -1778 0
-153 -1779 0
-155 -1781 0
-156 -1782 0
-157 -1783 0
-153 -1792 0
-154 -1793 0
-155 -1794 0
-156 -1795 0
-157 -1796 0
-152 -1804 0
-153 -1805 0
-154 -1806 0
-155 -1808 0
-156 -1809 0
-157 -1810 0
-153 -1824 0
-154 -1825 0
-155 -1828 0
-156 -1829 0
-157 -1830 0
-152 -1838 0
-155 -1841 0
-156 -1842 0
-157 -1843 0
-154 -1846 0
-155 -1849 0
-156 -1850 0
-157 -1851 0
-158 -205 0
-159 -206 0
-163 -209 0
-166 -210 0
-167 -211 0
-158 -334 0
-159 -335 0
-162 -336 0
-166 -338 0
-167 -339 0
-159 -340 0
-162 -342 0
-164 -344 0
-166 -345 0
-167 -346 0
-158 -437 0
-163 -440 0
-165 -441 0
-166 -442 0
-167 -443 0
-159 -444 0
-163 -447 0
-164 -448 0
-165 -449 0
-166 -450 0
-167 -451 0
-159 -477 0
-160 -479 0
-162 -480 0
-163 -482 0
-166 -483 0
-167 -484 0
-158 -525 0
-159 -526 0
-162 -528 0
-164 -529 0
-165 -530 0
-166 -531 0
-167 -532 0
-158 -562 0
-163 -564 0
-164 -565 0
-165 -566 0
-166 -567 0
-167 -568 0
-159 -667 0
-161 -669 0
-162 -670 0
-163 -672 0
-164 -673 0
-165 -674 0
-166 -675 0
-167 -676 0
-158 -697 0
-162 -699 0
-163 -701 0
-164 -702 0
-165 -703 0
-166 -704 0
-167 -705 0
-159 -706 0
-162 -708 0
-163 -709 0
-165 -710 0
-166 -711 0
-167 -712 0
-160 -735 0
-162 -736 0
-164 -738 0
-165 -739 0
-166 -740 0
-167 -741 0
-161 -773 0
-162 -774 0
-164 -776 0
-166 -777 0
-167 -778 0
-158 -786 0
-162 -787 0
-163 -788 0
-165 -789 0
-166 -790 0
-167 -791 0
-158 -792 0
-160 -793 0
-163 -795 0
-164 -796 0
-165 -797 0
-166 -798 0
-167 -799 0
-158 -800 0
-159 -801 0
-162 -803 0
-163 -805 0
-164 -806 0
-165 -807 0
-166 -808 0
-167 -809 0
-158 -826 0
-159 -827 0
-160 -828 0
-163 -829 0
-165 -830 0
-166 -831 0
-167 -832 0
-158 -854 0
-159 -855 0
-161 -856 0
-163 -858 0
-164 -859 0
-166 -860 0
-167 -861 0
-159 -869 0
-161 -870 0
-163 -871 0
-164 -872 0
-165 -873 0
-166 -874 0
-167 -875 0
-159 -876 0
-162 -877 0
-163 -879 0
-164 -880 0
-166 -881 0
-167 -882 0
-158 -900 0
-160 -902 0
-162 -903 0
-163 -904 0
-165 -905 0
-166 -906 0
-167 -907 0
-158 -1000 0
-161 -1001 0
-162 -1002 0
-163 -1004 0
-166 -1005 0
-167 -1006 0
-158 -1007 0
-160 -1008 0
-161 -1009 0
-163 -1010 0
-164 -1011 0
-166 -1012 0
-167 -1013 0
-159 -1014 0
-161 -1016 0
-162 -1017 0
-163 -1018 0
-164 -1019 0
-166 -1020 0
-167 -1021 0
-159 -1036 0
-160 -1037 0
-161 -1038 0
-163 -1040 0
-165 -1041 0
-166 -1042 0
-167 -1043 0
-159 -1061 0
-160 -1062 0
-162 -1063 0
-163 -1064 0
-166 -1065 0
-167 -1066 0
-158 -1067 0
-162 -1069 0
-164 -1070 0
-166 -1071 0
-167 -1072 0
-158 -1073 0
-160 -1075 0
-164 -1077 0
-166 -1078 0
-167 -1079 0
-158 -1087 0
-160 -1088 0
-165 -1090 0
-166 -1091 0
-167 -1092 0
-158 -1093 0
-160 -1094 0
-162 -1095 0
-164 -1096 0
-165 -1097 0
-166 -1098 0
-167 -1099 0
-159 -1100 0
-160 -1102 0
-164 -1103 0
-165 -1104 0
-166 -1105 0
-167 -1106 0
-158 -1129 0
-161 -1130 0
-164 -1131 0
-165 -1132 0
-166 -1133 0
-167 -1134 0
-159 -1147 0
-161 -1148 0
-164 -1150 0
-166 -1151 0
-167 -1152 0
-159 -1153 0
-160 -1154 0
-161 -1155 0
-162 -1156 0
-164 -1157 0
-166 -1158 0
-167 -1159 0
-159 -1169 0
-162 -1170 0
-164 -1171 0
-165 -1172 0
-166 -1173 0
-167 -1174 0
-160 -1176 0
-162 -1177 0
-163 -1178 0
-164 -1179 0
-166 -1180 0
-167 -1181 0
-160 -1196 0
-163 -1198 0
-165 -1199 0
-166 -1200 0
-167 -1201 0
-161 -1231 0
-162 -1232 0
-163 -1234 0
-164 -1235 0
-165 -1236 0
-166 -1237 0
-167 -1238 0
-160 -1240 0
-161 -1241 0
-163 -1242 0
-164 -1243 0
-165 -1244 0
-166 -1245 0
-167 -1246 0
-160 -1261 0
-161 -1262 0
-163 -1264 0
-166 -1265 0
-167 -1266 0
-160 -1267 0
-161 -1268 0
-162 -1269 0
-163 -1271 0
-164 -1272 0
-166 -1273 0
-167 -1274 0
-160 -1282 0
-162 -1283 0
-163 -1285 0
-165 -1286 0
-166 -1287 0
-167 -1288 0
-158 -1289 0
-161 -1291 0
-164 -1293 0
-165 -1294 0
-166 -1295 0
-167 -1296 0
-158 -1311 0
-161 -1312 0
-164 -1313 0
-165 -1314 0
-166 -1315 0
-167 -1316 0
-158 -1317 0
-160 -1318 0
-161 -1319 0
-162 -1320 0
-165 -1322 0
-166 -1323 0
-167 -1324 0
-159 -1325 0
-161 -1327 0
-165 -1329 0
-166 -1330 0
-167 -1331 0
-158 -1339 0
-162 -1340 0
-164 -1342 0
-165 -1343 0
-166 -1344 0
-167 -1345 0
-159 -1346 0
-162 -1348 0
-165 -1350 0
-166 -1351 0
-167 -1352 0
-159 -1370 0
-160 -1371 0
-164 -1373 0
-165 -1374 0
-166 -1375 0
-167 -1376 0
-159 -1377 0
-161 -1378 0
-162 -1379 0
-164 -1381 0
-165 -1382 0
-166 -1383 0
-167 -1384 0
-161 -1393 0
-162 -1394 0
-163 -1396 0
-165 -1397 0
-166 -1398 0
-167 -1399 0
-160 -1415 0
-161 -1416 0
-163 -1417 0
-164 -1418 0
-165 -1419 0
-166 -1420 0
-167 -1421 0
-160 -1437 0
-162 -1438 0
-163 -1440 0
-164 -1441 0
-165 -1442 0
-166 -1443 0
-167 -1444 0
-161 -1468 0
-163 -1470 0
-164 -1471 0
-166 -1472 0
-167 -1473 0
-161 -1481 0
-163 -1483 0
-164 -1484 0
-165 -1485 0
-166 -1486 0
-167 -1487 0
-160 -1488 0
-161 -1489 0
-162 -1490 0
-163 -1491 0
-165 -1492 0
-166 -1493 0
-167 -1494 0
-161 -1501 0
-162 -1502 0
-163 -1503 0
-164 -1504 0
-166 -1505 0
-167 -1506 0
-161 -1514 0
-163 -1515 0
-165 -1516 0
-166 -1517 0
-167 -1518 0
-160 -1520 0
-161 -1521 0
-162 -1522 0
-163 -1524 0
-164 -1525 0
-165 -1526 0
-166 -1527 0
-167 -1528 0
-162 -1536 0
-163 -1538 0
-166 -1539 0
-167 -1540 0
-160 -1547 0
-163 -1548 0
-164 -1549 0
-165 -1550 0
-166 -1551 0
-167 -1552 0
-161 -1553 0
-162 -1554 0
-163 -1555 0
-164 -1556 0
-166 -1557 0
-167 -1558 0
-158 -1624 0
-163 -1626 0
-164 -1627 0
-166 -1628 0
-167 -1629 0
-159 -1636 0
-163 -1638 0
-165 -1639 0
-166 -1640 0
-167 -1641 0
-159 -1654 0
-162 -1655 0
-163 -1657 0
-164 -1658 0
-166 -1659 0
-167 -1660 0
-164 -1683 0
-165 -1684 0
-166 -1685 0
-167 -1686 0
-160 -1695 0
-162 -1696 0
-164 -1698 0
-166 -1699 0
-167 -1700 0
-158 -1708 0
-162 -1709 0
-163 -1710 0
-165 -1711 0
-166 -1712 0
-167 -1713 0
-164 -1728 0
-165 -1729 0
-166 -1730 0
-167 -1731 0
-161 -1757 0
-162 -1758 0
-165 -1760 0
-166 -1761 0
-167 -1762 0
-162 -1764 0
-163 -1765 0
-164 -1766 0
-165 -1767 0
-166 -1768 0
-167 -1769 0
-158 -1771 0
-162 -1772 0
-164 -1774 0
-165 -1775 0
-166 -1776 0
-167 -1777 0
-159 -1778 0
-162 -1779 0
-164 -1780 0
-165 -1781 0
-166 -1782 0
-167 -1783 0
-162 -1785 0
-163 -1786 0
-164 -1787 0
-165 -1788 0
-166 -1789 0
-167 -1790 0
-160 -1804 0
-162 -1805 0
-163 -1807 0
-165 -1808 0
-166 -1809 0
-167 -1810 0
-161 -1818 0
-162 -1819 0
-163 -1820 0
-164 -1821 0
-166 -1822 0
-167 -1823 0
-162 -1831 0
-163 -1833 0
-164 -1834 0
-165 -1835 0
-166 -1836 0
-167 -1837 0
-160 -1838 0
-163 -1839 0
-164 -1840 0
-165 -1841 0
-166 -1842 0
-167 -1843 0
-161 -1845 0
-163 -1847 0
-164 -1848 0
-165 -1849 0
-166 -1850 0
-167 -1851 0
-162 -1853 0
-163 -1855 0
-164 -1856 0
-165 -1857 0
-166 -1858 0
-167 -1859 0
-168 -196 0
-169 -197 0
-173 -201 0
-174 -203 0
-175 -204 0
-168 -287 0
-173 -290 0
-174 -292 0
-175 -293 0
-168 -308 0
-169 -309 0
-170 -311 0
-171 -312 0
-173 -314 0
-174 -315 0
-175 -316 0
-168 -324 0
-169 -325 0
-171 -327 0
-172 -328 0
-173 -330 0
-174 -332 0
-175 -333 0
-169 -340 0
-171 -342 0
-172 -343 0
-173 -344 0
-174 -345 0
-175 -346 0
-168 -360 0
-170 -362 0
-173 -363 0
-174 -365 0
-175 -366 0
-168 -429 0
-172 -432 0
-173 -433 0
-174 -435 0
-175 -436 0
-169 -444 0
-172 -446 0
-173 -448 0
-174 -450 0
-175 -451 0
-169 -467 0
-170 -469 0
-171 -471 0
-172 -472 0
-173 -473 0
-174 -475 0
-175 -476 0
-168 -515 0
-169 -516 0
-171 -519 0
-172 -520 0
-174 -523 0
-175 -524 0
-168 -556 0
-172 -559 0
-174 -560 0
-175 -561 0
-169 -661 0
-171 -664 0
-174 -665 0
-175 -666 0
-168 -690 0
-171 -693 0
-174 -695 0
-175 -696 0
-169 -706 0
-171 -708 0
-174 -711 0
-175 -712 0
-170 -728 0
-171 -730 0
-174 -732 0
-175 -733 0
-171 -766 0
-172 -767 0
-174 -770 0
-175 -771 0
-168 -779 0
-171 -781 0
-172 -782 0
-173 -783 0
-174 -784 0
-175 -785 0
-168 -792 0
-170 -793 0
-172 -794 0
-173 -796 0
-174 -798 0
-175 -799 0
-168 -800 0
-169 -801 0
-171 -803 0
-172 -804 0
-173 -806 0
-174 -808 0
-175 -809 0
-168 -817 0
-169 -818 0
-170 -819 0
-172 -821 0
-173 -822 0
-174 -824 0
-175 -825 0
-168 -839 0
-169 -840 0
-170 -841 0
-171 -842 0
-172 -843 0
-173 -844 0
-174 -845 0
-175 -846 0
-168 -862 0
-169 -863 0
-173 -865 0
-174 -867 0
-175 -868 0
-169 -869 0
-173 -872 0
-174 -874 0
-175 -875 0
-169 -876 0
-171 -877 0
-172 -878 0
-173 -880 0
-174 -881 0
-175 -882 0
-168 -890 0
-170 -892 0
-171 -894 0
-172 -895 0
-173 -897 0
-174 -898 0
-175 -899 0
-168 -992 0
-171 -994 0
-173 -996 0
-174 -998 0
-175 -999 0
-168 -1007 0
-170 -1008 0
-173 -1011 0
-174 -1012 0
-175 -1013 0
-169 -1014 0
-171 -1017 0
-173 -1019 0
-174 -1020 0
-175 -1021 0
-169 -1029 0
-170 -1030 0
-173 -1033 0
-174 -1034 0
-175 -1035 0
-169 -1051 0
-170 -1052 0
-171 -1054 0
-172 -1055 0
-173 -1057 0
-174 -1059 0
-175 -1060 0
-168 -1067 0
-171 -1069 0
-173 -1070 0
-174 -1071 0
-175 -1072 0
-168 -1080 0
-170 -1081 0
-173 -1084 0
-174 -1085 0
-175 -1086 0
-168 -1093 0
-170 -1094 0
-171 -1095 0
-173 -1096 0
-174 -1098 0
-175 -1099 0
-169 -1100 0
-170 -1102 0
-173 -1103 0
-174 -1105 0
-175 -1106 0
-168 -1107 0
-170 -1108 0
-171 -1109 0
-172 -1110 0
-173 -1112 0
-174 -1114 0
-175 -1115 0
-169 -1122 0
-170 -1123 0
-172 -1124 0
-173 -1126 0
-174 -1127 0
-175 -1128 0
-168 -1135 0
-172 -1136 0
-173 -1138 0
-174 -1139 0
-175 -1140 0
-169 -1147 0
-172 -1149 0
-173 -1150 0
-174 -1151 0
-175 -1152 0
-169 -1160 0
-170 -1161 0
-171 -1162 0
-172 -1163 0
-173 -1165 0
-174 -1167 0
-175 -1168 0
-169 -1169 0
-171 -1170 0
-173 -1171 0
-174 -1173 0
-175 -1174 0
-170 -1176 0
-171 -1177 0
-173 -1179 0
-174 -1180 0
-175 -1181 0
-170 -1190 0
-173 -1192 0
-174 -1193 0
-175 -1194 0
-170 -1209 0
-171 -1210 0
-172 -1211 0
-173 -1212 0
-174 -1214 0
-175 -1215 0
-171 -1232 0
-172 -1233 0
-173 -1235 0
-174 -1237 0
-175 -1238 0
-170 -1248 0
-172 -1249 0
-173 -1251 0
-174 -1252 0
-175 -1253 0
-170 -1254 0
-172 -1256 0
-173 -1257 0
-174 -1259 0
-175 -1260 0
-170 -1267 0
-171 -1269 0
-172 -1270 0
-173 -1272 0
-174 -1273 0
-175 -1274 0
-170 -1275 0
-171 -1277 0
-173 -1278 0
-174 -1280 0
-175 -1281 0
-168 -1297 0
-172 -1299 0
-174 -1302 0
-175 -1303 0
-168 -1304 0
-172 -1306 0
-174 -1309 0
-175 -1310 0
-168 -1317 0
-170 -1318 0
-171 -1320 0
-172 -1321 0
-174 -1323 0
-175 -1324 0
-169 -1325 0
-172 -1328 0
-174 -1330 0
-175 -1331 0
-168 -1332 0
-171 -1334 0
-172 -1335 0
-174 -1337 0
-175 -1338 0
-169 -1346 0
-171 -1348 0
-172 -1349 0
-174 -1351 0
-175 -1352 0
-169 -1362 0
-170 -1363 0
-172 -1365 0
-174 -1368 0
-175 -1369 0
-169 -1385 0
-171 -1387 0
-174 -1390 0
-175 -1391 0
-171 -1394 0
-172 -1395 0
-174 -1398 0
-175 -1399 0
-170 -1408 0
-172 -1410 0
-174 -1412 0
-175 -1413 0
-170 -1430 0
-171 -1432 0
-172 -1433 0
-174 -1434 0
-175 -1435 0
-174 -1478 0
-175 -1479 0
-170 -1488 0
-171 -1490 0
-174 -1493 0
-175 -1494 0
-171 -1496 0
-172 -1497 0
-174 -1499 0
-175 -1500 0
-174 -1517 0
-175 -1518 0
-170 -1530 0
-171 -1531 0
-174 -1533 0
-175 -1534 0
-171 -1536 0
-172 -1537 0
-174 -1539 0
-175 -1540 0
-170 -1541 0
-172 -1543 0
-174 -1545 0
-175 -1546 0
-171 -1560 0
-172 -1561 0
-174 -1563 0
-175 -1564 0
-168 -1565 0
-169 -1566 0
-173 -1568 0
-174 -1570 0
-175 -1571 0
-168 -1572 0
-171 -1574 0
-173 -1575 0
-174 -1576 0
-175 -1577 0
-168 -1624 0
-172 -1625 0
-173 -1627 0
-174 -1628 0
-175 -1629 0
-169 -1630 0
-172 -1632 0
-173 -1633 0
-174 -1634 0
-175 -1635 0
-169 -1642 0
-171 -1643 0
-173 -1644 0
-174 -1646 0
-175 -1647 0
-168 -1648 0
-172 -1649 0
-173 -1651 0
-174 -1652 0
-175 -1653 0
-170 -1668 0
-172 -1669 0
-173 -1671 0
-174 -1672 0
-175 -1673 0
-172 -1688 0
-173 -1690 0
-174 -1692 0
-175 -1693 0
-170 -1695 0
-171 -1696 0
-172 -1697 0
-173 -1698 0
-174 -1699 0
-175 -1700 0
-171 -1701 0
-172 -1702 0
-173 -1704 0
-174 -1706 0
-175 -1707 0
-168 -1708 0
-171 -1709 0
-174 -1712 0
-175 -1713 0
-169 -1714 0
-172 -1715 0
-174 -1718 0
-175 -1719 0
-174 -1724 0
-175 -1725 0
-171 -1733 0
-172 -1734 0
-174 -1736 0
-175 -1737 0
-171 -1758 0
-172 -1759 0
-174 -1761 0
-175 -1762 0
-169 -1778 0
-171 -1779 0
-173 -1780 0
-174 -1782 0
-175 -1783 0
-171 -1785 0
-173 -1787 0
-174 -1789 0
-175 -1790 0
-170 -1797 0
-171 -1799 0
-173 -1800 0
-174 -1802 0
-175 -1803 0
-170 -1812 0
-171 -1813 0
-172 -1814 0
-173 -1815 0
-174 -1816 0
-175 -1817 0
-171 -1824 0
-172 -1825 0
-173 -1827 0
-174 -1829 0
-175 -1830 0
-171 -1831 0
-172 -1832 0
-173 -1834 0
-174 -1836 0
-175 -1837 0
-176 -287 0
-179 -290 0
-180 -292 0
-181 -293 0
-176 -301 0
-177 -302 0
-180 -306 0
-181 -307 0
-176 -324 0
-177 -325 0
-179 -330 0
-180 -332 0
-181 -333 0
-176 -334 0
-177 -335 0
-180 -338 0
-181 -339 0
-177 -340 0
-179 -344 0
-180 -345 0
-181 -346 0
-177 -347 0
-180 -351 0
-181 -352 0
-176 -353 0
-180 -358 0
-181 -359 0
-176 -429 0
-179 -433 0
-180 -435 0
-181 -436 0
-176 -437 0
-180 -442 0
-181 -443 0
-177 -444 0
-179 -448 0
-180 -450 0
-181 -451 0
-177 -460 0
-180 -465 0
-181 -466 0
-177 -485 0
-180 -490 0
-181 -491 0
-176 -690 0
-180 -695 0
-181 -696 0
-176 -697 0
-179 -702 0
-180 -704 0
-181 -705 0
-177 -706 0
-180 -711 0
-181 -712 0
-177 -713 0
-179 -716 0
-180 -717 0
-181 -718 0
-179 -724 0
-180 -725 0
-181 -726 0
-179 -745 0
-180 -747 0
-181 -748 0
-180 -770 0
-181 -771 0
-179 -776 0
-180 -777 0
-181 -778 0
-176 -779 0
-179 -783 0
-180 -784 0
-181 -785 0
-176 -786 0
-180 -790 0
-181 -791 0
-176 -800 0
-177 -801 0
-179 -806 0
-180 -808 0
-181 -809 0
-176 -810 0
-177 -811 0
-180 -815 0
-181 -816 0
-176 -833 0
-177 -834 0
-180 -837 0
-181 -838 0
-176 -854 0
-177 -855 0
-179 -859 0
-180 -860 0
-181 -861 0
-176 -862 0
-177 -863 0
-179 -865 0
-180 -867 0
-181 -868 0
-177 -869 0
-179 -872 0
-180 -874 0
-181 -875 0
-177 -876 0
-179 -880 0
-180 -881 0
-181 -882 0
-176 -883 0
-180 -888 0
-181 -889 0
-176 -992 0
-179 -996 0
-180 -998 0
-181 -999 0
-176 -1000 0
-180 -1005 0
-181 -1006 0
-177 -1014 0
-179 -1019 0
-180 -1020 0
-181 -1021 0
-177 -1022 0
-180 -1027 0
-181 -1028 0
-177 -1044 0
-180 -1049 0
-181 -1050 0
-176 -1073 0
-178 -1075 0
-179 -1077 0
-180 -1078 0
-181 -1079 0
-176 -1080 0
-178 -1081 0
-179 -1084 0
-180 -1085 0
-181 -1086 0
-176 -1087 0
-178 -1088 0
-180 -1091 0
-181 -1092 0
-177 -1100 0
-178 -1102 0
-179 -1103 0
-180 -1105 0
-181 -1106 0
-176 -1107 0
-178 -1108 0
-179 -1112 0
-180 -1114 0
-181 -1115 0
-177 -1116 0
-178 -1117 0
-180 -1120 0
-181 -1121 0
-177 -1153 0
-178 -1154 0
-179 -1157 0
-180 -1158 0
-181 -1159 0
-177 -1160 0
-178 -1161 0
-179 -1165 0
-180 -1167 0
-181 -1168 0
-178 -1176 0
-179 -1179 0
-180 -1180 0
-181 -1181 0
-178 -1183 0
-180 -1187 0
-181 -1188 0
-178 -1203 0
-180 -1206 0
-181 -1207 0
-178 -1240 0
-179 -1243 0
-180 -1245 0
-181 -1246 0
-178 -1248 0
-179 -1251 0
-180 -1252 0
-181 -1253 0
-178 -1254 0
-179 -1257 0
-180 -1259 0
-181 -1260 0
-178 -1261 0
-180 -1265 0
-181 -1266 0
-178 -1275 0
-179 -1278 0
-180 -1280 0
-181 -1281 0
-178 -1282 0
-180 -1287 0
-181 -1288 0
-176 -1289 0
-179 -1293 0
-180 -1295 0
-181 -1296 0
-176 -1297 0
-180 -1302 0
-181 -1303 0
-176 -1304 0
-180 -1309 0
-181 -1310 0
-176 -1311 0
-179 -1313 0
-180 -1315 0
-181 -1316 0
-177 -1325 0
-180 -1330 0
-181 -1331 0
-176 -1332 0
-180 -1337 0
-181 -1338 0
-176 -1339 0
-179 -1342 0
-180 -1344 0
-181 -1345 0
-177 -1346 0
-180 -1351 0
-181 -1352 0
-177 -1353 0
-179 -1358 0
-180 -1360 0
-181 -1361 0
-177 -1377 0
-179 -1381 0
-180 -1383 0
-181 -1384 0
-177 -1385 0
-180 -1390 0
-181 -1391 0
-180 -1398 0
-181 -1399 0
-179 -1403 0
-180 -1405 0
-181 -1406 0
-179 -1426 0
-180 -1427 0
-181 -1428 0
-179 -1471 0
-180 -1472 0
-181 -1473 0
-180 -1478 0
-181 -1479 0
-179 -1484 0
-180 -1486 0
-181 -1487 0
-180 -1499 0
-181 -1500 0
-179 -1504 0
-180 -1505 0
-181 -1506 0
-178 -1520 0
-179 -1525 0
-180 -1527 0
-181 -1528 0
-178 -1530 0
-180 -1533 0
-181 -1534 0
-178 -1541 0
-180 -1545 0
-181 -1546 0
-178 -1547 0
-179 -1549 0
-180 -1551 0
-181 -1552 0
-176 -1648 0
-179 -1651 0
-180 -1652 0
-181 -1653 0
-177 -1654 0
-179 -1658 0
-180 -1659 0
-181 -1660 0
-180 -1665 0
-181 -1666 0
-179 -1683 0
-180 -1685 0
-181 -1686 0
-179 -1690 0
-180 -1692 0
-181 -1693 0
-179 -1704 0
-180 -1706 0
-181 -1707 0
-179 -1766 0
-180 -1768 0
-181 -1769 0
-176 -1771 0
-179 -1774 0
-180 -1776 0
-181 -1777 0
-177 -1778 0
-179 -1780 0
-180 -1782 0
-181 -1783 0
-179 -1787 0
-180 -1789 0
-181 -1790 0
-180 -1795 0
-181 -1796 0
-179 -1821 0
-180 -1822 0
-181 -1823 0
-179 -1827 0
-180 -1829 0
-181 -1830 0
-178 -1838 0
-179 -1840 0
-180 -1842 0
-181 -1843 0
-179 -1848 0
-180 -1850 0
-181 -1851 0
-179 -1856 0
-180 -1858 0
-181 -1859 0
-187 -194 0
-188 -195 0
-183 -288 0
-186 -290 0
-187 -292 0
-188 -293 0
-184 -295 0
-185 -296 0
-187 -299 0
-188 -300 0
-182 -325 0
-185 -327 0
-186 -330 0
-187 -332 0
-188 -333 0
-182 -335 0
-185 -336 0
-187 -338 0
-188 -339 0
-183 -430 0
-186 -433 0
-187 -435 0
-188 -436 0
-183 -438 0
-187 -442 0
-188 -443 0
-184 -453 0
-185 -455 0
-187 -458 0
-188 -459 0
-185 -509 0
-186 -511 0
-187 -513 0
-188 -514 0
-185 -656 0
-186 -658 0
-187 -659 0
-188 -660 0
-183 -691 0
-185 -693 0
-187 -695 0
-188 -696 0
-183 -698 0
-185 -699 0
-186 -702 0
-187 -704 0
-188 -705 0
-183 -764 0
-185 -766 0
-187 -770 0
-188 -771 0
-183 -772 0
-185 -774 0
-186 -776 0
-187 -777 0
-188 -778 0
-185 -781 0
-186 -783 0
-187 -784 0
-188 -785 0
-185 -787 0
-187 -790 0
-188 -791 0
-184 -793 0
-186 -796 0
-187 -798 0
-188 -799 0
-182 -855 0
-186 -859 0
-187 -860 0
-188 -861 0
-182 -863 0
-186 -865 0
-187 -867 0
-188 -868 0
-185 -994 0
-186 -996 0
-187 -998 0
-188 -999 0
-185 -1002 0
-187 -1005 0
-188 -1006 0
-184 -1008 0
-186 -1011 0
-187 -1012 0
-188 -1013 0
-183 -1068 0
-185 -1069 0
-186 -1070 0
-187 -1071 0
-188 -1072 0
-183 -1074 0
-184 -1075 0
-186 -1077 0
-187 -1078 0
-188 -1079 0
-184 -1081 0
-186 -1084 0
-187 -1085 0
-188 -1086 0
-184 -1088 0
-187 -1091 0
-188 -1092 0
-184 -1094 0
-185 -1095 0
-186 -1096 0
-187 -1098 0
-188 -1099 0
-184 -1108 0
-185 -1109 0
-186 -1112 0
-187 -1114 0
-188 -1115 0
-182 -1141 0
-183 -1142 0
-186 -1144 0
-187 -1145 0
-188 -1146 0
-182 -1147 0
-186 -1150 0
-187 -1151 0
-188 -1152 0
-182 -1153 0
-184 -1154 0
-185 -1156 0
-186 -1157 0
-187 -1158 0
-188 -1159 0
-182 -1160 0
-184 -1161 0
-185 -1162 0
-186 -1165 0
-187 -1167 0
-188 -1168 0
-182 -1169 0
-185 -1170 0
-186 -1171 0
-187 -1173 0
-188 -1174 0
-183 -1230 0
-185 -1232 0
-186 -1235 0
-187 -1237 0
-188 -1238 0
-183 -1239 0
-184 -1240 0
-186 -1243 0
-187 -1245 0
-188 -1246 0
-183 -1247 0
-184 -1248 0
-186 -1251 0
-187 -1252 0
-188 -1253 0
-184 -1254 0
-186 -1257 0
-187 -1259 0
-188 -1260 0
-184 -1261 0
-187 -1265 0
-188 -1266 0
-184 -1267 0
-185 -1269 0
-186 -1272 0
-187 -1273 0
-188 -1274 0
-184 -1275 0
-185 -1277 0
-186 -1278 0
-187 -1280 0
-188 -1281 0
-184 -1282 0
-185 -1283 0
-187 -1287 0
-188 -1288 0
-183 -1290 0
-186 -1293 0
-187 -1295 0
-188 -1296 0
-183 -1298 0
-187 -1302 0
-188 -1303 0
-187 -1309 0
-188 -1310 0
-186 -1313 0
-187 -1315 0
-188 -1316 0
-184 -1318 0
-185 -1320 0
-187 -1323 0
-188 -1324 0
-185 -1334 0
-187 -1337 0
-188 -1338 0
-185 -1340 0
-186 -1342 0
-187 -1344 0
-188 -1345 0
-182 -1377 0
-185 -1379 0
-186 -1381 0
-187 -1383 0
-188 -1384 0
-182 -1385 0
-185 -1387 0
-187 -1390 0
-188 -1391 0
-183 -1467 0
-186 -1471 0
-187 -1472 0
-188 -1473 0
-183 -1474 0
-187 -1478 0
-188 -1479 0
-186 -1484 0
-187 -1486 0
-188 -1487 0
-184 -1488 0
-185 -1490 0
-187 -1493 0
-188 -1494 0
-185 -1496 0
-187 -1499 0
-188 -1500 0
-185 -1502 0
-186 -1504 0
-187 -1505 0
-188 -1506 0
-183 -1507 0
-186 -1509 0
-187 -1511 0
-188 -1512 0
-183 -1513 0
-187 -1517 0
-188 -1518 0
-183 -1519 0
-184 -1520 0
-185 -1522 0
-186 -1525 0
-187 -1527 0
-188 -1528 0
-183 -1529 0
-184 -1530 0
-185 -1531 0
-187 -1533 0
-188 -1534 0
-183 -1535 0
-185 -1536 0
-187 -1539 0
-188 -1540 0
-184 -1541 0
-187 -1545 0
-188 -1546 0
-184 -1547 0
-186 -1549 0
-187 -1551 0
-188 -1552 0
-186 -1627 0
-187 -1628 0
-188 -1629 0
-186 -1651 0
-187 -1652 0
-188 -1653 0
-182 -1654 0
-185 -1655 0
-186 -1658 0
-187 -1659 0
-188 -1660 0
-183 -1681 0
-186 -1683 0
-187 -1685 0
-188 -1686 0
-186 -1690 0
-187 -1692 0
-188 -1693 0
-184 -1695 0
-185 -1696 0
-186 -1698 0
-187 -1699 0
-188 -1700 0
-185 -1701 0
-186 -1704 0
-187 -1706 0
-188 -1707 0
-185 -1709 0
-187 -1712 0
-188 -1713 0
-185 -1758 0
-187 -1761 0
-188 -1762 0
-183 -1763 0
-185 -1764 0
-186 -1766 0
-187 -1768 0
-188 -1769 0
-185 -1772 0
-186 -1774 0
-187 -1776 0
-188 -1777 0
-185 -1819 0
-186 -1821 0
-187 -1822 0
-188 -1823 0
-185 -1824 0
-186 -1827 0
-187 -1829 0
-188 -1830 0
-185 -1831 0
-186 -1834 0
-187 -1836 0
-188 -1837 0
-184 -1838 0
-186 -1840 0
-187 -1842 0
-188 -1843 0
-186 -1848 0
-187 -1850 0
-188 -1851 0
-185 -1853 0
-186 -1856 0
-187 -1858 0
-188 -1859 0
-189 -301 0
-191 -304 0
-192 -305 0
-194 -306 0
-195 -307 0
-189 -308 0
-192 -313 0
-194 -315 0
-195 -316 0
-189 -317 0
-192 -320 0
-193 -321 0
-194 -322 0
-195 -323 0
-191 -343 0
-194 -345 0
-195 -346 0
-191 -348 0
-192 -349 0
-193 -350 0
-194 -351 0
-195 -352 0
-191 -393 0
-194 -394 0
-195 -395 0
-191 -416 0
-192 -417 0
-193 -419 0
-194 -420 0
-195 -421 0
-192 -425 0
-193 -426 0
-194 -427 0
-195 -428 0
-189 -515 0
-190 -518 0
-191 -520 0
-192 -521 0
-193 -522 0
-194 -523 0
-195 -524 0
-189 -525 0
-193 -530 0
-194 -531 0
-195 -532 0
-189 -533 0
-190 -535 0
-191 -536 0
-192 -537 0
-194 -539 0
-195 -540 0
-189 -541 0
-192 -543 0
-193 -545 0
-194 -546 0
-195 -547 0
-190 -595 0
-193 -597 0
-194 -598 0
-195 -599 0
-191 -619 0
-194 -621 0
-195 -622 0
-190 -632 0
-192 -634 0
-194 -636 0
-195 -637 0
-190 -641 0
-191 -642 0
-192 -643 0
-194 -645 0
-195 -646 0
-193 -651 0
-194 -652 0
-195 -653 0
-189 -690 0
-190 -692 0
-192 -694 0
-194 -695 0
-195 -696 0
-189 -697 0
-191 -700 0
-192 -701 0
-193 -703 0
-194 -704 0
-195 -705 0
-190 -721 0
-191 -722 0
-192 -723 0
-194 -725 0
-195 -726 0
-190 -729 0
-192 -731 0
-194 -732 0
-195 -733 0
-191 -737 0
-193 -739 0
-194 -740 0
-195 -741 0
-192 -744 0
-193 -746 0
-194 -747 0
-195 -748 0
-190 -751 0
-192 -752 0
-193 -754 0
-194 -755 0
-195 -756 0
-191 -759 0
-192 -760 0
-194 -762 0
-195 -763 0
-189 -800 0
-191 -804 0
-192 -805 0
-193 -807 0
-194 -808 0
-195 -809 0
-189 -810 0
-190 -812 0
-193 -814 0
-194 -815 0
-195 -816 0
-189 -817 0
-190 -820 0
-191 -821 0
-193 -823 0
-194 -824 0
-195 -825 0
-189 -826 0
-192 -829 0
-193 -830 0
-194 -831 0
-195 -832 0
-189 -833 0
-191 -836 0
-194 -837 0
-195 -838 0
-189 -839 0
-191 -843 0
-194 -845 0
-195 -846 0
-190 -870 0
-192 -871 0
-193 -873 0
-194 -874 0
-195 -875 0
-191 -878 0
-192 -879 0
-194 -881 0
-195 -882 0
-190 -934 0
-192 -936 0
-193 -937 0
-194 -938 0
-195 -939 0
-191 -966 0
-192 -967 0
-194 -968 0
-195 -969 0
-190 -972 0
-194 -975 0
-195 -976 0
-190 -979 0
-191 -981 0
-194 -982 0
-195 -983 0
-192 -987 0
-193 -989 0
-194 -990 0
-195 -991 0
-189 -1067 0
-194 -1071 0
-195 -1072 0
-189 -1073 0
-191 -1076 0
-194 -1078 0
-195 -1079 0
-189 -1080 0
-190 -1082 0
-192 -1083 0
-194 -1085 0
-195 -1086 0
-189 -1087 0
-191 -1089 0
-193 -1090 0
-194 -1091 0
-195 -1092 0
-189 -1093 0
-193 -1097 0
-194 -1098 0
-195 -1099 0
-189 -1107 0
-191 -1110 0
-192 -1111 0
-193 -1113 0
-194 -1114 0
-195 -1115 0
-192 -1143 0
-194 -1145 0
-195 -1146 0
-190 -1148 0
-191 -1149 0
-194 -1151 0
-195 -1152 0
-190 -1155 0
-194 -1158 0
-195 -1159 0
-191 -1163 0
-192 -1164 0
-193 -1166 0
-194 -1167 0
-195 -1168 0
-193 -1172 0
-194 -1173 0
-195 -1174 0
-192 -1178 0
-194 -1180 0
-195 -1181 0
-190 -1184 0
-191 -1186 0
-194 -1187 0
-195 -1188 0
-190 -1191 0
-194 -1193 0
-195 -1194 0
-191 -1197 0
-192 -1198 0
-193 -1199 0
-194 -1200 0
-195 -1201 0
-193 -1205 0
-194 -1206 0
-195 -1207 0
-191 -1211 0
-193 -1213 0
-194 -1214 0
-195 -1215 0
-190 -1217 0
-192 -1219 0
-193 -1220 0
-194 -1221 0
-195 -1222 0
-191 -1225 0
-194 -1227 0
-195 -1228 0
-189 -1289 0
-190 -1291 0
-191 -1292 0
-193 -1294 0
-194 -1295 0
-195 -1296 0
-189 -1297 0
-191 -1299 0
-192 -1300 0
-193 -1301 0
-194 -1302 0
-195 -1303 0
-189 -1304 0
-190 -1305 0
-191 -1306 0
-192 -1307 0
-193 -1308 0
-194 -1309 0
-195 -1310 0
-189 -1311 0
-190 -1312 0
-193 -1314 0
-194 -1315 0
-195 -1316 0
-189 -1317 0
-190 -1319 0
-191 -1321 0
-193 -1322 0
-194 -1323 0
-195 -1324 0
-189 -1332 0
-190 -1333 0
-191 -1335 0
-192 -1336 0
-194 -1337 0
-195 -1338 0
-189 -1339 0
-191 -1341 0
-193 -1343 0
-194 -1344 0
-195 -1345 0
-190 -1378 0
-191 -1380 0
-193 -1382 0
-194 -1383 0
-195 -1384 0
-190 -1386 0
-192 -1388 0
-193 -1389 0
-194 -1390 0
-195 -1391 0
-190 -1393 0
-191 -1395 0
-192 -1396 0
-193 -1397 0
-194 -1398 0
-195 -1399 0
-190 -1401 0
-193 -1404 0
-194 -1405 0
-195 -1406 0
-190 -1409 0
-191 -1410 0
-193 -1411 0
-194 -1412 0
-195 -1413 0
-190 -1416 0
-192 -1417 0
-193 -1419 0
-194 -1420 0
-195 -1421 0
-190 -1423 0
-191 -1425 0
-194 -1427 0
-195 -1428 0
-190 -1431 0
-191 -1433 0
-194 -1434 0
-195 -1435 0
-191 -1439 0
-192 -1440 0
-193 -1442 0
-194 -1443 0
-195 -1444 0
-190 -1446 0
-191 -1448 0
-192 -1449 0
-194 -1451 0
-195 -1452 0
-190 -1454 0
-193 -1457 0
-194 -1458 0
-195 -1459 0
-190 -1461 0
-191 -1462 0
-193 -1464 0
-194 -1465 0
-195 -1466 0
-190 -1553 0
-192 -1555 0
-194 -1557 0
-195 -1558 0
-190 -1559 0
-191 -1561 0
-193 -1562 0
-194 -1563 0
-195 -1564 0
-189 -1565 0
-192 -1567 0
-193 -1569 0
-194 -1570 0
-195 -1571 0
-191 -1601 0
-193 -1602 0
-194 -1603 0
-195 -1604 0
-191 -1613 0
-192 -1614 0
-194 -1616 0
-195 -1617 0
-192 -1621 0
-194 -1622 0
-195 -1623 0
-189 -1648 0
-191 -1649 0
-192 -1650 0
-194 -1652 0
-195 -1653 0
-191 -1656 0
-192 -1657 0
-194 -1659 0
-195 -1660 0
-191 -1663 0
-192 -1664 0
-194 -1665 0
-195 -1666 0
-191 -1669 0
-192 -1670 0
-194 -1672 0
-195 -1673 0
-191 -1676 0
-192 -1677 0
-193 -1678 0
-194 -1679 0
-195 -1680 0
-189 -1708 0
-192 -1710 0
-193 -1711 0
-194 -1712 0
-195 -1713 0
-190 -1721 0
-192 -1722 0
-193 -1723 0
-194 -1724 0
-195 -1725 0
-191 -1727 0
-193 -1729 0
-194 -1730 0
-195 -1731 0
-191 -1734 0
-192 -1735 0
-194 -1736 0
-195 -1737 0
-190 -1738 0
-192 -1740 0
-194 -1742 0
-195 -1743 0
-191 -1745 0
-192 -1746 0
-193 -1748 0
-194 -1749 0
-195 -1750 0
-192 -1752 0
-193 -1754 0
-194 -1755 0
-195 -1756 0
-189 -1771 0
-191 -1773 0
-193 -1775 0
-194 -1776 0
-195 -1777 0
-192 -1786 0
-193 -1788 0
-194 -1789 0
-195 -1790 0
-190 -1791 0
-191 -1793 0
-193 -1794 0
-194 -1795 0
-195 -1796 0
-190 -1798 0
-193 -1801 0
-194 -1802 0
-195 -1803 0
-191 -1806 0
-192 -1807 0
-193 -1808 0
-194 -1809 0
-195 -1810 0
-191 -1814 0
-194 -1816 0
-195 -1817 0
-196 -294 0
-200 -298 0
-203 -299 0
-204 -300 0
-196 -301 0
-197 -302 0
-198 -303 0
-200 -305 0
-203 -306 0
-204 -307 0
-196 -317 0
-197 -318 0
-200 -320 0
-202 -321 0
-203 -322 0
-204 -323 0
-196 -334 0
-197 -335 0
-203 -338 0
-204 -339 0
-197 -347 0
-200 -349 0
-202 -350 0
-203 -351 0
-204 -352 0
-196 -376 0
-198 -377 0
-201 -380 0
-203 -381 0
-204 -382 0
-196 -404 0
-200 -407 0
-201 -408 0
-202 -409 0
-203 -410 0
-204 -411 0
-197 -412 0
-198 -413 0
-200 -417 0
-201 -418 0
-202 -419 0
-203 -420 0
-204 -421 0
-197 -500 0
-201 -503 0
-202 -504 0
-203 -505 0
-204 -506 0
-196 -507 0
-199 -508 0
-200 -510 0
-201 -511 0
-202 -512 0
-203 -513 0
-204 -514 0
-196 -525 0
-197 -526 0
-198 -527 0
-201 -529 0
-202 -530 0
-203 -531 0
-204 -532 0
-196 -533 0
-197 -534 0
-199 -535 0
-200 -537 0
-201 -538 0
-203 -539 0
-204 -540 0
-197 -548 0
-198 -549 0
-200 -551 0
-201 -552 0
-202 -553 0
-203 -554 0
-204 -555 0
-196 -576 0
-198 -577 0
-199 -578 0
-201 -580 0
-202 -581 0
-203 -582 0
-204 -583 0
-196 -610 0
-198 -611 0
-201 -613 0
-203 -614 0
-204 -615 0
-196 -623 0
-199 -625 0
-200 -626 0
-201 -627 0
-203 -628 0
-204 -629 0
-197 -630 0
-198 -631 0
-199 -632 0
-200 -634 0
-201 -635 0
-203 -636 0
-204 -637 0
-197 -647 0
-198 -648 0
-201 -650 0
-202 -651 0
-203 -652 0
-204 -653 0
-197 -684 0
-199 -685 0
-201 -687 0
-203 -688 0
-204 -689 0
-196 -690 0
-198 -691 0
-199 -692 0
-200 -694 0
-203 -695 0
-204 -696 0
-197 -706 0
-198 -707 0
-200 -709 0
-202 -710 0
-203 -711 0
-204 -712 0
-198 -720 0
-199 -721 0
-200 -723 0
-201 -724 0
-203 -725 0
-204 -726 0
-198 -734 0
-201 -738 0
-202 -739 0
-203 -740 0
-204 -741 0
-198 -742 0
-200 -744 0
-201 -745 0
-202 -746 0
-203 -747 0
-204 -748 0
-198 -749 0
-199 -751 0
-200 -752 0
-201 -753 0
-202 -754 0
-203 -755 0
-204 -756 0
-198 -772 0
-199 -773 0
-201 -776 0
-203 -777 0
-204 -778 0
-196 -786 0
-200 -788 0
-202 -789 0
-203 -790 0
-204 -791 0
-196 -810 0
-197 -811 0
-199 -812 0
-202 -814 0
-203 -815 0
-204 -816 0
-196 -826 0
-197 -827 0
-200 -829 0
-202 -830 0
-203 -831 0
-204 -832 0
-196 -833 0
-197 -834 0
-203 -837 0
-204 -838 0
-197 -847 0
-202 -851 0
-203 -852 0
-204 -853 0
-196 -914 0
-199 -916 0
-200 -919 0
-201 -920 0
-202 -921 0
-203 -922 0
-204 -923 0
-196 -948 0
-200 -951 0
-201 -952 0
-203 -953 0
-204 -954 0
-197 -970 0
-199 -972 0
-201 -974 0
-203 -975 0
-204 -976 0
-197 -984 0
-200 -987 0
-201 -988 0
-202 -989 0
-203 -990 0
-204 -991 0
-196 -1067 0
-198 -1068 0
-201 -1070 0
-203 -1071 0
-204 -1072 0
-196 -1080 0
-199 -1082 0
-200 -1083 0
-201 -1084 0
-203 -1085 0
-204 -1086 0
-196 -1093 0
-201 -1096 0
-202 -1097 0
-203 -1098 0
-204 -1099 0
-197 -1100 0
-198 -1101 0
-201 -1103 0
-202 -1104 0
-203 -1105 0
-204 -1106 0
-196 -1107 0
-200 -1111 0
-201 -1112 0
-202 -1113 0
-203 -1114 0
-204 -1115 0
-197 -1122 0
-200 -1125 0
-201 -1126 0
-203 -1127 0
-204 -1128 0
-196 -1135 0
-200 -1137 0
-201 -1138 0
-203 -1139 0
-204 -1140 0
-197 -1147 0
-199 -1148 0
-201 -1150 0
-203 -1151 0
-204 -1152 0
-197 -1160 0
-200 -1164 0
-201 -1165 0
-202 -1166 0
-203 -1167 0
-204 -1168 0
-197 -1169 0
-201 -1171 0
-202 -1172 0
-203 -1173 0
-204 -1174 0
-198 -1182 0
-199 -1184 0
-203 -1187 0
-204 -1188 0
-198 -1195 0
-200 -1198 0
-202 -1199 0
-203 -1200 0
-204 -1201 0
-198 -1202 0
-202 -1205 0
-203 -1206 0
-204 -1207 0
-199 -1217 0
-200 -1219 0
-202 -1220 0
-203 -1221 0
-204 -1222 0
-199 -1262 0
-200 -1264 0
-203 -1265 0
-204 -1266 0
-200 -1285 0
-202 -1286 0
-203 -1287 0
-204 -1288 0
-196 -1297 0
-198 -1298 0
-200 -1300 0
-202 -1301 0
-203 -1302 0
-204 -1303 0
-196 -1304 0
-199 -1305 0
-200 -1307 0
-202 -1308 0
-203 -1309 0
-204 -1310 0
-196 -1317 0
-199 -1319 0
-202 -1322 0
-203 -1323 0
-204 -1324 0
-197 -1325 0
-198 -1326 0
-199 -1327 0
-202 -1329 0
-203 -1330 0
-204 -1331 0
-196 -1332 0
-199 -1333 0
-200 -1336 0
-203 -1337 0
-204 -1338 0
-197 -1346 0
-198 -1347 0
-202 -1350 0
-203 -1351 0
-204 -1352 0
-197 -1362 0
-199 -1364 0
-200 -1366 0
-202 -1367 0
-203 -1368 0
-204 -1369 0
-197 -1385 0
-199 -1386 0
-200 -1388 0
-202 -1389 0
-203 -1390 0
-204 -1391 0
-198 -1400 0
-199 -1401 0
-201 -1403 0
-202 -1404 0
-203 -1405 0
-204 -1406 0
-198 -1414 0
-199 -1416 0
-200 -1417 0
-201 -1418 0
-202 -1419 0
-203 -1420 0
-204 -1421 0
-198 -1422 0
-199 -1423 0
-201 -1426 0
-203 -1427 0
-204 -1428 0
-198 -1436 0
-200 -1440 0
-201 -1441 0
-202 -1442 0
-203 -1443 0
-204 -1444 0
-199 -1446 0
-200 -1449 0
-201 -1450 0
-203 -1451 0
-204 -1452 0
-199 -1461 0
-201 -1463 0
-202 -1464 0
-203 -1465 0
-204 -1466 0
-199 -1481 0
-200 -1483 0
-201 -1484 0
-202 -1485 0
-203 -1486 0
-204 -1487 0
-199 -1501 0
-200 -1503 0
-201 -1504 0
-203 -1505 0
-204 -1506 0
-198 -1507 0
-201 -1509 0
-202 -1510 0
-203 -1511 0
-204 -1512 0
-198 -1519 0
-199 -1521 0
-200 -1524 0
-201 -1525 0
-202 -1526 0
-203 -1527 0
-204 -1528 0
-199 -1553 0
-200 -1555 0
-201 -1556 0
-203 -1557 0
-204 -1558 0
-196 -1585 0
-201 -1588 0
-202 -1589 0
-203 -1590 0
-204 -1591 0
-197 -1611 0
-200 -1614 0
-201 -1615 0
-203 -1616 0
-204 -1617 0
-196 -1648 0
-200 -1650 0
-201 -1651 0
-203 -1652 0
-204 -1653 0
-198 -1661 0
-200 -1664 0
-203 -1665 0
-204 -1666 0
-200 -1677 0
-202 -1678 0
-203 -1679 0
-204 -1680 0
-196 -1708 0
-200 -1710 0
-202 -1711 0
-203 -1712 0
-204 -1713 0
-197 -1714 0
-200 -1716 0
-202 -1717 0
-203 -1718 0
-204 -1719 0
-198 -1726 0
-201 -1728 0
-202 -1729 0
-203 -1730 0
-204 -1731 0
-199 -1738 0
-200 -1740 0
-201 -1741 0
-203 -1742 0
-204 -1743 0
-200 -1752 0
-201 -1753 0
-202 -1754 0
-203 -1755 0
-204 -1756 0
-198 -1763 0
-200 -1765 0
-201 -1766 0
-202 -1767 0
-203 -1768 0
-204 -1769 0
-197 -1778 0
-201 -1780 0
-202 -1781 0
-203 -1782 0
-204 -1783 0
-199 -1791 0
-202 -1794 0
-203 -1795 0
-204 -1796 0
-200 -1807 0
-202 -1808 0
-203 -1809 0
-204 -1810 0
-200 -1839 0
-201 -1840 0
-202 -1841 0
-203 -1842 0
-204 -1843 0
-199 -1845 0
-200 -1847 0
-201 -1848 0
-202 -1849 0
-203 -1850 0
-204 -1851 0
-200 -1855 0
-201 -1856 0
-202 -1857 0
-203 -1858 0
-204 -1859 0
-205 -287 0
-207 -288 0
-209 -289 0
-210 -292 0
-211 -293 0
-205 -294 0
-208 -297 0
-209 -298 0
-210 -299 0
-211 -300 0
-205 -301 0
-206 -302 0
-207 -303 0
-208 -304 0
-209 -305 0
-210 -306 0
-211 -307 0
-205 -308 0
-206 -309 0
-207 -310 0
-209 -313 0
-210 -315 0
-211 -316 0
-205 -324 0
-206 -325 0
-208 -328 0
-209 -329 0
-210 -332 0
-211 -333 0
-206 -347 0
-208 -348 0
-209 -349 0
-210 -351 0
-211 -352 0
-205 -367 0
-207 -368 0
-208 -371 0
-209 -372 0
-210 -374 0
-211 -375 0
-205 -396 0
-207 -397 0
-209 -400 0
-210 -402 0
-211 -403 0
-205 -404 0
-208 -406 0
-209 -407 0
-210 -410 0
-211 -411 0
-206 -412 0
-207 -413 0
-208 -416 0
-209 -417 0
-210 -420 0
-211 -421 0
-206 -422 0
-207 -423 0
-209 -425 0
-210 -427 0
-211 -428 0
-206 -492 0
-208 -495 0
-209 -496 0
-210 -498 0
-211 -499 0
-205 -507 0
-209 -510 0
-210 -513 0
-211 -514 0
-205 -515 0
-206 -516 0
-207 -517 0
-208 -520 0
-209 -521 0
-210 -523 0
-211 -524 0
-205 -541 0
-206 -542 0
-209 -543 0
-210 -546 0
-211 -547 0
-206 -548 0
-207 -549 0
-208 -550 0
-209 -551 0
-210 -554 0
-211 -555 0
-205 -569 0
-207 -570 0
-209 -572 0
-210 -574 0
-211 -575 0
-205 -600 0
-207 -601 0
-208 -604 0
-209 -605 0
-210 -608 0
-211 -609 0
-205 -623 0
-209 -626 0
-210 -628 0
-211 -629 0
-206 -630 0
-207 -631 0
-209 -634 0
-210 -636 0
-211 -637 0
-206 -638 0
-207 -639 0
-208 -642 0
-209 -643 0
-210 -645 0
-211 -646 0
-206 -677 0
-209 -679 0
-210 -682 0
-211 -683 0
-205 -697 0
-207 -698 0
-208 -700 0
-209 -701 0
-210 -704 0
-211 -705 0
-206 -706 0
-207 -707 0
-209 -709 0
-210 -711 0
-211 -712 0
-207 -720 0
-208 -722 0
-209 -723 0
-210 -725 0
-211 -726 0
-207 -727 0
-209 -731 0
-210 -732 0
-211 -733 0
-207 -742 0
-209 -744 0
-210 -747 0
-211 -748 0
-207 -757 0
-208 -759 0
-209 -760 0
-210 -762 0
-211 -763 0
-207 -764 0
-208 -767 0
-209 -768 0
-210 -770 0
-211 -771 0
-205 -779 0
-208 -782 0
-210 -784 0
-211 -785 0
-205 -810 0
-206 -811 0
-210 -815 0
-211 -816 0
-205 -817 0
-206 -818 0
-208 -821 0
-210 -824 0
-211 -825 0
-205 -833 0
-206 -834 0
-208 -836 0
-210 -837 0
-211 -838 0
-205 -839 0
-206 -840 0
-208 -843 0
-210 -845 0
-211 -846 0
-206 -847 0
-208 -850 0
-210 -852 0
-211 -853 0
-205 -908 0
-210 -912 0
-211 -913 0
-205 -940 0
-208 -944 0
-210 -946 0
-211 -947 0
-206 -970 0
-210 -975 0
-211 -976 0
-206 -977 0
-208 -981 0
-210 -982 0
-211 -983 0
-205 -1067 0
-207 -1068 0
-210 -1071 0
-211 -1072 0
-205 -1073 0
-207 -1074 0
-208 -1076 0
-210 -1078 0
-211 -1079 0
-205 -1087 0
-208 -1089 0
-210 -1091 0
-211 -1092 0
-205 -1093 0
-210 -1098 0
-211 -1099 0
-206 -1100 0
-207 -1101 0
-210 -1105 0
-211 -1106 0
-205 -1129 0
-210 -1133 0
-211 -1134 0
-206 -1147 0
-208 -1149 0
-210 -1151 0
-211 -1152 0
-206 -1153 0
-210 -1158 0
-211 -1159 0
-206 -1169 0
-210 -1173 0
-211 -1174 0
-207 -1182 0
-208 -1186 0
-210 -1187 0
-211 -1188 0
-207 -1189 0
-210 -1193 0
-211 -1194 0
-207 -1202 0
-210 -1206 0
-211 -1207 0
-207 -1208 0
-208 -1211 0
-210 -1214 0
-211 -1215 0
-208 -1225 0
-210 -1227 0
-211 -1228 0
-208 -1256 0
-210 -1259 0
-211 -1260 0
-210 -1280 0
-211 -1281 0
-205 -1289 0
-207 -1290 0
-208 -1292 0
-210 -1295 0
-211 -1296 0
-205 -1311 0
-210 -1315 0
-211 -1316 0
-205 -1317 0
-208 -1321 0
-210 -1323 0
-211 -1324 0
-206 -1325 0
-207 -1326 0
-208 -1328 0
-210 -1330 0
-211 -1331 0
-205 -1339 0
-208 -1341 0
-210 -1344 0
-211 -1345 0
-206 -1346 0
-207 -1347 0
-208 -1349 0
-210 -1351 0
-211 -1352 0
-206 -1370 0
-208 -1372 0
-210 -1375 0
-211 -1376 0
-206 -1377 0
-208 -1380 0
-210 -1383 0
-211 -1384 0
-207 -1400 0
-210 -1405 0
-211 -1406 0
-207 -1407 0
-208 -1410 0
-210 -1412 0
-211 -1413 0
-207 -1422 0
-208 -1425 0
-210 -1427 0
-211 -1428 0
-207 -1429 0
-208 -1433 0
-210 -1434 0
-211 -1435 0
-210 -1458 0
-211 -1459 0
-208 -1462 0
-210 -1465 0
-211 -1466 0
-208 -1497 0
-210 -1499 0
-211 -1500 0
-207 -1507 0
-208 -1508 0
-210 -1511 0
-211 -1512 0
-207 -1529 0
-210 -1533 0
-211 -1534 0
-208 -1561 0
-210 -1563 0
-211 -1564 0
-205 -1565 0
-206 -1566 0
-209 -1567 0
-210 -1570 0
-211 -1571 0
-205 -1578 0
-208 -1581 0
-209 -1582 0
-210 -1583 0
-211 -1584 0
-205 -1605 0
-209 -1607 0
-210 -1609 0
-211 -1610 0
-206 -1611 0
-208 -1613 0
-209 -1614 0
-210 -1616 0
-211 -1617 0
-206 -1618 0
-209 -1621 0
-210 -1622 0
-211 -1623 0
-206 -1654 0
-208 -1656 0
-209 -1657 0
-210 -1659 0
-211 -1660 0
-207 -1661 0
-208 -1663 0
-209 -1664 0
-210 -1665 0
-211 -1666 0
-207 -1667 0
-208 -1669 0
-209 -1670 0
-210 -1672 0
-211 -1673 0
-208 -1688 0
-209 -1689 0
-210 -1692 0
-211 -1693 0
-208 -1702 0
-209 -1703 0
-210 -1706 0
-211 -1707 0
-205 -1708 0
-209 -1710 0
-210 -1712 0
-211 -1713 0
-207 -1720 0
-209 -1722 0
-210 -1724 0
-211 -1725 0
-207 -1732 0
-208 -1734 0
-209 -1735 0
-210 -1736 0
-211 -1737 0
-208 -1745 0
-209 -1746 0
-210 -1749 0
-211 -1750 0
-209 -1752 0
-210 -1755 0
-211 -1756 0
-205 -1771 0
-208 -1773 0
-210 -1776 0
-211 -1777 0
-206 -1778 0
-210 -1782 0
-211 -1783 0
-208 -1793 0
-210 -1795 0
-211 -1796 0
-210 -1802 0
-211 -1803 0
-208 -1814 0
-210 -1816 0
-211 -1817 0
-212 -525 0
-213 -526 0
-216 -530 0
-217 -531 0
-218 -532 0
-212 -541 0
-213 -542 0
-216 -545 0
-217 -546 0
-218 -547 0
-213 -548 0
-215 -550 0
-216 -553 0
-217 -554 0
-218 -555 0
-212 -562 0
-216 -566 0
-217 -567 0
-218 -568 0
-212 -610 0
-217 -614 0
-218 -615 0
-213 -616 0
-215 -619 0
-217 -621 0
-218 -622 0
-213 -647 0
-216 -651 0
-217 -652 0
-218 -653 0
-212 -697 0
-215 -700 0
-216 -703 0
-217 -704 0
-218 -705 0
-213 -706 0
-216 -710 0
-217 -711 0
-218 -712 0
-213 -713 0
-217 -717 0
-218 -718 0
-215 -737 0
-216 -739 0
-217 -740 0
-218 -741 0
-216 -746 0
-217 -747 0
-218 -748 0
-215 -759 0
-217 -762 0
-218 -763 0
-212 -786 0
-216 -789 0
-217 -790 0
-218 -791 0
-212 -792 0
-215 -794 0
-216 -797 0
-217 -798 0
-218 -799 0
-212 -800 0
-213 -801 0
-215 -804 0
-216 -807 0
-217 -808 0
-218 -809 0
-212 -826 0
-213 -827 0
-216 -830 0
-217 -831 0
-218 -832 0
-212 -833 0
-213 -834 0
-215 -836 0
-217 -837 0
-218 -838 0
-212 -839 0
-213 -840 0
-215 -843 0
-217 -845 0
-218 -846 0
-213 -847 0
-215 -850 0
-216 -851 0
-217 -852 0
-218 -853 0
-212 -862 0
-213 -863 0
-216 -866 0
-217 -867 0
-218 -868 0
-213 -876 0
-215 -878 0
-217 -881 0
-218 -882 0
-212 -900 0
-216 -905 0
-217 -906 0
-218 -907 0
-212 -948 0
-217 -953 0
-218 -954 0
-212 -955 0
-215 -958 0
-217 -960 0
-218 -961 0
-213 -962 0
-215 -966 0
-217 -968 0
-218 -969 0
-213 -984 0
-216 -989 0
-217 -990 0
-218 -991 0
-213 -1061 0
-217 -1065 0
-218 -1066 0
-212 -1067 0
-217 -1071 0
-218 -1072 0
-212 -1073 0
-215 -1076 0
-217 -1078 0
-218 -1079 0
-212 -1087 0
-215 -1089 0
-216 -1090 0
-217 -1091 0
-218 -1092 0
-212 -1093 0
-216 -1097 0
-217 -1098 0
-218 -1099 0
-213 -1100 0
-216 -1104 0
-217 -1105 0
-218 -1106 0
-212 -1107 0
-215 -1110 0
-216 -1113 0
-217 -1114 0
-218 -1115 0
-213 -1116 0
-217 -1120 0
-218 -1121 0
-213 -1122 0
-215 -1124 0
-217 -1127 0
-218 -1128 0
-212 -1135 0
-215 -1136 0
-217 -1139 0
-218 -1140 0
-213 -1141 0
-217 -1145 0
-218 -1146 0
-213 -1160 0
-215 -1163 0
-216 -1166 0
-217 -1167 0
-218 -1168 0
-213 -1169 0
-216 -1172 0
-217 -1173 0
-218 -1174 0
-217 -1180 0
-218 -1181 0
-215 -1197 0
-216 -1199 0
-217 -1200 0
-218 -1201 0
-216 -1205 0
-217 -1206 0
-218 -1207 0
-215 -1211 0
-216 -1213 0
-217 -1214 0
-218 -1215 0
-215 -1225 0
-217 -1227 0
-218 -1228 0
-215 -1249 0
-217 -1252 0
-218 -1253 0
-215 -1284 0
-216 -1286 0
-217 -1287 0
-218 -1288 0
-212 -1289 0
-214 -1291 0
-215 -1292 0
-216 -1294 0
-217 -1295 0
-218 -1296 0
-212 -1311 0
-214 -1312 0
-216 -1314 0
-217 -1315 0
-218 -1316 0
-212 -1317 0
-214 -1319 0
-215 -1321 0
-216 -1322 0
-217 -1323 0
-218 -1324 0
-213 -1325 0
-214 -1327 0
-215 -1328 0
-216 -1329 0
-217 -1330 0
-218 -1331 0
-212 -1332 0
-214 -1333 0
-215 -1335 0
-217 -1337 0
-218 -1338 0
-213 -1353 0
-214 -1354 0
-215 -1356 0
-216 -1359 0
-217 -1360 0
-218 -1361 0
-213 -1362 0
-214 -1364 0
-215 -1365 0
-216 -1367 0
-217 -1368 0
-218 -1369 0
-213 -1385 0
-214 -1386 0
-216 -1389 0
-217 -1390 0
-218 -1391 0
-214 -1393 0
-215 -1395 0
-216 -1397 0
-217 -1398 0
-218 -1399 0
-214 -1416 0
-216 -1419 0
-217 -1420 0
-218 -1421 0
-214 -1423 0
-215 -1425 0
-217 -1427 0
-218 -1428 0
-214 -1431 0
-215 -1433 0
-217 -1434 0
-218 -1435 0
-214 -1454 0
-216 -1457 0
-217 -1458 0
-218 -1459 0
-214 -1461 0
-215 -1462 0
-216 -1464 0
-217 -1465 0
-218 -1466 0
-214 -1475 0
-216 -1477 0
-217 -1478 0
-218 -1479 0
-214 -1501 0
-217 -1505 0
-218 -1506 0
-214 -1514 0
-216 -1516 0
-217 -1517 0
-218 -1518 0
-214 -1521 0
-215 -1523 0
-216 -1526 0
-217 -1527 0
-218 -1528 0
-214 -1542 0
-215 -1543 0
-217 -1545 0
-218 -1546 0
-214 -1559 0
-215 -1561 0
-216 -1562 0
-217 -1563 0
-218 -1564 0
-212 -1708 0
-216 -1711 0
-217 -1712 0
-218 -1713 0
-213 -1714 0
-215 -1715 0
-216 -1717 0
-217 -1718 0
-218 -1719 0
-215 -1727 0
-216 -1729 0
-217 -1730 0
-218 -1731 0
-215 -1734 0
-217 -1736 0
-218 -1737 0
-215 -1745 0
-216 -1748 0
-217 -1749 0
-218 -1750 0
-216 -1754 0
-217 -1755 0
-218 -1756 0
-216 -1767 0
-217 -1768 0
-218 -1769 0
-212 -1771 0
-215 -1773 0
-216 -1775 0
-217 -1776 0
-218 -1777 0
-213 -1778 0
-216 -1781 0
-217 -1782 0
-218 -1783 0
-216 -1788 0
-217 -1789 0
-218 -1790 0
-215 -1806 0
-216 -1808 0
-217 -1809 0
-218 -1810 0
-215 -1814 0
-217 -1816 0
-218 -1817 0
-215 -1825 0
-216 -1828 0
-217 -1829 0
-218 -1830 0
-215 -1832 0
-216 -1835 0
-217 -1836 0
-218 -1837 0
-216 -1841 0
-217 -1842 0
-218 -1843 0
-214 -1845 0
-215 -1846 0
-216 -1849 0
-217 -1850 0
-218 -1851 0
-219 -287 0
-223 -289 0
-224 -290 0
-225 -292 0
-226 -293 0
-219 -308 0
-220 -309 0
-223 -313 0
-224 -314 0
-225 -315 0
-226 -316 0
-219 -317 0
-220 -318 0
-223 -320 0
-225 -322 0
-226 -323 0
-219 -360 0
-224 -363 0
-225 -365 0
-226 -366 0
-219 -396 0
-223 -400 0
-225 -402 0
-226 -403 0
-220 -422 0
-223 -425 0
-225 -427 0
-226 -428 0
-219 -515 0
-220 -516 0
-221 -518 0
-222 -520 0
-223 -521 0
-225 -523 0
-226 -524 0
-219 -533 0
-220 -534 0
-221 -535 0
-222 -536 0
-223 -537 0
-224 -538 0
-225 -539 0
-226 -540 0
-220 -548 0
-222 -550 0
-223 -551 0
-224 -552 0
-225 -554 0
-226 -555 0
-219 -556 0
-221 -558 0
-222 -559 0
-225 -560 0
-226 -561 0
-219 -600 0
-221 -602 0
-222 -604 0
-223 -605 0
-224 -606 0
-225 -608 0
-226 -609 0
-220 -616 0
-222 -619 0
-224 -620 0
-225 -621 0
-226 -622 0
-220 -638 0
-221 -641 0
-222 -642 0
-223 -643 0
-224 -644 0
-225 -645 0
-226 -646 0
-219 -690 0
-221 -692 0
-223 -694 0
-225 -695 0
-226 -696 0
-220 -706 0
-223 -709 0
-225 -711 0
-226 -712 0
-220 -713 0
-223 -715 0
-224 -716 0
-225 -717 0
-226 -718 0
-221 -729 0
-223 -731 0
-225 -732 0
-226 -733 0
-223 -744 0
-224 -745 0
-225 -747 0
-226 -748 0
-221 -751 0
-223 -752 0
-224 -753 0
-225 -755 0
-226 -756 0
-219 -779 0
-221 -780 0
-222 -782 0
-224 -783 0
-225 -784 0
-226 -785 0
-219 -792 0
-222 -794 0
-223 -795 0
-224 -796 0
-225 -798 0
-226 -799 0
-219 -800 0
-220 -801 0
-222 -804 0
-223 -805 0
-224 -806 0
-225 -808 0
-226 -809 0
-219 -817 0
-220 -818 0
-221 -820 0
-222 -821 0
-224 -822 0
-225 -824 0
-226 -825 0
-219 -833 0
-220 -834 0
-222 -836 0
-225 -837 0
-226 -838 0
-220 -847 0
-222 -850 0
-225 -852 0
-226 -853 0
-219 -854 0
-220 -855 0
-221 -856 0
-222 -857 0
-223 -858 0
-224 -859 0
-225 -860 0
-226 -861 0
-220 -876 0
-222 -878 0
-223 -879 0
-224 -880 0
-225 -881 0
-226 -882 0
-219 -890 0
-221 -893 0
-222 -895 0
-223 -896 0
-224 -897 0
-225 -898 0
-226 -899 0
-219 -940 0
-221 -942 0
-222 -944 0
-225 -946 0
-226 -947 0
-219 -955 0
-222 -958 0
-223 -959 0
-225 -960 0
-226 -961 0
-220 -962 0
-222 -966 0
-223 -967 0
-225 -968 0
-226 -969 0
-220 -977 0
-221 -979 0
-222 -981 0
-225 -982 0
-226 -983 0
-220 -1051 0
-221 -1053 0
-222 -1055 0
-223 -1056 0
-224 -1057 0
-225 -1059 0
-226 -1060 0
-219 -1067 0
-224 -1070 0
-225 -1071 0
-226 -1072 0
-219 -1080 0
-221 -1082 0
-223 -1083 0
-224 -1084 0
-225 -1085 0
-226 -1086 0
-219 -1093 0
-224 -1096 0
-225 -1098 0
-226 -1099 0
-220 -1100 0
-224 -1103 0
-225 -1105 0
-226 -1106 0
-220 -1116 0
-223 -1119 0
-225 -1120 0
-226 -1121 0
-219 -1129 0
-221 -1130 0
-224 -1131 0
-225 -1133 0
-226 -1134 0
-220 -1141 0
-223 -1143 0
-224 -1144 0
-225 -1145 0
-226 -1146 0
-220 -1153 0
-221 -1155 0
-224 -1157 0
-225 -1158 0
-226 -1159 0
-220 -1169 0
-224 -1171 0
-225 -1173 0
-226 -1174 0
-223 -1178 0
-224 -1179 0
-225 -1180 0
-226 -1181 0
-221 -1191 0
-224 -1192 0
-225 -1193 0
-226 -1194 0
-225 -1206 0
-226 -1207 0
-221 -1217 0
-223 -1219 0
-225 -1221 0
-226 -1222 0
-221 -1241 0
-223 -1242 0
-224 -1243 0
-225 -1245 0
-226 -1246 0
-221 -1276 0
-224 -1278 0
-225 -1280 0
-226 -1281 0
-219 -1297 0
-222 -1299 0
-223 -1300 0
-225 -1302 0
-226 -1303 0
-219 -1304 0
-221 -1305 0
-222 -1306 0
-223 -1307 0
-225 -1309 0
-226 -1310 0
-219 -1317 0
-221 -1319 0
-222 -1321 0
-225 -1323 0
-226 -1324 0
-220 -1325 0
-221 -1327 0
-222 -1328 0
-225 -1330 0
-226 -1331 0
-219 -1339 0
-222 -1341 0
-224 -1342 0
-225 -1344 0
-226 -1345 0
-220 -1353 0
-221 -1354 0
-222 -1356 0
-223 -1357 0
-224 -1358 0
-225 -1360 0
-226 -1361 0
-220 -1370 0
-222 -1372 0
-224 -1373 0
-225 -1375 0
-226 -1376 0
-220 -1377 0
-221 -1378 0
-222 -1380 0
-224 -1381 0
-225 -1383 0
-226 -1384 0
-221 -1393 0
-222 -1395 0
-223 -1396 0
-225 -1398 0
-226 -1399 0
-221 -1409 0
-222 -1410 0
-225 -1412 0
-226 -1413 0
-221 -1423 0
-222 -1425 0
-224 -1426 0
-225 -1427 0
-226 -1428 0
-222 -1439 0
-223 -1440 0
-224 -1441 0
-225 -1443 0
-226 -1444 0
-221 -1446 0
-222 -1448 0
-223 -1449 0
-224 -1450 0
-225 -1451 0
-226 -1452 0
-221 -1461 0
-222 -1462 0
-224 -1463 0
-225 -1465 0
-226 -1466 0
-221 -1468 0
-222 -1469 0
-223 -1470 0
-224 -1471 0
-225 -1472 0
-226 -1473 0
-221 -1495 0
-222 -1497 0
-225 -1499 0
-226 -1500 0
-221 -1514 0
-223 -1515 0
-225 -1517 0
-226 -1518 0
-225 -1533 0
-226 -1534 0
-223 -1548 0
-224 -1549 0
-225 -1551 0
-226 -1552 0
-221 -1553 0
-223 -1555 0
-224 -1556 0
-225 -1557 0
-226 -1558 0
-219 -1565 0
-220 -1566 0
-223 -1567 0
-224 -1568 0
-225 -1570 0
-226 -1571 0
-219 -1572 0
-224 -1575 0
-225 -1576 0
-226 -1577 0
-219 -1605 0
-223 -1607 0
-225 -1609 0
-226 -1610 0
-220 -1618 0
-223 -1621 0
-225 -1622 0
-226 -1623 0
-220 -1642 0
-224 -1644 0
-225 -1646 0
-226 -1647 0
-219 -1648 0
-222 -1649 0
-223 -1650 0
-224 -1651 0
-225 -1652 0
-226 -1653 0
-220 -1654 0
-222 -1656 0
-223 -1657 0
-224 -1658 0
-225 -1659 0
-226 -1660 0
-222 -1669 0
-223 -1670 0
-224 -1671 0
-225 -1672 0
-226 -1673 0
-222 -1676 0
-223 -1677 0
-225 -1679 0
-226 -1680 0
-222 -1682 0
-224 -1683 0
-225 -1685 0
-226 -1686 0
-222 -1702 0
-223 -1703 0
-224 -1704 0
-225 -1706 0
-226 -1707 0
-219 -1708 0
-223 -1710 0
-225 -1712 0
-226 -1713 0
-221 -1721 0
-223 -1722 0
-225 -1724 0
-226 -1725 0
-221 -1738 0
-223 -1740 0
-224 -1741 0
-225 -1742 0
-226 -1743 0
-223 -1752 0
-224 -1753 0
-225 -1755 0
-226 -1756 0
-220 -1778 0
-224 -1780 0
-225 -1782 0
-226 -1783 0
-223 -1786 0
-224 -1787 0
-225 -1789 0
-226 -1790 0
-221 -1798 0
-224 -1800 0
-225 -1802 0
-226 -1803 0
-221 -1818 0
-223 -1820 0
-224 -1821 0
-225 -1822 0
-226 -1823 0
-222 -1832 0
-223 -1833 0
-224 -1834 0
-225 -1836 0
-226 -1837 0
-227 -287 0
-233 -289 0
-234 -292 0
-235 -293 0
-227 -301 0
-228 -302 0
-232 -304 0
-233 -305 0
-234 -306 0
-235 -307 0
-227 -317 0
-228 -318 0
-229 -319 0
-233 -320 0
-234 -322 0
-235 -323 0
-228 -347 0
-232 -348 0
-233 -349 0
-234 -351 0
-235 -352 0
-227 -353 0
-231 -355 0
-232 -356 0
-234 -358 0
-235 -359 0
-227 -396 0
-229 -398 0
-231 -399 0
-233 -400 0
-234 -402 0
-235 -403 0
-228 -412 0
-229 -414 0
-231 -415 0
-232 -416 0
-233 -417 0
-234 -420 0
-235 -421 0
-228 -485 0
-231 -487 0
-232 -488 0
-234 -490 0
-235 -491 0
-227 -533 0
-228 -534 0
-230 -535 0
-232 -536 0
-233 -537 0
-234 -539 0
-235 -540 0
-227 -541 0
-228 -542 0
-233 -543 0
-234 -546 0
-235 -547 0
-228 -548 0
-232 -550 0
-233 -551 0
-234 -554 0
-235 -555 0
-227 -600 0
-230 -602 0
-231 -603 0
-232 -604 0
-233 -605 0
-234 -608 0
-235 -609 0
-227 -610 0
-231 -612 0
-234 -614 0
-235 -615 0
-228 -616 0
-231 -618 0
-232 -619 0
-234 -621 0
-235 -622 0
-228 -630 0
-230 -632 0
-231 -633 0
-233 -634 0
-234 -636 0
-235 -637 0
-227 -690 0
-230 -692 0
-231 -693 0
-233 -694 0
-234 -695 0
-235 -696 0
-227 -697 0
-231 -699 0
-232 -700 0
-233 -701 0
-234 -704 0
-235 -705 0
-228 -706 0
-231 -708 0
-233 -709 0
-234 -711 0
-235 -712 0
-230 -721 0
-232 -722 0
-233 -723 0
-234 -725 0
-235 -726 0
-229 -750 0
-230 -751 0
-233 -752 0
-234 -755 0
-235 -756 0
-229 -758 0
-232 -759 0
-233 -760 0
-234 -762 0
-235 -763 0
-227 -779 0
-230 -780 0
-231 -781 0
-232 -782 0
-234 -784 0
-235 -785 0
-227 -786 0
-231 -787 0
-233 -788 0
-234 -790 0
-235 -791 0
-227 -800 0
-228 -801 0
-231 -803 0
-232 -804 0
-233 -805 0
-234 -808 0
-235 -809 0
-227 -810 0
-228 -811 0
-230 -812 0
-231 -813 0
-234 -815 0
-235 -816 0
-227 -839 0
-228 -840 0
-229 -841 0
-231 -842 0
-232 -843 0
-234 -845 0
-235 -846 0
-228 -847 0
-229 -848 0
-231 -849 0
-232 -850 0
-234 -852 0
-235 -853 0
-228 -876 0
-231 -877 0
-232 -878 0
-233 -879 0
-234 -881 0
-235 -882 0
-227 -883 0
-230 -885 0
-231 -886 0
-233 -887 0
-234 -888 0
-235 -889 0
-227 -940 0
-229 -941 0
-230 -942 0
-231 -943 0
-232 -944 0
-234 -946 0
-235 -947 0
-227 -948 0
-229 -949 0
-231 -950 0
-233 -951 0
-234 -953 0
-235 -954 0
-228 -962 0
-229 -964 0
-231 -965 0
-232 -966 0
-233 -967 0
-234 -968 0
-235 -969 0
-228 -970 0
-229 -971 0
-230 -972 0
-231 -973 0
-234 -975 0
-235 -976 0
-228 -1044 0
-230 -1045 0
-231 -1046 0
-233 -1047 0
-234 -1049 0
-235 -1050 0
-227 -1073 0
-229 -1075 0
-232 -1076 0
-234 -1078 0
-235 -1079 0
-227 -1080 0
-229 -1081 0
-230 -1082 0
-233 -1083 0
-234 -1085 0
-235 -1086 0
-227 -1087 0
-229 -1088 0
-232 -1089 0
-234 -1091 0
-235 -1092 0
-228 -1100 0
-229 -1102 0
-234 -1105 0
-235 -1106 0
-228 -1122 0
-229 -1123 0
-232 -1124 0
-233 -1125 0
-234 -1127 0
-235 -1128 0
-227 -1129 0
-230 -1130 0
-234 -1133 0
-235 -1134 0
-227 -1135 0
-232 -1136 0
-233 -1137 0
-234 -1139 0
-235 -1140 0
-228 -1141 0
-233 -1143 0
-234 -1145 0
-235 -1146 0
-228 -1147 0
-230 -1148 0
-232 -1149 0
-234 -1151 0
-235 -1152 0
-229 -1176 0
-231 -1177 0
-233 -1178 0
-234 -1180 0
-235 -1181 0
-229 -1183 0
-230 -1184 0
-231 -1185 0
-232 -1186 0
-234 -1187 0
-235 -1188 0
-229 -1209 0
-231 -1210 0
-232 -1211 0
-234 -1214 0
-235 -1215 0
-229 -1216 0
-230 -1217 0
-231 -1218 0
-233 -1219 0
-234 -1221 0
-235 -1222 0
-229 -1223 0
-231 -1224 0
-232 -1225 0
-234 -1227 0
-235 -1228 0
-230 -1231 0
-231 -1232 0
-232 -1233 0
-233 -1234 0
-234 -1237 0
-235 -1238 0
-229 -1275 0
-230 -1276 0
-231 -1277 0
-234 -1280 0
-235 -1281 0
-229 -1282 0
-231 -1283 0
-232 -1284 0
-233 -1285 0
-234 -1287 0
-235 -1288 0
-227 -1289 0
-230 -1291 0
-232 -1292 0
-234 -1295 0
-235 -1296 0
-227 -1297 0
-232 -1299 0
-233 -1300 0
-234 -1302 0
-235 -1303 0
-227 -1304 0
-230 -1305 0
-232 -1306 0
-233 -1307 0
-234 -1309 0
-235 -1310 0
-227 -1311 0
-230 -1312 0
-234 -1315 0
-235 -1316 0
-228 -1325 0
-230 -1327 0
-232 -1328 0
-234 -1330 0
-235 -1331 0
-228 -1362 0
-229 -1363 0
-230 -1364 0
-232 -1365 0
-233 -1366 0
-234 -1368 0
-235 -1369 0
-228 -1370 0
-229 -1371 0
-232 -1372 0
-234 -1375 0
-235 -1376 0
-230 -1393 0
-231 -1394 0
-232 -1395 0
-233 -1396 0
-234 -1398 0
-235 -1399 0
-230 -1401 0
-231 -1402 0
-234 -1405 0
-235 -1406 0
-229 -1430 0
-230 -1431 0
-231 -1432 0
-232 -1433 0
-234 -1434 0
-235 -1435 0
-229 -1437 0
-231 -1438 0
-232 -1439 0
-233 -1440 0
-234 -1443 0
-235 -1444 0
-229 -1445 0
-230 -1446 0
-231 -1447 0
-232 -1448 0
-233 -1449 0
-234 -1451 0
-235 -1452 0
-229 -1453 0
-230 -1454 0
-231 -1455 0
-234 -1458 0
-235 -1459 0
-230 -1495 0
-231 -1496 0
-232 -1497 0
-234 -1499 0
-235 -1500 0
-230 -1501 0
-231 -1502 0
-233 -1503 0
-234 -1505 0
-235 -1506 0
-229 -1520 0
-230 -1521 0
-231 -1522 0
-232 -1523 0
-233 -1524 0
-234 -1527 0
-235 -1528 0
-229 -1530 0
-231 -1531 0
-234 -1533 0
-235 -1534 0
-230 -1553 0
-231 -1554 0
-233 -1555 0
-234 -1557 0
-235 -1558 0
-230 -1559 0
-231 -1560 0
-232 -1561 0
-234 -1563 0
-235 -1564 0
-227 -1605 0
-231 -1606 0
-233 -1607 0
-234 -1609 0
-235 -1610 0
-228 -1611 0
-231 -1612 0
-232 -1613 0
-233 -1614 0
-234 -1616 0
-235 -1617 0
-227 -1648 0
-232 -1649 0
-233 -1650 0
-234 -1652 0
-235 -1653 0
-231 -1662 0
-232 -1663 0
-233 -1664 0
-234 -1665 0
-235 -1666 0
-229 -1674 0
-231 -1675 0
-232 -1676 0
-233 -1677 0
-234 -1679 0
-235 -1680 0
-231 -1701 0
-232 -1702 0
-233 -1703 0
-234 -1706 0
-235 -1707 0
-228 -1714 0
-232 -1715 0
-233 -1716 0
-234 -1718 0
-235 -1719 0
-231 -1733 0
-232 -1734 0
-233 -1735 0
-234 -1736 0
-235 -1737 0
-230 -1738 0
-231 -1739 0
-233 -1740 0
-234 -1742 0
-235 -1743 0
-231 -1744 0
-232 -1745 0
-233 -1746 0
-234 -1749 0
-235 -1750 0
-231 -1764 0
-233 -1765 0
-234 -1768 0
-235 -1769 0
-227 -1771 0
-231 -1772 0
-232 -1773 0
-234 -1776 0
-235 -1777 0
-228 -1778 0
-231 -1779 0
-234 -1782 0
-235 -1783 0
-231 -1785 0
-233 -1786 0
-234 -1789 0
-235 -1790 0
-230 -1791 0
-231 -1792 0
-232 -1793 0
-234 -1795 0
-235 -1796 0
-229 -1812 0
-231 -1813 0
-232 -1814 0
-234 -1816 0
-235 -1817 0
-229 -1838 0
-233 -1839 0
-234 -1842 0
-235 -1843 0
-230 -1845 0
-232 -1846 0
-233 -1847 0
-234 -1850 0
-235 -1851 0
-237 -288 0
-240 -289 0
-241 -292 0
-242 -293 0
-239 -297 0
-240 -298 0
-241 -299 0
-242 -300 0
-236 -318 0
-240 -320 0
-241 -322 0
-242 -323 0
-237 -397 0
-240 -400 0
-241 -402 0
-242 -403 0
-239 -406 0
-240 -407 0
-241 -410 0
-242 -411 0
-238 -508 0
-240 -510 0
-241 -513 0
-242 -514 0
-236 -534 0
-238 -535 0
-239 -536 0
-240 -537 0
-241 -539 0
-242 -540 0
-236 -542 0
-240 -543 0
-241 -546 0
-242 -547 0
-237 -601 0
-238 -602 0
-239 -604 0
-240 -605 0
-241 -608 0
-242 -609 0
-237 -611 0
-241 -614 0
-242 -615 0
-238 -625 0
-240 -626 0
-241 -628 0
-242 -629 0
-237 -691 0
-238 -692 0
-240 -694 0
-241 -695 0
-242 -696 0
-237 -698 0
-239 -700 0
-240 -701 0
-241 -704 0
-242 -705 0
-236 -713 0
-237 -714 0
-240 -715 0
-241 -717 0
-242 -718 0
-237 -742 0
-240 -744 0
-241 -747 0
-242 -748 0
-237 -749 0
-238 -751 0
-240 -752 0
-241 -755 0
-242 -756 0
-237 -757 0
-239 -759 0
-240 -760 0
-241 -762 0
-242 -763 0
-238 -780 0
-239 -782 0
-241 -784 0
-242 -785 0
-240 -788 0
-241 -790 0
-242 -791 0
-239 -794 0
-240 -795 0
-241 -798 0
-242 -799 0
-236 -834 0
-239 -836 0
-241 -837 0
-242 -838 0
-236 -840 0
-239 -843 0
-241 -845 0
-242 -846 0
-238 -942 0
-239 -944 0
-241 -946 0
-242 -947 0
-240 -951 0
-241 -953 0
-242 -954 0
-239 -958 0
-240 -959 0
-241 -960 0
-242 -961 0
-237 -1068 0
-241 -1071 0
-242 -1072 0
-237 -1074 0
-239 -1076 0
-241 -1078 0
-242 -1079 0
-238 -1082 0
-240 -1083 0
-241 -1085 0
-242 -1086 0
-239 -1089 0
-241 -1091 0
-242 -1092 0
-241 -1098 0
-242 -1099 0
-236 -1116 0
-240 -1119 0
-241 -1120 0
-242 -1121 0
-236 -1122 0
-239 -1124 0
-240 -1125 0
-241 -1127 0
-242 -1128 0
-238 -1130 0
-241 -1133 0
-242 -1134 0
-239 -1136 0
-240 -1137 0
-241 -1139 0
-242 -1140 0
-236 -1169 0
-241 -1173 0
-242 -1174 0
-237 -1202 0
-241 -1206 0
-242 -1207 0
-237 -1208 0
-239 -1211 0
-241 -1214 0
-242 -1215 0
-238 -1217 0
-240 -1219 0
-241 -1221 0
-242 -1222 0
-239 -1225 0
-241 -1227 0
-242 -1228 0
-238 -1276 0
-241 -1280 0
-242 -1281 0
-239 -1284 0
-240 -1285 0
-241 -1287 0
-242 -1288 0
-237 -1290 0
-238 -1291 0
-239 -1292 0
-241 -1295 0
-242 -1296 0
-237 -1298 0
-239 -1299 0
-240 -1300 0
-241 -1302 0
-242 -1303 0
-238 -1305 0
-239 -1306 0
-240 -1307 0
-241 -1309 0
-242 -1310 0
-238 -1312 0
-241 -1315 0
-242 -1316 0
-238 -1319 0
-239 -1321 0
-241 -1323 0
-242 -1324 0
-236 -1346 0
-237 -1347 0
-239 -1349 0
-241 -1351 0
-242 -1352 0
-236 -1353 0
-238 -1354 0
-239 -1356 0
-240 -1357 0
-241 -1360 0
-242 -1361 0
-236 -1362 0
-238 -1364 0
-239 -1365 0
-240 -1366 0
-241 -1368 0
-242 -1369 0
-236 -1370 0
-239 -1372 0
-241 -1375 0
-242 -1376 0
-237 -1422 0
-238 -1423 0
-239 -1425 0
-241 -1427 0
-242 -1428 0
-237 -1429 0
-238 -1431 0
-239 -1433 0
-241 -1434 0
-242 -1435 0
-237 -1436 0
-239 -1439 0
-240 -1440 0
-241 -1443 0
-242 -1444 0
-238 -1446 0
-239 -1448 0
-240 -1449 0
-241 -1451 0
-242 -1452 0
-238 -1454 0
-241 -1458 0
-242 -1459 0
-238 -1461 0
-239 -1462 0
-241 -1465 0
-242 -1466 0
-238 -1495 0
-239 -1497 0
-241 -1499 0
-242 -1500 0
-238 -1501 0
-240 -1503 0
-241 -1505 0
-242 -1506 0
-237 -1507 0
-239 -1508 0
-241 -1511 0
-242 -1512 0
-237 -1513 0
-238 -1514 0
-240 -1515 0
-241 -1517 0
-242 -1518 0
-237 -1519 0
-238 -1521 0
-239 -1523 0
-240 -1524 0
-241 -1527 0
-242 -1528 0
-237 -1529 0
-241 -1533 0
-242 -1534 0
-238 -1553 0
-240 -1555 0
-241 -1557 0
-242 -1558 0
-238 -1559 0
-239 -1561 0
-241 -1563 0
-242 -1564 0
-240 -1607 0
-241 -1609 0
-242 -1610 0
-239 -1649 0
-240 -1650 0
-241 -1652 0
-242 -1653 0
-239 -1676 0
-240 -1677 0
-241 -1679 0
-242 -1680 0
-239 -1702 0
-240 -1703 0
-241 -1706 0
-242 -1707 0
-240 -1710 0
-241 -1712 0
-242 -1713 0
-236 -1714 0
-239 -1715 0
-240 -1716 0
-241 -1718 0
-242 -1719 0
-237 -1732 0
-239 -1734 0
-240 -1735 0
-241 -1736 0
-242 -1737 0
-238 -1738 0
-240 -1740 0
-241 -1742 0
-242 -1743 0
-239 -1745 0
-240 -1746 0
-241 -1749 0
-242 -1750 0
-240 -1752 0
-241 -1755 0
-242 -1756 0
-237 -1763 0
-240 -1765 0
-241 -1768 0
-242 -1769 0
-239 -1773 0
-241 -1776 0
-242 -1777 0
-239 -1814 0
-241 -1816 0
-242 -1817 0
-239 -1832 0
-240 -1833 0
-241 -1836 0
-242 -1837 0
-240 -1839 0
-241 -1842 0
-242 -1843 0
-238 -1845 0
-239 -1846 0
-240 -1847 0
-241 -1850 0
-242 -1851 0
-243 -294 0
-246 -296 0
-248 -299 0
-249 -300 0
-243 -301 0
-244 -302 0
-248 -306 0
-249 -307 0
-243 -308 0
-244 -309 0
-246 -312 0
-248 -315 0
-249 -316 0
-243 -334 0
-244 -335 0
-246 -336 0
-248 -338 0
-249 -339 0
-244 -340 0
-246 -342 0
-248 -345 0
-249 -346 0
-243 -376 0
-248 -381 0
-249 -382 0
-243 -383 0
-246 -386 0
-248 -388 0
-249 -389 0
-244 -390 0
-248 -394 0
-249 -395 0
-244 -477 0
-246 -480 0
-248 -483 0
-249 -484 0
-243 -507 0
-245 -508 0
-246 -509 0
-247 -512 0
-248 -513 0
-249 -514 0
-243 -515 0
-244 -516 0
-245 -518 0
-246 -519 0
-247 -522 0
-248 -523 0
-249 -524 0
-243 -541 0
-244 -542 0
-247 -545 0
-248 -546 0
-249 -547 0
-244 -548 0
-247 -553 0
-248 -554 0
-249 -555 0
-243 -562 0
-247 -566 0
-248 -567 0
-249 -568 0
-243 -576 0
-245 -578 0
-247 -581 0
-248 -582 0
-249 -583 0
-243 -584 0
-245 -587 0
-246 -588 0
-247 -590 0
-248 -591 0
-249 -592 0
-244 -593 0
-245 -595 0
-247 -597 0
-248 -598 0
-249 -599 0
-244 -647 0
-247 -651 0
-248 -652 0
-249 -653 0
-244 -667 0
-245 -669 0
-246 -670 0
-247 -674 0
-248 -675 0
-249 -676 0
-243 -690 0
-245 -692 0
-246 -693 0
-248 -695 0
-249 -696 0
-244 -713 0
-248 -717 0
-249 -718 0
-245 -721 0
-248 -725 0
-249 -726 0
-245 -729 0
-246 -730 0
-248 -732 0
-249 -733 0
-248 -762 0
-249 -763 0
-245 -773 0
-246 -774 0
-248 -777 0
-249 -778 0
-243 -786 0
-246 -787 0
-247 -789 0
-248 -790 0
-249 -791 0
-243 -792 0
-247 -797 0
-248 -798 0
-249 -799 0
-243 -800 0
-244 -801 0
-246 -803 0
-247 -807 0
-248 -808 0
-249 -809 0
-243 -810 0
-244 -811 0
-245 -812 0
-246 -813 0
-247 -814 0
-248 -815 0
-249 -816 0
-243 -817 0
-244 -818 0
-245 -820 0
-247 -823 0
-248 -824 0
-249 -825 0
-244 -847 0
-246 -849 0
-247 -851 0
-248 -852 0
-249 -853 0
-243 -862 0
-244 -863 0
-247 -866 0
-248 -867 0
-249 -868 0
-244 -869 0
-245 -870 0
-247 -873 0
-248 -874 0
-249 -875 0
-243 -900 0
-246 -903 0
-247 -905 0
-248 -906 0
-249 -907 0
-243 -914 0
-245 -916 0
-246 -917 0
-247 -921 0
-248 -922 0
-249 -923 0
-243 -924 0
-245 -926 0
-247 -928 0
-248 -929 0
-249 -930 0
-244 -931 0
-245 -934 0
-246 -935 0
-247 -937 0
-248 -938 0
-249 -939 0
-244 -984 0
-246 -986 0
-247 -989 0
-248 -990 0
-249 -991 0
-244 -1036 0
-245 -1038 0
-247 -1041 0
-248 -1042 0
-249 -1043 0
-243 -1067 0
-246 -1069 0
-248 -1071 0
-249 -1072 0
-243 -1073 0
-248 -1078 0
-249 -1079 0
-243 -1080 0
-245 -1082 0
-248 -1085 0
-249 -1086 0
-244 -1116 0
-246 -1118 0
-248 -1120 0
-249 -1121 0
-244 -1122 0
-248 -1127 0
-249 -1128 0
-243 -1135 0
-248 -1139 0
-249 -1140 0
-244 -1141 0
-248 -1145 0
-249 -1146 0
-244 -1147 0
-245 -1148 0
-248 -1151 0
-249 -1152 0
-244 -1153 0
-245 -1155 0
-246 -1156 0
-248 -1158 0
-249 -1159 0
-246 -1177 0
-248 -1180 0
-249 -1181 0
-245 -1184 0
-246 -1185 0
-248 -1187 0
-249 -1188 0
-245 -1191 0
-248 -1193 0
-249 -1194 0
-246 -1224 0
-248 -1227 0
-249 -1228 0
-248 -1252 0
-249 -1253 0
-245 -1262 0
-248 -1265 0
-249 -1266 0
-245 -1268 0
-246 -1269 0
-248 -1273 0
-249 -1274 0
-243 -1289 0
-245 -1291 0
-247 -1294 0
-248 -1295 0
-249 -1296 0
-243 -1304 0
-245 -1305 0
-247 -1308 0
-248 -1309 0
-249 -1310 0
-243 -1339 0
-246 -1340 0
-247 -1343 0
-248 -1344 0
-249 -1345 0
-244 -1346 0
-246 -1348 0
-247 -1350 0
-248 -1351 0
-249 -1352 0
-244 -1353 0
-245 -1354 0
-246 -1355 0
-247 -1359 0
-248 -1360 0
-249 -1361 0
-244 -1362 0
-245 -1364 0
-247 -1367 0
-248 -1368 0
-249 -1369 0
-244 -1377 0
-245 -1378 0
-246 -1379 0
-247 -1382 0
-248 -1383 0
-249 -1384 0
-245 -1393 0
-246 -1394 0
-247 -1397 0
-248 -1398 0
-249 -1399 0
-245 -1401 0
-246 -1402 0
-247 -1404 0
-248 -1405 0
-249 -1406 0
-245 -1409 0
-247 -1411 0
-248 -1412 0
-249 -1413 0
-246 -1438 0
-247 -1442 0
-248 -1443 0
-249 -1444 0
-245 -1454 0
-246 -1455 0
-247 -1457 0
-248 -1458 0
-249 -1459 0
-245 -1461 0
-247 -1464 0
-248 -1465 0
-249 -1466 0
-245 -1475 0
-247 -1477 0
-248 -1478 0
-249 -1479 0
-245 -1481 0
-247 -1485 0
-248 -1486 0
-249 -1487 0
-245 -1489 0
-246 -1490 0
-247 -1492 0
-248 -1493 0
-249 -1494 0
-246 -1536 0
-248 -1539 0
-249 -1540 0
-245 -1542 0
-248 -1545 0
-249 -1546 0
-245 -1553 0
-246 -1554 0
-248 -1557 0
-249 -1558 0
-243 -1565 0
-244 -1566 0
-247 -1569 0
-248 -1570 0
-249 -1571 0
-243 -1585 0
-246 -1586 0
-247 -1589 0
-248 -1590 0
-249 -1591 0
-243 -1592 0
-247 -1595 0
-248 -1596 0
-249 -1597 0
-244 -1598 0
-246 -1600 0
-247 -1602 0
-248 -1603 0
-249 -1604 0
-244 -1636 0
-247 -1639 0
-248 -1640 0
-249 -1641 0
-243 -1648 0
-248 -1652 0
-249 -1653 0
-244 -1654 0
-246 -1655 0
-248 -1659 0
-249 -1660 0
-246 -1662 0
-248 -1665 0
-249 -1666 0
-248 -1672 0
-249 -1673 0
-246 -1696 0
-248 -1699 0
-249 -1700 0
-244 -1714 0
-247 -1717 0
-248 -1718 0
-249 -1719 0
-245 -1721 0
-247 -1723 0
-248 -1724 0
-249 -1725 0
-246 -1744 0
-247 -1748 0
-248 -1749 0
-249 -1750 0
-247 -1754 0
-248 -1755 0
-249 -1756 0
-245 -1757 0
-246 -1758 0
-247 -1760 0
-248 -1761 0
-249 -1762 0
-243 -1771 0
-246 -1772 0
-247 -1775 0
-248 -1776 0
-249 -1777 0
-246 -1785 0
-247 -1788 0
-248 -1789 0
-249 -1790 0
-245 -1791 0
-246 -1792 0
-247 -1794 0
-248 -1795 0
-249 -1796 0
-245 -1798 0
-246 -1799 0
-247 -1801 0
-248 -1802 0
-249 -1803 0
-246 -1824 0
-247 -1828 0
-248 -1829 0
-249 -1830 0
-246 -1853 0
-247 -1857 0
-248 -1858 0
-249 -1859 0
-250 -287 0
-254 -289 0
-255 -290 0
-256 -291 0
-257 -292 0
-258 -293 0
-250 -294 0
-252 -296 0
-253 -297 0
-254 -298 0
-257 -299 0
-258 -300 0
-250 -301 0
-251 -302 0
-253 -304 0
-254 -305 0
-257 -306 0
-258 -307 0
-250 -317 0
-251 -318 0
-254 -320 0
-256 -321 0
-257 -322 0
-258 -323 0
-250 -324 0
-251 -325 0
-252 -327 0
-253 -328 0
-254 -329 0
-255 -330 0
-256 -331 0
-257 -332 0
-258 -333 0
-251 -340 0
-252 -342 0
-253 -343 0
-255 -344 0
-257 -345 0
-258 -346 0
-250 -360 0
-255 -363 0
-256 -364 0
-257 -365 0
-258 -366 0
-250 -367 0
-253 -371 0
-254 -372 0
-256 -373 0
-257 -374 0
-258 -375 0
-250 -383 0
-252 -386 0
-253 -387 0
-257 -388 0
-258 -389 0
-251 -390 0
-253 -393 0
-257 -394 0
-258 -395 0
-251 -422 0
-254 -425 0
-256 -426 0
-257 -427 0
-258 -428 0
-251 -467 0
-252 -471 0
-253 -472 0
-255 -473 0
-256 -474 0
-257 -475 0
-258 -476 0
-250 -507 0
-252 -509 0
-254 -510 0
-255 -511 0
-256 -512 0
-257 -513 0
-258 -514 0
-250 -525 0
-251 -526 0
-252 -528 0
-255 -529 0
-256 -530 0
-257 -531 0
-258 -532 0
-250 -533 0
-251 -534 0
-253 -536 0
-254 -537 0
-255 -538 0
-257 -539 0
-258 -540 0
-251 -548 0
-253 -550 0
-254 -551 0
-255 -552 0
-256 -553 0
-257 -554 0
-258 -555 0
-250 -556 0
-253 -559 0
-257 -560 0
-258 -561 0
-250 -569 0
-254 -572 0
-255 -573 0
-257 -574 0
-258 -575 0
-250 -584 0
-252 -588 0
-255 -589 0
-256 -590 0
-257 -591 0
-258 -592 0
-251 -593 0
-255 -596 0
-256 -597 0
-257 -598 0
-258 -599 0
-251 -638 0
-253 -642 0
-254 -643 0
-255 -644 0
-257 -645 0
-258 -646 0
-251 -661 0
-252 -664 0
-257 -665 0
-258 -666 0
-250 -697 0
-252 -699 0
-253 -700 0
-254 -701 0
-255 -702 0
-256 -703 0
-257 -704 0
-258 -705 0
-251 -713 0
-254 -715 0
-255 -716 0
-257 -717 0
-258 -718 0
-253 -722 0
-254 -723 0
-255 -724 0
-257 -725 0
-258 -726 0
-252 -736 0
-253 -737 0
-255 -738 0
-256 -739 0
-257 -740 0
-258 -741 0
-254 -752 0
-255 -753 0
-256 -754 0
-257 -755 0
-258 -756 0
-252 -766 0
-253 -767 0
-254 -768 0
-256 -769 0
-257 -770 0
-258 -771 0
-250 -779 0
-252 -781 0
-253 -782 0
-255 -783 0
-257 -784 0
-258 -785 0
-250 -792 0
-253 -794 0
-254 -795 0
-255 -796 0
-256 -797 0
-257 -798 0
-258 -799 0
-250 -800 0
-251 -801 0
-252 -803 0
-253 -804 0
-254 -805 0
-255 -806 0
-256 -807 0
-257 -808 0
-258 -809 0
-250 -810 0
-251 -811 0
-252 -813 0
-256 -814 0
-257 -815 0
-258 -816 0
-250 -826 0
-251 -827 0
-254 -829 0
-256 -830 0
-257 -831 0
-258 -832 0
-250 -839 0
-251 -840 0
-252 -842 0
-253 -843 0
-255 -844 0
-257 -845 0
-258 -846 0
-251 -847 0
-252 -849 0
-253 -850 0
-256 -851 0
-257 -852 0
-258 -853 0
-250 -854 0
-251 -855 0
-253 -857 0
-254 -858 0
-255 -859 0
-257 -860 0
-258 -861 0
-251 -869 0
-254 -871 0
-255 -872 0
-256 -873 0
-257 -874 0
-258 -875 0
-250 -890 0
-252 -894 0
-253 -895 0
-254 -896 0
-255 -897 0
-257 -898 0
-258 -899 0
-250 -908 0
-252 -911 0
-257 -912 0
-258 -913 0
-250 -924 0
-254 -927 0
-256 -928 0
-257 -929 0
-258 -930 0
-251 -931 0
-252 -935 0
-254 -936 0
-256 -937 0
-257 -938 0
-258 -939 0
-251 -977 0
-252 -980 0
-253 -981 0
-257 -982 0
-258 -983 0
-251 -1029 0
-254 -1032 0
-255 -1033 0
-257 -1034 0
-258 -1035 0
-250 -1067 0
-252 -1069 0
-255 -1070 0
-257 -1071 0
-258 -1072 0
-250 -1087 0
-253 -1089 0
-256 -1090 0
-257 -1091 0
-258 -1092 0
-250 -1107 0
-252 -1109 0
-253 -1110 0
-254 -1111 0
-255 -1112 0
-256 -1113 0
-257 -1114 0
-258 -1115 0
-251 -1116 0
-252 -1118 0
-254 -1119 0
-257 -1120 0
-258 -1121 0
-250 -1129 0
-255 -1131 0
-256 -1132 0
-257 -1133 0
-258 -1134 0
-251 -1141 0
-254 -1143 0
-255 -1144 0
-257 -1145 0
-258 -1146 0
-251 -1147 0
-253 -1149 0
-255 -1150 0
-257 -1151 0
-258 -1152 0
-251 -1160 0
-252 -1162 0
-253 -1163 0
-254 -1164 0
-255 -1165 0
-256 -1166 0
-257 -1167 0
-258 -1168 0
-252 -1177 0
-254 -1178 0
-255 -1179 0
-257 -1180 0
-258 -1181 0
-252 -1185 0
-253 -1186 0
-257 -1187 0
-258 -1188 0
-253 -1197 0
-254 -1198 0
-256 -1199 0
-257 -1200 0
-258 -1201 0
-252 -1210 0
-253 -1211 0
-255 -1212 0
-256 -1213 0
-257 -1214 0
-258 -1215 0
-252 -1218 0
-254 -1219 0
-256 -1220 0
-257 -1221 0
-258 -1222 0
-254 -1242 0
-255 -1243 0
-256 -1244 0
-257 -1245 0
-258 -1246 0
-253 -1256 0
-255 -1257 0
-256 -1258 0
-257 -1259 0
-258 -1260 0
-252 -1269 0
-253 -1270 0
-254 -1271 0
-255 -1272 0
-257 -1273 0
-258 -1274 0
-250 -1297 0
-253 -1299 0
-254 -1300 0
-256 -1301 0
-257 -1302 0
-258 -1303 0
-250 -1311 0
-255 -1313 0
-256 -1314 0
-257 -1315 0
-258 -1316 0
-250 -1332 0
-252 -1334 0
-253 -1335 0
-254 -1336 0
-257 -1337 0
-258 -1338 0
-251 -1346 0
-252 -1348 0
-253 -1349 0
-256 -1350 0
-257 -1351 0
-258 -1352 0
-251 -1353 0
-252 -1355 0
-253 -1356 0
-254 -1357 0
-255 -1358 0
-256 -1359 0
-257 -1360 0
-258 -1361 0
-251 -1370 0
-253 -1372 0
-255 -1373 0
-256 -1374 0
-257 -1375 0
-258 -1376 0
-251 -1385 0
-252 -1387 0
-254 -1388 0
-256 -1389 0
-257 -1390 0
-258 -1391 0
-252 -1394 0
-253 -1395 0
-254 -1396 0
-256 -1397 0
-257 -1398 0
-258 -1399 0
-252 -1402 0
-255 -1403 0
-256 -1404 0
-257 -1405 0
-258 -1406 0
-254 -1417 0
-255 -1418 0
-256 -1419 0
-257 -1420 0
-258 -1421 0
-252 -1432 0
-253 -1433 0
-257 -1434 0
-258 -1435 0
-252 -1447 0
-253 -1448 0
-254 -1449 0
-255 -1450 0
-257 -1451 0
-258 -1452 0
-253 -1462 0
-255 -1463 0
-256 -1464 0
-257 -1465 0
-258 -1466 0
-253 -1469 0
-254 -1470 0
-255 -1471 0
-257 -1472 0
-258 -1473 0
-252 -1490 0
-254 -1491 0
-256 -1492 0
-257 -1493 0
-258 -1494 0
-252 -1536 0
-253 -1537 0
-254 -1538 0
-257 -1539 0
-258 -1540 0
-254 -1548 0
-255 -1549 0
-256 -1550 0
-257 -1551 0
-258 -1552 0
-252 -1560 0
-253 -1561 0
-256 -1562 0
-257 -1563 0
-258 -1564 0
-250 -1572 0
-252 -1574 0
-255 -1575 0
-257 -1576 0
-258 -1577 0
-250 -1578 0
-252 -1580 0
-253 -1581 0
-254 -1582 0
-257 -1583 0
-258 -1584 0
-250 -1592 0
-253 -1594 0
-256 -1595 0
-257 -1596 0
-258 -1597 0
-251 -1598 0
-252 -1600 0
-253 -1601 0
-256 -1602 0
-257 -1603 0
-258 -1604 0
-251 -1618 0
-252 -1620 0
-254 -1621 0
-257 -1622 0
-258 -1623 0
-251 -1630 0
-253 -1632 0
-255 -1633 0
-257 -1634 0
-258 -1635 0
-252 -1662 0
-253 -1663 0
-254 -1664 0
-257 -1665 0
-258 -1666 0
-252 -1675 0
-253 -1676 0
-254 -1677 0
-256 -1678 0
-257 -1679 0
-258 -1680 0
-253 -1682 0
-255 -1683 0
-256 -1684 0
-257 -1685 0
-258 -1686 0
-253 -1688 0
-254 -1689 0
-255 -1690 0
-256 -1691 0
-257 -1692 0
-258 -1693 0
-252 -1696 0
-253 -1697 0
-255 -1698 0
-257 -1699 0
-258 -1700 0
-253 -1727 0
-255 -1728 0
-256 -1729 0
-257 -1730 0
-258 -1731 0
-252 -1733 0
-253 -1734 0
-254 -1735 0
-257 -1736 0
-258 -1737 0
-252 -1739 0
-254 -1740 0
-255 -1741 0
-257 -1742 0
-258 -1743 0
-254 -1752 0
-255 -1753 0
-256 -1754 0
-257 -1755 0
-258 -1756 0
-252 -1758 0
-253 -1759 0
-256 -1760 0
-257 -1761 0
-258 -1762 0
-252 -1785 0
-254 -1786 0
-255 -1787 0
-256 -1788 0
-257 -1789 0
-258 -1790 0
-252 -1792 0
-253 -1793 0
-256 -1794 0
-257 -1795 0
-258 -1796 0
-252 -1805 0
-253 -1806 0
-254 -1807 0
-256 -1808 0
-257 -1809 0
-258 -1810 0
-252 -1813 0
-253 -1814 0
-255 -1815 0
-257 -1816 0
-258 -1817 0
-252 -1819 0
-254 -1820 0
-255 -1821 0
-257 -1822 0
-258 -1823 0
-260 -288 0
-262 -289 0
-263 -291 0
-264 -292 0
-265 -293 0
-259 -302 0
-260 -303 0
-262 -305 0
-264 -306 0
-265 -307 0
-259 -309 0
-260 -310 0
-261 -312 0
-262 -313 0
-264 -315 0
-265 -316 0
-259 -318 0
-262 -320 0
-263 -321 0
-264 -322 0
-265 -323 0
-259 -325 0
-261 -327 0
-262 -329 0
-263 -331 0
-264 -332 0
-265 -333 0
-259 -335 0
-261 -336 0
-264 -338 0
-265 -339 0
-260 -368 0
-262 -372 0
-263 -373 0
-264 -374 0
-265 -375 0
-260 -377 0
-264 -381 0
-265 -382 0
-260 -384 0
-261 -386 0
-264 -388 0
-265 -389 0
-262 -407 0
-263 -409 0
-264 -410 0
-265 -411 0
-261 -455 0
-263 -457 0
-264 -458 0
-265 -459 0
-259 -516 0
-260 -517 0
-261 -519 0
-262 -521 0
-263 -522 0
-264 -523 0
-265 -524 0
-259 -526 0
-260 -527 0
-261 -528 0
-263 -530 0
-264 -531 0
-265 -532 0
-259 -534 0
-262 -537 0
-264 -539 0
-265 -540 0
-259 -542 0
-262 -543 0
-263 -545 0
-264 -546 0
-265 -547 0
-260 -570 0
-262 -572 0
-264 -574 0
-265 -575 0
-260 -577 0
-263 -581 0
-264 -582 0
-265 -583 0
-260 -585 0
-261 -588 0
-263 -590 0
-264 -591 0
-265 -592 0
-262 -626 0
-264 -628 0
-265 -629 0
-261 -656 0
-264 -659 0
-265 -660 0
-259 -706 0
-260 -707 0
-261 -708 0
-262 -709 0
-263 -710 0
-264 -711 0
-265 -712 0
-259 -713 0
-260 -714 0
-262 -715 0
-264 -717 0
-265 -718 0
-260 -720 0
-262 -723 0
-264 -725 0
-265 -726 0
-260 -727 0
-261 -730 0
-262 -731 0
-264 -732 0
-265 -733 0
-260 -734 0
-261 -736 0
-263 -739 0
-264 -740 0
-265 -741 0
-260 -749 0
-262 -752 0
-263 -754 0
-264 -755 0
-265 -756 0
-260 -757 0
-262 -760 0
-264 -762 0
-265 -763 0
-260 -764 0
-261 -766 0
-262 -768 0
-263 -769 0
-264 -770 0
-265 -771 0
-260 -772 0
-261 -774 0
-264 -777 0
-265 -778 0
-261 -781 0
-264 -784 0
-265 -785 0
-261 -787 0
-262 -788 0
-263 -789 0
-264 -790 0
-265 -791 0
-262 -795 0
-263 -797 0
-264 -798 0
-265 -799 0
-259 -811 0
-261 -813 0
-263 -814 0
-264 -815 0
-265 -816 0
-259 -818 0
-263 -823 0
-264 -824 0
-265 -825 0
-259 -827 0
-262 -829 0
-263 -830 0
-264 -831 0
-265 -832 0
-261 -911 0
-264 -912 0
-265 -913 0
-261 -917 0
-262 -919 0
-263 -921 0
-264 -922 0
-265 -923 0
-262 -927 0
-263 -928 0
-264 -929 0
-265 -930 0
-260 -1068 0
-261 -1069 0
-264 -1071 0
-265 -1072 0
-260 -1074 0
-264 -1078 0
-265 -1079 0
-259 -1100 0
-260 -1101 0
-263 -1104 0
-264 -1105 0
-265 -1106 0
-261 -1109 0
-262 -1111 0
-263 -1113 0
-264 -1114 0
-265 -1115 0
-259 -1116 0
-261 -1118 0
-262 -1119 0
-264 -1120 0
-265 -1121 0
-259 -1122 0
-262 -1125 0
-264 -1127 0
-265 -1128 0
-263 -1132 0
-264 -1133 0
-265 -1134 0
-262 -1137 0
-264 -1139 0
-265 -1140 0
-259 -1147 0
-264 -1151 0
-265 -1152 0
-259 -1153 0
-261 -1156 0
-264 -1158 0
-265 -1159 0
-259 -1160 0
-261 -1162 0
-262 -1164 0
-263 -1166 0
-264 -1167 0
-265 -1168 0
-260 -1182 0
-261 -1185 0
-264 -1187 0
-265 -1188 0
-260 -1189 0
-264 -1193 0
-265 -1194 0
-260 -1195 0
-262 -1198 0
-263 -1199 0
-264 -1200 0
-265 -1201 0
-261 -1218 0
-262 -1219 0
-263 -1220 0
-264 -1221 0
-265 -1222 0
-261 -1224 0
-264 -1227 0
-265 -1228 0
-263 -1258 0
-264 -1259 0
-265 -1260 0
-262 -1264 0
-264 -1265 0
-265 -1266 0
-261 -1269 0
-262 -1271 0
-264 -1273 0
-265 -1274 0
-260 -1290 0
-263 -1294 0
-264 -1295 0
-265 -1296 0
-260 -1298 0
-262 -1300 0
-263 -1301 0
-264 -1302 0
-265 -1303 0
-259 -1325 0
-260 -1326 0
-263 -1329 0
-264 -1330 0
-265 -1331 0
-261 -1334 0
-262 -1336 0
-264 -1337 0
-265 -1338 0
-261 -1340 0
-263 -1343 0
-264 -1344 0
-265 -1345 0
-259 -1353 0
-261 -1355 0
-262 -1357 0
-263 -1359 0
-264 -1360 0
-265 -1361 0
-259 -1362 0
-262 -1366 0
-263 -1367 0
-264 -1368 0
-265 -1369 0
-259 -1370 0
-263 -1374 0
-264 -1375 0
-265 -1376 0
-259 -1377 0
-261 -1379 0
-263 -1382 0
-264 -1383 0
-265 -1384 0
-259 -1385 0
-261 -1387 0
-262 -1388 0
-263 -1389 0
-264 -1390 0
-265 -1391 0
-260 -1400 0
-261 -1402 0
-263 -1404 0
-264 -1405 0
-265 -1406 0
-260 -1407 0
-263 -1411 0
-264 -1412 0
-265 -1413 0
-260 -1414 0
-262 -1417 0
-263 -1419 0
-264 -1420 0
-265 -1421 0
-261 -1447 0
-262 -1449 0
-264 -1451 0
-265 -1452 0
-261 -1455 0
-263 -1457 0
-264 -1458 0
-265 -1459 0
-263 -1464 0
-264 -1465 0
-265 -1466 0
-262 -1483 0
-263 -1485 0
-264 -1486 0
-265 -1487 0
-261 -1490 0
-262 -1491 0
-263 -1492 0
-264 -1493 0
-265 -1494 0
-260 -1507 0
-263 -1510 0
-264 -1511 0
-265 -1512 0
-260 -1535 0
-261 -1536 0
-262 -1538 0
-264 -1539 0
-265 -1540 0
-259 -1566 0
-262 -1567 0
-263 -1569 0
-264 -1570 0
-265 -1571 0
-261 -1580 0
-262 -1582 0
-264 -1583 0
-265 -1584 0
-261 -1586 0
-263 -1589 0
-264 -1590 0
-265 -1591 0
-263 -1595 0
-264 -1596 0
-265 -1597 0
-259 -1654 0
-261 -1655 0
-262 -1657 0
-264 -1659 0
-265 -1660 0
-260 -1661 0
-261 -1662 0
-262 -1664 0
-264 -1665 0
-265 -1666 0
-260 -1667 0
-262 -1670 0
-264 -1672 0
-265 -1673 0
-261 -1675 0
-262 -1677 0
-263 -1678 0
-264 -1679 0
-265 -1680 0
-262 -1689 0
-263 -1691 0
-264 -1692 0
-265 -1693 0
-261 -1696 0
-264 -1699 0
-265 -1700 0
-259 -1714 0
-262 -1716 0
-263 -1717 0
-264 -1718 0
-265 -1719 0
-260 -1720 0
-262 -1722 0
-263 -1723 0
-264 -1724 0
-265 -1725 0
-260 -1726 0
-263 -1729 0
-264 -1730 0
-265 -1731 0
-261 -1739 0
-262 -1740 0
-264 -1742 0
-265 -1743 0
-261 -1744 0
-262 -1746 0
-263 -1748 0
-264 -1749 0
-265 -1750 0
-262 -1752 0
-263 -1754 0
-264 -1755 0
-265 -1756 0
-261 -1758 0
-263 -1760 0
-264 -1761 0
-265 -1762 0
-261 -1772 0
-263 -1775 0
-264 -1776 0
-265 -1777 0
-259 -1778 0
-261 -1779 0
-263 -1781 0
-264 -1782 0
-265 -1783 0
-261 -1792 0
-263 -1794 0
-264 -1795 0
-265 -1796 0
-261 -1799 0
-263 -1801 0
-264 -1802 0
-265 -1803 0
-261 -1805 0
-262 -1807 0
-263 -1808 0
-264 -1809 0
-265 -1810 0
-261 -1853 0
-262 -1855 0
-263 -1857 0
-264 -1858 0
-265 -1859 0
-270 -290 0
-271 -291 0
-272 -292 0
-273 -293 0
-268 -296 0
-269 -297 0
-272 -299 0
-273 -300 0
-266 -309 0
-268 -312 0
-270 -314 0
-272 -315 0
-273 -316 0
-270 -363 0
-271 -364 0
-272 -365 0
-273 -366 0
-268 -386 0
-269 -387 0
-272 -388 0
-273 -389 0
-267 -508 0
-268 -509 0
-270 -511 0
-271 -512 0
-272 -513 0
-273 -514 0
-266 -516 0
-267 -518 0
-268 -519 0
-269 -520 0
-271 -522 0
-272 -523 0
-273 -524 0
-266 -526 0
-268 -528 0
-270 -529 0
-271 -530 0
-272 -531 0
-273 -532 0
-267 -558 0
-269 -559 0
-272 -560 0
-273 -561 0
-270 -565 0
-271 -566 0
-272 -567 0
-273 -568 0
-267 -587 0
-268 -588 0
-270 -589 0
-271 -590 0
-272 -591 0
-273 -592 0
-267 -692 0
-268 -693 0
-272 -695 0
-273 -696 0
-268 -699 0
-269 -700 0
-270 -702 0
-271 -703 0
-272 -704 0
-273 -705 0
-266 -706 0
-268 -708 0
-271 -710 0
-272 -711 0
-273 -712 0
-267 -729 0
-268 -730 0
-272 -732 0
-273 -733 0
-268 -736 0
-269 -737 0
-270 -738 0
-271 -739 0
-272 -740 0
-273 -741 0
-267 -780 0
-268 -781 0
-269 -782 0
-270 -783 0
-272 -784 0
-273 -785 0
-268 -787 0
-271 -789 0
-272 -790 0
-273 -791 0
-266 -801 0
-268 -803 0
-269 -804 0
-270 -806 0
-271 -807 0
-272 -808 0
-273 -809 0
-266 -818 0
-267 -820 0
-269 -821 0
-270 -822 0
-271 -823 0
-272 -824 0
-273 -825 0
-266 -827 0
-271 -830 0
-272 -831 0
-273 -832 0
-266 -840 0
-268 -842 0
-269 -843 0
-270 -844 0
-272 -845 0
-273 -846 0
-266 -855 0
-267 -856 0
-269 -857 0
-270 -859 0
-272 -860 0
-273 -861 0
-266 -863 0
-270 -865 0
-271 -866 0
-272 -867 0
-273 -868 0
-267 -893 0
-268 -894 0
-269 -895 0
-270 -897 0
-272 -898 0
-273 -899 0
-268 -903 0
-271 -905 0
-272 -906 0
-273 -907 0
-267 -926 0
-271 -928 0
-272 -929 0
-273 -930 0
-268 -957 0
-269 -958 0
-272 -960 0
-273 -961 0
-267 -1009 0
-270 -1011 0
-272 -1012 0
-273 -1013 0
-268 -1069 0
-270 -1070 0
-272 -1071 0
-273 -1072 0
-267 -1082 0
-270 -1084 0
-272 -1085 0
-273 -1086 0
-269 -1089 0
-271 -1090 0
-272 -1091 0
-273 -1092 0
-266 -1100 0
-270 -1103 0
-271 -1104 0
-272 -1105 0
-273 -1106 0
-268 -1109 0
-269 -1110 0
-270 -1112 0
-271 -1113 0
-272 -1114 0
-273 -1115 0
-266 -1122 0
-269 -1124 0
-270 -1126 0
-272 -1127 0
-273 -1128 0
-267 -1130 0
-270 -1131 0
-271 -1132 0
-272 -1133 0
-273 -1134 0
-269 -1136 0
-270 -1138 0
-272 -1139 0
-273 -1140 0
-266 -1141 0
-270 -1144 0
-272 -1145 0
-273 -1146 0
-266 -1153 0
-267 -1155 0
-268 -1156 0
-270 -1157 0
-272 -1158 0
-273 -1159 0
-266 -1160 0
-268 -1162 0
-269 -1163 0
-270 -1165 0
-271 -1166 0
-272 -1167 0
-273 -1168 0
-268 -1177 0
-270 -1179 0
-272 -1180 0
-273 -1181 0
-267 -1191 0
-270 -1192 0
-272 -1193 0
-273 -1194 0
-269 -1197 0
-271 -1199 0
-272 -1200 0
-273 -1201 0
-268 -1210 0
-269 -1211 0
-270 -1212 0
-271 -1213 0
-272 -1214 0
-273 -1215 0
-267 -1241 0
-270 -1243 0
-271 -1244 0
-272 -1245 0
-273 -1246 0
-269 -1249 0
-270 -1251 0
-272 -1252 0
-273 -1253 0
-267 -1268 0
-268 -1269 0
-269 -1270 0
-270 -1272 0
-272 -1273 0
-273 -1274 0
-267 -1305 0
-269 -1306 0
-271 -1308 0
-272 -1309 0
-273 -1310 0
-267 -1312 0
-270 -1313 0
-271 -1314 0
-272 -1315 0
-273 -1316 0
-266 -1325 0
-267 -1327 0
-269 -1328 0
-271 -1329 0
-272 -1330 0
-273 -1331 0
-267 -1333 0
-268 -1334 0
-269 -1335 0
-272 -1337 0
-273 -1338 0
-268 -1340 0
-269 -1341 0
-270 -1342 0
-271 -1343 0
-272 -1344 0
-273 -1345 0
-266 -1346 0
-268 -1348 0
-269 -1349 0
-271 -1350 0
-272 -1351 0
-273 -1352 0
-266 -1362 0
-267 -1364 0
-269 -1365 0
-271 -1367 0
-272 -1368 0
-273 -1369 0
-266 -1370 0
-269 -1372 0
-270 -1373 0
-271 -1374 0
-272 -1375 0
-273 -1376 0
-266 -1377 0
-267 -1378 0
-268 -1379 0
-269 -1380 0
-270 -1381 0
-271 -1382 0
-272 -1383 0
-273 -1384 0
-266 -1385 0
-267 -1386 0
-268 -1387 0
-271 -1389 0
-272 -1390 0
-273 -1391 0
-267 -1393 0
-268 -1394 0
-269 -1395 0
-271 -1397 0
-272 -1398 0
-273 -1399 0
-267 -1409 0
-269 -1410 0
-271 -1411 0
-272 -1412 0
-273 -1413 0
-267 -1416 0
-270 -1418 0
-271 -1419 0
-272 -1420 0
-273 -1421 0
-267 -1431 0
-268 -1432 0
-269 -1433 0
-272 -1434 0
-273 -1435 0
-268 -1438 0
-269 -1439 0
-270 -1441 0
-271 -1442 0
-272 -1443 0
-273 -1444 0
-267 -1461 0
-269 -1462 0
-270 -1463 0
-271 -1464 0
-272 -1465 0
-273 -1466 0
-267 -1468 0
-269 -1469 0
-270 -1471 0
-272 -1472 0
-273 -1473 0
-267 -1475 0
-271 -1477 0
-272 -1478 0
-273 -1479 0
-267 -1489 0
-268 -1490 0
-271 -1492 0
-272 -1493 0
-273 -1494 0
-267 -1514 0
-271 -1516 0
-272 -1517 0
-273 -1518 0
-268 -1536 0
-269 -1537 0
-272 -1539 0
-273 -1540 0
-267 -1542 0
-269 -1543 0
-272 -1545 0
-273 -1546 0
-270 -1549 0
-271 -1550 0
-272 -1551 0
-273 -1552 0
-267 -1553 0
-268 -1554 0
-270 -1556 0
-272 -1557 0
-273 -1558 0
-267 -1559 0
-268 -1560 0
-269 -1561 0
-271 -1562 0
-272 -1563 0
-273 -1564 0
-266 -1566 0
-270 -1568 0
-271 -1569 0
-272 -1570 0
-273 -1571 0
-268 -1574 0
-270 -1575 0
-272 -1576 0
-273 -1577 0
-269 -1594 0
-271 -1595 0
-272 -1596 0
-273 -1597 0
-269 -1625 0
-270 -1627 0
-272 -1628 0
-273 -1629 0
-269 -1649 0
-270 -1651 0
-272 -1652 0
-273 -1653 0
-266 -1654 0
-268 -1655 0
-269 -1656 0
-270 -1658 0
-272 -1659 0
-273 -1660 0
-269 -1669 0
-270 -1671 0
-272 -1672 0
-273 -1673 0
-269 -1682 0
-270 -1683 0
-271 -1684 0
-272 -1685 0
-273 -1686 0
-268 -1696 0
-269 -1697 0
-270 -1698 0
-272 -1699 0
-273 -1700 0
-266 -1714 0
-269 -1715 0
-271 -1717 0
-272 -1718 0
-273 -1719 0
-267 -1721 0
-271 -1723 0
-272 -1724 0
-273 -1725 0
-269 -1727 0
-270 -1728 0
-271 -1729 0
-272 -1730 0
-273 -1731 0
-268 -1733 0
-269 -1734 0
-272 -1736 0
-273 -1737 0
-270 -1753 0
-271 -1754 0
-272 -1755 0
-273 -1756 0
-267 -1757 0
-268 -1758 0
-269 -1759 0
-271 -1760 0
-272 -1761 0
-273 -1762 0
-266 -1778 0
-268 -1779 0
-270 -1780 0
-271 -1781 0
-272 -1782 0
-273 -1783 0
-268 -1785 0
-270 -1787 0
-271 -1788 0
-272 -1789 0
-273 -1790 0
-267 -1798 0
-268 -1799 0
-270 -1800 0
-271 -1801 0
-272 -1802 0
-273 -1803 0
-268 -1805 0
-269 -1806 0
-271 -1808 0
-272 -1809 0
-273 -1810 0
-268 -1813 0
-269 -1814 0
-270 -1815 0
-272 -1816 0
-273 -1817 0
-267 -1818 0
-268 -1819 0
-270 -1821 0
-272 -1822 0
-273 -1823 0
-268 -1824 0
-269 -1825 0
-270 -1827 0
-271 -1828 0
-272 -1829 0
-273 -1830 0
-268 -1831 0
-269 -1832 0
-270 -1834 0
-271 -1835 0
-272 -1836 0
-273 -1837 0
-277 -291 0
-278 -292 0
-279 -293 0
-275 -295 0
-278 -299 0
-279 -300 0
-274 -302 0
-278 -306 0
-279 -307 0
-274 -335 0
-278 -338 0
-279 -339 0
-277 -357 0
-278 -358 0
-279 -359 0
-275 -378 0
-278 -381 0
-279 -382 0
-277 -441 0
-278 -442 0
-279 -443 0
-276 -508 0
-277 -512 0
-278 -513 0
-279 -514 0
-274 -526 0
-277 -530 0
-278 -531 0
-279 -532 0
-274 -542 0
-277 -545 0
-278 -546 0
-279 -547 0
-277 -566 0
-278 -567 0
-279 -568 0
-276 -578 0
-277 -581 0
-278 -582 0
-279 -583 0
-278 -614 0
-279 -615 0
-276 -692 0
-278 -695 0
-279 -696 0
-274 -706 0
-277 -710 0
-278 -711 0
-279 -712 0
-274 -713 0
-278 -717 0
-279 -718 0
-276 -721 0
-278 -725 0
-279 -726 0
-275 -735 0
-277 -739 0
-278 -740 0
-279 -741 0
-277 -746 0
-278 -747 0
-279 -748 0
-275 -758 0
-278 -762 0
-279 -763 0
-276 -773 0
-278 -777 0
-279 -778 0
-276 -780 0
-278 -784 0
-279 -785 0
-275 -793 0
-277 -797 0
-278 -798 0
-279 -799 0
-274 -801 0
-277 -807 0
-278 -808 0
-279 -809 0
-274 -811 0
-276 -812 0
-277 -814 0
-278 -815 0
-279 -816 0
-274 -827 0
-275 -828 0
-277 -830 0
-278 -831 0
-279 -832 0
-274 -834 0
-278 -837 0
-279 -838 0
-274 -863 0
-277 -866 0
-278 -867 0
-279 -868 0
-276 -885 0
-278 -888 0
-279 -889 0
-275 -902 0
-277 -905 0
-278 -906 0
-279 -907 0
-275 -915 0
-276 -916 0
-277 -921 0
-278 -922 0
-279 -923 0
-275 -949 0
-278 -953 0
-279 -954 0
-276 -1001 0
-278 -1005 0
-279 -1006 0
-275 -1075 0
-278 -1078 0
-279 -1079 0
-275 -1081 0
-276 -1082 0
-278 -1085 0
-279 -1086 0
-275 -1094 0
-277 -1097 0
-278 -1098 0
-279 -1099 0
-274 -1100 0
-275 -1102 0
-277 -1104 0
-278 -1105 0
-279 -1106 0
-275 -1108 0
-277 -1113 0
-278 -1114 0
-279 -1115 0
-274 -1116 0
-275 -1117 0
-278 -1120 0
-279 -1121 0
-276 -1130 0
-277 -1132 0
-278 -1133 0
-279 -1134 0
-274 -1141 0
-278 -1145 0
-279 -1146 0
-274 -1147 0
-276 -1148 0
-278 -1151 0
-279 -1152 0
-274 -1160 0
-275 -1161 0
-277 -1166 0
-278 -1167 0
-279 -1168 0
-274 -1169 0
-277 -1172 0
-278 -1173 0
-279 -1174 0
-275 -1176 0
-278 -1180 0
-279 -1181 0
-275 -1183 0
-276 -1184 0
-278 -1187 0
-279 -1188 0
-275 -1196 0
-277 -1199 0
-278 -1200 0
-279 -1201 0
-275 -1203 0
-277 -1205 0
-278 -1206 0
-279 -1207 0
-275 -1223 0
-278 -1227 0
-279 -1228 0
-276 -1231 0
-277 -1236 0
-278 -1237 0
-279 -1238 0
-275 -1248 0
-278 -1252 0
-279 -1253 0
-275 -1261 0
-276 -1262 0
-278 -1265 0
-279 -1266 0
-275 -1282 0
-277 -1286 0
-278 -1287 0
-279 -1288 0
-276 -1291 0
-277 -1294 0
-278 -1295 0
-279 -1296 0
-276 -1305 0
-277 -1308 0
-278 -1309 0
-279 -1310 0
-275 -1318 0
-276 -1319 0
-277 -1322 0
-278 -1323 0
-279 -1324 0
-274 -1325 0
-276 -1327 0
-277 -1329 0
-278 -1330 0
-279 -1331 0
-276 -1333 0
-278 -1337 0
-279 -1338 0
-274 -1346 0
-277 -1350 0
-278 -1351 0
-279 -1352 0
-274 -1353 0
-276 -1354 0
-277 -1359 0
-278 -1360 0
-279 -1361 0
-274 -1370 0
-275 -1371 0
-277 -1374 0
-278 -1375 0
-279 -1376 0
-274 -1385 0
-276 -1386 0
-277 -1389 0
-278 -1390 0
-279 -1391 0
-276 -1393 0
-277 -1397 0
-278 -1398 0
-279 -1399 0
-276 -1401 0
-277 -1404 0
-278 -1405 0
-279 -1406 0
-275 -1415 0
-276 -1416 0
-277 -1419 0
-278 -1420 0
-279 -1421 0
-276 -1423 0
-278 -1427 0
-279 -1428 0
-275 -1437 0
-277 -1442 0
-278 -1443 0
-279 -1444 0
-275 -1453 0
-276 -1454 0
-277 -1457 0
-278 -1458 0
-279 -1459 0
-276 -1475 0
-277 -1477 0
-278 -1478 0
-279 -1479 0
-276 -1481 0
-277 -1485 0
-278 -1486 0
-279 -1487 0
-276 -1501 0
-278 -1505 0
-279 -1506 0
-275 -1520 0
-276 -1521 0
-277 -1526 0
-278 -1527 0
-279 -1528 0
-275 -1541 0
-276 -1542 0
-278 -1545 0
-279 -1546 0
-276 -1553 0
-278 -1557 0
-279 -1558 0
-277 -1589 0
-278 -1590 0
-279 -1591 0
-278 -1652 0
-279 -1653 0
-278 -1665 0
-279 -1666 0
-277 -1711 0
-278 -1712 0
-279 -1713 0
-277 -1729 0
-278 -1730 0
-279 -1731 0
-277 -1748 0
-278 -1749 0
-279 -1750 0
-277 -1767 0
-278 -1768 0
-279 -1769 0
-277 -1775 0
-278 -1776 0
-279 -1777 0
-274 -1778 0
-277 -1781 0
-278 -1782 0
-279 -1783 0
-277 -1788 0
-278 -1789 0
-279 -1790 0
-276 -1791 0
-277 -1794 0
-278 -1795 0
-279 -1796 0
-275 -1804 0
-277 -1808 0
-278 -1809 0
-279 -1810 0
-277 -1828 0
-278 -1829 0
-279 -1830 0
-275 -1838 0
-277 -1841 0
-278 -1842 0
-279 -1843 0
-276 -1845 0
-277 -1849 0
-278 -1850 0
-279 -1851 0
-277 -1857 0
-278 -1858 0
-279 -1859 0
-281 -295 0
-282 -297 0
-283 -298 0
-285 -299 0
-286 -300 0
-280 -302 0
-282 -304 0
-283 -305 0
-285 -306 0
-286 -307 0
-280 -309 0
-281 -311 0
-283 -313 0
-284 -314 0
-285 -315 0
-286 -316 0
-280 -318 0
-281 -319 0
-283 -320 0
-285 -322 0
-286 -323 0
-280 -325 0
-282 -328 0
-283 -329 0
-284 -330 0
-285 -332 0
-286 -333 0
-282 -356 0
-285 -358 0
-286 -359 0
-281 -362 0
-284 -363 0
-285 -365 0
-286 -366 0
-281 -369 0
-282 -371 0
-283 -372 0
-285 -374 0
-286 -375 0
-281 -398 0
-283 -400 0
-285 -402 0
-286 -403 0
-282 -432 0
-284 -433 0
-285 -435 0
-286 -436 0
-283 -510 0
-284 -511 0
-285 -513 0
-286 -514 0
-280 -516 0
-282 -520 0
-283 -521 0
-285 -523 0
-286 -524 0
-280 -534 0
-282 -536 0
-283 -537 0
-284 -538 0
-285 -539 0
-286 -540 0
-282 -559 0
-285 -560 0
-286 -561 0
-283 -572 0
-284 -573 0
-285 -574 0
-286 -575 0
-282 -604 0
-283 -605 0
-284 -606 0
-285 -608 0
-286 -609 0
-282 -700 0
-283 -701 0
-284 -702 0
-285 -704 0
-286 -705 0
-280 -706 0
-283 -709 0
-285 -711 0
-286 -712 0
-280 -713 0
-283 -715 0
-284 -716 0
-285 -717 0
-286 -718 0
-282 -722 0
-283 -723 0
-284 -724 0
-285 -725 0
-286 -726 0
-281 -728 0
-283 -731 0
-285 -732 0
-286 -733 0
-283 -744 0
-284 -745 0
-285 -747 0
-286 -748 0
-281 -750 0
-283 -752 0
-284 -753 0
-285 -755 0
-286 -756 0
-282 -767 0
-283 -768 0
-285 -770 0
-286 -771 0
-283 -788 0
-285 -790 0
-286 -791 0
-281 -793 0
-282 -794 0
-283 -795 0
-284 -796 0
-285 -798 0
-286 -799 0
-280 -801 0
-282 -804 0
-283 -805 0
-284 -806 0
-285 -808 0
-286 -809 0
-280 -811 0
-285 -815 0
-286 -816 0
-280 -818 0
-281 -819 0
-282 -821 0
-284 -822 0
-285 -824 0
-286 -825 0
-280 -834 0
-282 -836 0
-285 -837 0
-286 -838 0
-280 -840 0
-281 -841 0
-282 -843 0
-284 -844 0
-285 -845 0
-286 -846 0
-280 -855 0
-282 -857 0
-283 -858 0
-284 -859 0
-285 -860 0
-286 -861 0
-283 -887 0
-285 -888 0
-286 -889 0
-281 -892 0
-282 -895 0
-283 -896 0
-284 -897 0
-285 -898 0
-286 -899 0
-281 -909 0
-285 -912 0
-286 -913 0
-281 -941 0
-282 -944 0
-285 -946 0
-286 -947 0
-283 -995 0
-284 -996 0
-285 -998 0
-286 -999 0
-281 -1088 0
-282 -1089 0
-285 -1091 0
-286 -1092 0
-281 -1094 0
-284 -1096 0
-285 -1098 0
-286 -1099 0
-280 -1100 0
-281 -1102 0
-284 -1103 0
-285 -1105 0
-286 -1106 0
-280 -1116 0
-281 -1117 0
-283 -1119 0
-285 -1120 0
-286 -1121 0
-280 -1122 0
-281 -1123 0
-282 -1124 0
-283 -1125 0
-284 -1126 0
-285 -1127 0
-286 -1128 0
-282 -1136 0
-283 -1137 0
-284 -1138 0
-285 -1139 0
-286 -1140 0
-280 -1141 0
-283 -1143 0
-284 -1144 0
-285 -1145 0
-286 -1146 0
-280 -1147 0
-282 -1149 0
-284 -1150 0
-285 -1151 0
-286 -1152 0
-280 -1153 0
-281 -1154 0
-284 -1157 0
-285 -1158 0
-286 -1159 0
-280 -1169 0
-284 -1171 0
-285 -1173 0
-286 -1174 0
-281 -1176 0
-283 -1178 0
-284 -1179 0
-285 -1180 0
-286 -1181 0
-281 -1183 0
-282 -1186 0
-285 -1187 0
-286 -1188 0
-281 -1190 0
-284 -1192 0
-285 -1193 0
-286 -1194 0
-281 -1203 0
-285 -1206 0
-286 -1207 0
-281 -1209 0
-282 -1211 0
-284 -1212 0
-285 -1214 0
-286 -1215 0
-281 -1216 0
-283 -1219 0
-285 -1221 0
-286 -1222 0
-282 -1233 0
-283 -1234 0
-284 -1235 0
-285 -1237 0
-286 -1238 0
-281 -1240 0
-283 -1242 0
-284 -1243 0
-285 -1245 0
-286 -1246 0
-281 -1254 0
-282 -1256 0
-284 -1257 0
-285 -1259 0
-286 -1260 0
-281 -1275 0
-284 -1278 0
-285 -1280 0
-286 -1281 0
-282 -1299 0
-283 -1300 0
-285 -1302 0
-286 -1303 0
-284 -1313 0
-285 -1315 0
-286 -1316 0
-281 -1318 0
-282 -1321 0
-285 -1323 0
-286 -1324 0
-280 -1325 0
-282 -1328 0
-285 -1330 0
-286 -1331 0
-282 -1341 0
-284 -1342 0
-285 -1344 0
-286 -1345 0
-280 -1346 0
-282 -1349 0
-285 -1351 0
-286 -1352 0
-280 -1353 0
-282 -1356 0
-283 -1357 0
-284 -1358 0
-285 -1360 0
-286 -1361 0
-280 -1362 0
-281 -1363 0
-282 -1365 0
-283 -1366 0
-285 -1368 0
-286 -1369 0
-280 -1377 0
-282 -1380 0
-284 -1381 0
-285 -1383 0
-286 -1384 0
-282 -1395 0
-283 -1396 0
-285 -1398 0
-286 -1399 0
-284 -1403 0
-285 -1405 0
-286 -1406 0
-281 -1408 0
-282 -1410 0
-285 -1412 0
-286 -1413 0
-282 -1425 0
-284 -1426 0
-285 -1427 0
-286 -1428 0
-281 -1430 0
-282 -1433 0
-285 -1434 0
-286 -1435 0
-281 -1445 0
-282 -1448 0
-283 -1449 0
-284 -1450 0
-285 -1451 0
-286 -1452 0
-282 -1469 0
-283 -1470 0
-284 -1471 0
-285 -1472 0
-286 -1473 0
-282 -1497 0
-285 -1499 0
-286 -1500 0
-281 -1530 0
-285 -1533 0
-286 -1534 0
-281 -1547 0
-283 -1548 0
-284 -1549 0
-285 -1551 0
-286 -1552 0
-282 -1561 0
-285 -1563 0
-286 -1564 0
-280 -1566 0
-283 -1567 0
-284 -1568 0
-285 -1570 0
-286 -1571 0
-284 -1575 0
-285 -1576 0
-286 -1577 0
-282 -1581 0
-283 -1582 0
-285 -1583 0
-286 -1584 0
-283 -1607 0
-285 -1609 0
-286 -1610 0
-280 -1654 0
-282 -1656 0
-283 -1657 0
-284 -1658 0
-285 -1659 0
-286 -1660 0
-282 -1663 0
-283 -1664 0
-285 -1665 0
-286 -1666 0
-281 -1668 0
-282 -1669 0
-283 -1670 0
-284 -1671 0
-285 -1672 0
-286 -1673 0
-281 -1674 0
-282 -1676 0
-283 -1677 0
-285 -1679 0
-286 -1680 0
-282 -1682 0
-284 -1683 0
-285 -1685 0
-286 -1686 0
-282 -1688 0
-283 -1689 0
-284 -1690 0
-285 -1692 0
-286 -1693 0
-282 -1702 0
-283 -1703 0
-284 -1704 0
-285 -1706 0
-286 -1707 0
-283 -1710 0
-285 -1712 0
-286 -1713 0
-280 -1714 0
-282 -1715 0
-283 -1716 0
-285 -1718 0
-286 -1719 0
-283 -1722 0
-285 -1724 0
-286 -1725 0
-282 -1734 0
-283 -1735 0
-285 -1736 0
-286 -1737 0
-283 -1740 0
-284 -1741 0
-285 -1742 0
-286 -1743 0
-280 -1778 0
-284 -1780 0
-285 -1782 0
-286 -1783 0
-283 -1786 0
-284 -1787 0
-285 -1789 0
-286 -1790 0
-282 -1793 0
-285 -1795 0
-286 -1796 0
-281 -1797 0
-284 -1800 0
-285 -1802 0
-286 -1803 0
-281 -1812 0
-282 -1814 0
-284 -1815 0
-285 -1816 0
-286 -1817 0
-283 -1820 0
-284 -1821 0
-285 -1822 0
-286 -1823 0
-288 -478 0
-289 -482 0
-292 -483 0
-293 -484 0
-290 -503 0
-291 -504 0
-292 -505 0
-293 -506 0
-287 -525 0
-288 -527 0
-290 -529 0
-291 -530 0
-292 -531 0
-293 -532 0
-287 -541 0
-289 -543 0
-290 -544 0
-291 -545 0
-292 -546 0
-293 -547 0
-288 -549 0
-289 -551 0
-290 -552 0
-291 -553 0
-292 -554 0
-293 -555 0
-287 -562 0
-288 -563 0
-289 -564 0
-290 -565 0
-291 -566 0
-292 -567 0
-293 -568 0
-287 -576 0
-288 -577 0
-290 -580 0
-291 -581 0
-292 -582 0
-293 -583 0
-287 -584 0
-288 -585 0
-290 -589 0
-291 -590 0
-292 -591 0
-293 -592 0
-288 -594 0
-290 -596 0
-291 -597 0
-292 -598 0
-293 -599 0
-287 -610 0
-288 -611 0
-290 -613 0
-292 -614 0
-293 -615 0
-288 -617 0
-290 -620 0
-292 -621 0
-293 -622 0
-287 -623 0
-289 -626 0
-290 -627 0
-292 -628 0
-293 -629 0
-288 -631 0
-289 -634 0
-290 -635 0
-292 -636 0
-293 -637 0
-288 -639 0
-289 -643 0
-290 -644 0
-292 -645 0
-293 -646 0
-287 -654 0
-290 -658 0
-292 -659 0
-293 -660 0
-288 -662 0
-292 -665 0
-293 -666 0
-289 -679 0
-290 -680 0
-291 -681 0
-292 -682 0
-293 -683 0
-288 -734 0
-290 -738 0
-291 -739 0
-292 -740 0
-293 -741 0
-288 -757 0
-289 -760 0
-290 -761 0
-292 -762 0
-293 -763 0
-288 -772 0
-290 -776 0
-292 -777 0
-293 -778 0
-287 -826 0
-289 -829 0
-291 -830 0
-292 -831 0
-293 -832 0
-291 -851 0
-292 -852 0
-293 -853 0
-287 -862 0
-289 -864 0
-290 -865 0
-291 -866 0
-292 -867 0
-293 -868 0
-289 -871 0
-290 -872 0
-291 -873 0
-292 -874 0
-293 -875 0
-289 -879 0
-290 -880 0
-292 -881 0
-293 -882 0
-287 -900 0
-288 -901 0
-289 -904 0
-291 -905 0
-292 -906 0
-293 -907 0
-287 -914 0
-289 -919 0
-290 -920 0
-291 -921 0
-292 -922 0
-293 -923 0
-287 -924 0
-289 -927 0
-291 -928 0
-292 -929 0
-293 -930 0
-288 -932 0
-289 -936 0
-291 -937 0
-292 -938 0
-293 -939 0
-287 -948 0
-289 -951 0
-290 -952 0
-292 -953 0
-293 -954 0
-287 -955 0
-289 -959 0
-292 -960 0
-293 -961 0
-288 -963 0
-289 -967 0
-292 -968 0
-293 -969 0
-290 -974 0
-292 -975 0
-293 -976 0
-292 -982 0
-293 -983 0
-287 -1000 0
-289 -1004 0
-292 -1005 0
-293 -1006 0
-287 -1007 0
-289 -1010 0
-290 -1011 0
-292 -1012 0
-293 -1013 0
-288 -1015 0
-289 -1018 0
-290 -1019 0
-292 -1020 0
-293 -1021 0
-289 -1026 0
-292 -1027 0
-293 -1028 0
-289 -1032 0
-290 -1033 0
-292 -1034 0
-293 -1035 0
-289 -1047 0
-291 -1048 0
-292 -1049 0
-293 -1050 0
-289 -1056 0
-290 -1057 0
-291 -1058 0
-292 -1059 0
-293 -1060 0
-289 -1164 0
-290 -1165 0
-291 -1166 0
-292 -1167 0
-293 -1168 0
-288 -1195 0
-289 -1198 0
-291 -1199 0
-292 -1200 0
-293 -1201 0
-290 -1226 0
-292 -1227 0
-293 -1228 0
-288 -1247 0
-289 -1250 0
-290 -1251 0
-292 -1252 0
-293 -1253 0
-289 -1264 0
-292 -1265 0
-293 -1266 0
-289 -1271 0
-290 -1272 0
-292 -1273 0
-293 -1274 0
-289 -1285 0
-291 -1286 0
-292 -1287 0
-293 -1288 0
-287 -1297 0
-288 -1298 0
-289 -1300 0
-291 -1301 0
-292 -1302 0
-293 -1303 0
-287 -1311 0
-290 -1313 0
-291 -1314 0
-292 -1315 0
-293 -1316 0
-287 -1317 0
-291 -1322 0
-292 -1323 0
-293 -1324 0
-288 -1326 0
-291 -1329 0
-292 -1330 0
-293 -1331 0
-287 -1339 0
-290 -1342 0
-291 -1343 0
-292 -1344 0
-293 -1345 0
-288 -1347 0
-291 -1350 0
-292 -1351 0
-293 -1352 0
-289 -1357 0
-290 -1358 0
-291 -1359 0
-292 -1360 0
-293 -1361 0
-289 -1366 0
-291 -1367 0
-292 -1368 0
-293 -1369 0
-290 -1381 0
-291 -1382 0
-292 -1383 0
-293 -1384 0
-288 -1392 0
-289 -1396 0
-291 -1397 0
-292 -1398 0
-293 -1399 0
-288 -1400 0
-290 -1403 0
-291 -1404 0
-292 -1405 0
-293 -1406 0
-288 -1407 0
-291 -1411 0
-292 -1412 0
-293 -1413 0
-288 -1422 0
-290 -1426 0
-292 -1427 0
-293 -1428 0
-288 -1429 0
-292 -1434 0
-293 -1435 0
-289 -1449 0
-290 -1450 0
-292 -1451 0
-293 -1452 0
-288 -1467 0
-289 -1470 0
-290 -1471 0
-292 -1472 0
-293 -1473 0
-291 -1498 0
-292 -1499 0
-293 -1500 0
-288 -1529 0
-291 -1532 0
-292 -1533 0
-293 -1534 0
-289 -1548 0
-290 -1549 0
-291 -1550 0
-292 -1551 0
-293 -1552 0
-291 -1562 0
-292 -1563 0
-293 -1564 0
-287 -1585 0
-290 -1588 0
-291 -1589 0
-292 -1590 0
-293 -1591 0
-287 -1592 0
-291 -1595 0
-292 -1596 0
-293 -1597 0
-288 -1599 0
-291 -1602 0
-292 -1603 0
-293 -1604 0
-289 -1614 0
-290 -1615 0
-292 -1616 0
-293 -1617 0
-289 -1621 0
-292 -1622 0
-293 -1623 0
-287 -1624 0
-289 -1626 0
-290 -1627 0
-292 -1628 0
-293 -1629 0
-290 -1633 0
-292 -1634 0
-293 -1635 0
-290 -1644 0
-291 -1645 0
-292 -1646 0
-293 -1647 0
-290 -1698 0
-292 -1699 0
-293 -1700 0
-287 -1708 0
-289 -1710 0
-291 -1711 0
-292 -1712 0
-293 -1713 0
-289 -1716 0
-291 -1717 0
-292 -1718 0
-293 -1719 0
-288 -1720 0
-289 -1722 0
-291 -1723 0
-292 -1724 0
-293 -1725 0
-288 -1732 0
-289 -1735 0
-292 -1736 0
-293 -1737 0
-289 -1740 0
-290 -1741 0
-292 -1742 0
-293 -1743 0
-290 -1780 0
-291 -1781 0
-292 -1782 0
-293 -1783 0
-288 -1784 0
-289 -1786 0
-290 -1787 0
-291 -1788 0
-292 -1789 0
-293 -1790 0
-291 -1794 0
-292 -1795 0
-293 -1796 0
-290 -1800 0
-291 -1801 0
-292 -1802 0
-293 -1803 0
-290 -1815 0
-292 -1816 0
-293 -1817 0
-289 -1820 0
-290 -1821 0
-292 -1822 0
-293 -1823 0
-289 -1847 0
-290 -1848 0
-291 -1849 0
-292 -1850 0
-293 -1851 0
-289 -1855 0
-290 -1856 0
-291 -1857 0
-292 -1858 0
-293 -1859 0
-297 -446 0
-298 -447 0
-299 -450 0
-300 -451 0
-296 -487 0
-297 -488 0
-299 -490 0
-300 -491 0
-297 -550 0
-298 -551 0
-299 -554 0
-300 -555 0
-294 -556 0
-297 -559 0
-299 -560 0
-300 -561 0
-294 -562 0
-298 -564 0
-299 -567 0
-300 -568 0
-299 -598 0
-300 -599 0
-294 -600 0
-296 -603 0
-297 -604 0
-298 -605 0
-299 -608 0
-300 -609 0
-294 -610 0
-296 -612 0
-299 -614 0
-300 -615 0
-296 -633 0
-298 -634 0
-299 -636 0
-300 -637 0
-295 -640 0
-297 -642 0
-298 -643 0
-299 -645 0
-300 -646 0
-295 -649 0
-299 -652 0
-300 -653 0
-296 -664 0
-299 -665 0
-300 -666 0
-296 -670 0
-297 -671 0
-298 -672 0
-299 -675 0
-300 -676 0
-298 -679 0
-299 -682 0
-300 -683 0
-297 -686 0
-299 -688 0
-300 -689 0
-296 -743 0
-298 -744 0
-299 -747 0
-300 -748 0
-294 -800 0
-296 -803 0
-297 -804 0
-298 -805 0
-299 -808 0
-300 -809 0
-294 -833 0
-296 -835 0
-297 -836 0
-299 -837 0
-300 -838 0
-294 -839 0
-295 -841 0
-296 -842 0
-297 -843 0
-299 -845 0
-300 -846 0
-295 -848 0
-296 -849 0
-297 -850 0
-299 -852 0
-300 -853 0
-294 -854 0
-297 -857 0
-298 -858 0
-299 -860 0
-300 -861 0
-294 -862 0
-298 -864 0
-299 -867 0
-300 -868 0
-298 -871 0
-299 -874 0
-300 -875 0
-294 -883 0
-296 -886 0
-298 -887 0
-299 -888 0
-300 -889 0
-294 -890 0
-295 -892 0
-296 -894 0
-297 -895 0
-298 -896 0
-299 -898 0
-300 -899 0
-294 -900 0
-295 -902 0
-296 -903 0
-298 -904 0
-299 -906 0
-300 -907 0
-295 -933 0
-296 -935 0
-298 -936 0
-299 -938 0
-300 -939 0
-294 -940 0
-295 -941 0
-296 -943 0
-297 -944 0
-299 -946 0
-300 -947 0
-294 -948 0
-295 -949 0
-296 -950 0
-298 -951 0
-299 -953 0
-300 -954 0
-294 -955 0
-295 -956 0
-296 -957 0
-297 -958 0
-298 -959 0
-299 -960 0
-300 -961 0
-295 -971 0
-296 -973 0
-299 -975 0
-300 -976 0
-295 -978 0
-296 -980 0
-297 -981 0
-299 -982 0
-300 -983 0
-295 -985 0
-296 -986 0
-298 -987 0
-299 -990 0
-300 -991 0
-294 -992 0
-296 -994 0
-298 -995 0
-299 -998 0
-300 -999 0
-294 -1000 0
-296 -1002 0
-297 -1003 0
-298 -1004 0
-299 -1005 0
-300 -1006 0
-294 -1007 0
-295 -1008 0
-298 -1010 0
-299 -1012 0
-300 -1013 0
-296 -1024 0
-297 -1025 0
-298 -1026 0
-299 -1027 0
-300 -1028 0
-295 -1030 0
-298 -1032 0
-299 -1034 0
-300 -1035 0
-295 -1037 0
-297 -1039 0
-298 -1040 0
-299 -1042 0
-300 -1043 0
-298 -1143 0
-299 -1145 0
-300 -1146 0
-296 -1170 0
-299 -1173 0
-300 -1174 0
-295 -1176 0
-296 -1177 0
-298 -1178 0
-299 -1180 0
-300 -1181 0
-295 -1203 0
-296 -1204 0
-299 -1206 0
-300 -1207 0
-295 -1209 0
-296 -1210 0
-297 -1211 0
-299 -1214 0
-300 -1215 0
-296 -1232 0
-297 -1233 0
-298 -1234 0
-299 -1237 0
-300 -1238 0
-295 -1240 0
-298 -1242 0
-299 -1245 0
-300 -1246 0
-295 -1248 0
-297 -1249 0
-298 -1250 0
-299 -1252 0
-300 -1253 0
-295 -1275 0
-296 -1277 0
-299 -1280 0
-300 -1281 0
-295 -1282 0
-296 -1283 0
-297 -1284 0
-298 -1285 0
-299 -1287 0
-300 -1288 0
-294 -1289 0
-297 -1292 0
-299 -1295 0
-300 -1296 0
-294 -1297 0
-297 -1299 0
-298 -1300 0
-299 -1302 0
-300 -1303 0
-297 -1328 0
-299 -1330 0
-300 -1331 0
-294 -1332 0
-296 -1334 0
-297 -1335 0
-298 -1336 0
-299 -1337 0
-300 -1338 0
-294 -1339 0
-296 -1340 0
-297 -1341 0
-299 -1344 0
-300 -1345 0
-296 -1355 0
-297 -1356 0
-298 -1357 0
-299 -1360 0
-300 -1361 0
-295 -1363 0
-297 -1365 0
-298 -1366 0
-299 -1368 0
-300 -1369 0
-295 -1371 0
-297 -1372 0
-299 -1375 0
-300 -1376 0
-296 -1379 0
-297 -1380 0
-299 -1383 0
-300 -1384 0
-296 -1387 0
-298 -1388 0
-299 -1390 0
-300 -1391 0
-296 -1402 0
-299 -1405 0
-300 -1406 0
-295 -1408 0
-297 -1410 0
-299 -1412 0
-300 -1413 0
-295 -1415 0
-298 -1417 0
-299 -1420 0
-300 -1421 0
-295 -1445 0
-296 -1447 0
-297 -1448 0
-298 -1449 0
-299 -1451 0
-300 -1452 0
-295 -1453 0
-296 -1455 0
-299 -1458 0
-300 -1459 0
-295 -1460 0
-297 -1462 0
-299 -1465 0
-300 -1466 0
-297 -1482 0
-298 -1483 0
-299 -1486 0
-300 -1487 0
-295 -1488 0
-296 -1490 0
-298 -1491 0
-299 -1493 0
-300 -1494 0
-297 -1508 0
-299 -1511 0
-300 -1512 0
-296 -1536 0
-297 -1537 0
-298 -1538 0
-299 -1539 0
-300 -1540 0
-294 -1572 0
-296 -1574 0
-299 -1576 0
-300 -1577 0
-296 -1600 0
-297 -1601 0
-299 -1603 0
-300 -1604 0
-294 -1605 0
-296 -1606 0
-298 -1607 0
-299 -1609 0
-300 -1610 0
-296 -1612 0
-297 -1613 0
-298 -1614 0
-299 -1616 0
-300 -1617 0
-295 -1619 0
-296 -1620 0
-298 -1621 0
-299 -1622 0
-300 -1623 0
-294 -1624 0
-297 -1625 0
-298 -1626 0
-299 -1628 0
-300 -1629 0
-297 -1632 0
-299 -1634 0
-300 -1635 0
-297 -1637 0
-298 -1638 0
-299 -1640 0
-300 -1641 0
-297 -1682 0
-299 -1685 0
-300 -1686 0
-296 -1701 0
-297 -1702 0
-298 -1703 0
-299 -1706 0
-300 -1707 0
-297 -1715 0
-298 -1716 0
-299 -1718 0
-300 -1719 0
-298 -1722 0
-299 -1724 0
-300 -1725 0
-297 -1727 0
-299 -1730 0
-300 -1731 0
-296 -1739 0
-298 -1740 0
-299 -1742 0
-300 -1743 0
-296 -1744 0
-297 -1745 0
-298 -1746 0
-299 -1749 0
-300 -1750 0
-295 -1751 0
-298 -1752 0
-299 -1755 0
-300 -1756 0
-296 -1758 0
-297 -1759 0
-299 -1761 0
-300 -1762 0
-294 -1771 0
-296 -1772 0
-297 -1773 0
-299 -1776 0
-300 -1777 0
-296 -1779 0
-299 -1782 0
-300 -1783 0
-296 -1792 0
-297 -1793 0
-299 -1795 0
-300 -1796 0
-295 -1797 0
-296 -1799 0
-299 -1802 0
-300 -1803 0
-295 -1804 0
-296 -1805 0
-297 -1806 0
-298 -1807 0
-299 -1809 0
-300 -1810 0
-297 -1846 0
-298 -1847 0
-299 -1850 0
-300 -1851 0
-301 -556 0
-303 -557 0
-304 -559 0
-306 -560 0
-307 -561 0
-301 -562 0
-303 -563 0
-305 -564 0
-306 -567 0
-307 -568 0
-301 -584 0
-303 -585 0
-306 -591 0
-307 -592 0
-301 -600 0
-303 -601 0
-304 -604 0
-305 -605 0
-306 -608 0
-307 -609 0
-301 -610 0
-303 -611 0
-306 -614 0
-307 -615 0
-302 -616 0
-303 -617 0
-304 -619 0
-306 -621 0
-307 -622 0
-301 -623 0
-305 -626 0
-306 -628 0
-307 -629 0
-302 -638 0
-303 -639 0
-304 -642 0
-305 -643 0
-306 -645 0
-307 -646 0
-302 -647 0
-303 -648 0
-306 -652 0
-307 -653 0
-301 -654 0
-304 -657 0
-306 -659 0
-307 -660 0
-302 -661 0
-303 -662 0
-306 -665 0
-307 -666 0
-302 -667 0
-303 -668 0
-304 -671 0
-305 -672 0
-306 -675 0
-307 -676 0
-302 -677 0
-305 -679 0
-306 -682 0
-307 -683 0
-302 -684 0
-304 -686 0
-306 -688 0
-307 -689 0
-301 -792 0
-304 -794 0
-305 -795 0
-306 -798 0
-307 -799 0
-301 -839 0
-302 -840 0
-304 -843 0
-306 -845 0
-307 -846 0
-301 -854 0
-302 -855 0
-304 -857 0
-305 -858 0
-306 -860 0
-307 -861 0
-301 -862 0
-302 -863 0
-305 -864 0
-306 -867 0
-307 -868 0
-302 -876 0
-304 -878 0
-305 -879 0
-306 -881 0
-307 -882 0
-301 -890 0
-303 -891 0
-304 -895 0
-305 -896 0
-306 -898 0
-307 -899 0
-301 -900 0
-303 -901 0
-305 -904 0
-306 -906 0
-307 -907 0
-301 -924 0
-305 -927 0
-306 -929 0
-307 -930 0
-301 -940 0
-304 -944 0
-306 -946 0
-307 -947 0
-301 -948 0
-305 -951 0
-306 -953 0
-307 -954 0
-302 -962 0
-303 -963 0
-304 -966 0
-305 -967 0
-306 -968 0
-307 -969 0
-302 -977 0
-304 -981 0
-306 -982 0
-307 -983 0
-302 -984 0
-305 -987 0
-306 -990 0
-307 -991 0
-301 -992 0
-305 -995 0
-306 -998 0
-307 -999 0
-301 -1000 0
-304 -1003 0
-305 -1004 0
-306 -1005 0
-307 -1006 0
-302 -1014 0
-303 -1015 0
-305 -1018 0
-306 -1020 0
-307 -1021 0
-302 -1029 0
-305 -1032 0
-306 -1034 0
-307 -1035 0
-302 -1036 0
-304 -1039 0
-305 -1040 0
-306 -1042 0
-307 -1043 0
-302 -1044 0
-305 -1047 0
-306 -1049 0
-307 -1050 0
-303 -1208 0
-304 -1211 0
-306 -1214 0
-307 -1215 0
-303 -1239 0
-305 -1242 0
-306 -1245 0
-307 -1246 0
-303 -1247 0
-304 -1249 0
-305 -1250 0
-306 -1252 0
-307 -1253 0
-304 -1270 0
-305 -1271 0
-306 -1273 0
-307 -1274 0
-306 -1280 0
-307 -1281 0
-304 -1284 0
-305 -1285 0
-306 -1287 0
-307 -1288 0
-301 -1289 0
-303 -1290 0
-304 -1292 0
-306 -1295 0
-307 -1296 0
-301 -1297 0
-303 -1298 0
-304 -1299 0
-305 -1300 0
-306 -1302 0
-307 -1303 0
-301 -1317 0
-304 -1321 0
-306 -1323 0
-307 -1324 0
-301 -1332 0
-304 -1335 0
-305 -1336 0
-306 -1337 0
-307 -1338 0
-301 -1339 0
-304 -1341 0
-306 -1344 0
-307 -1345 0
-302 -1346 0
-303 -1347 0
-304 -1349 0
-306 -1351 0
-307 -1352 0
-302 -1362 0
-304 -1365 0
-305 -1366 0
-306 -1368 0
-307 -1369 0
-302 -1370 0
-304 -1372 0
-306 -1375 0
-307 -1376 0
-302 -1377 0
-304 -1380 0
-306 -1383 0
-307 -1384 0
-302 -1385 0
-305 -1388 0
-306 -1390 0
-307 -1391 0
-303 -1392 0
-304 -1395 0
-305 -1396 0
-306 -1398 0
-307 -1399 0
-303 -1407 0
-304 -1410 0
-306 -1412 0
-307 -1413 0
-303 -1414 0
-305 -1417 0
-306 -1420 0
-307 -1421 0
-303 -1422 0
-304 -1425 0
-306 -1427 0
-307 -1428 0
-304 -1448 0
-305 -1449 0
-306 -1451 0
-307 -1452 0
-306 -1458 0
-307 -1459 0
-304 -1482 0
-305 -1483 0
-306 -1486 0
-307 -1487 0
-301 -1572 0
-303 -1573 0
-306 -1576 0
-307 -1577 0
-301 -1592 0
-304 -1594 0
-306 -1596 0
-307 -1597 0
-301 -1605 0
-305 -1607 0
-306 -1609 0
-307 -1610 0
-302 -1618 0
-305 -1621 0
-306 -1622 0
-307 -1623 0
-302 -1630 0
-304 -1632 0
-306 -1634 0
-307 -1635 0
-302 -1636 0
-304 -1637 0
-305 -1638 0
-306 -1640 0
-307 -1641 0
-303 -1681 0
-304 -1682 0
-306 -1685 0
-307 -1686 0
-304 -1697 0
-306 -1699 0
-307 -1700 0
-304 -1702 0
-305 -1703 0
-306 -1706 0
-307 -1707 0
-301 -1708 0
-305 -1710 0
-306 -1712 0
-307 -1713 0
-302 -1714 0
-304 -1715 0
-305 -1716 0
-306 -1718 0
-307 -1719 0
-303 -1720 0
-305 -1722 0
-306 -1724 0
-307 -1725 0
-303 -1726 0
-304 -1727 0
-306 -1730 0
-307 -1731 0
-305 -1740 0
-306 -1742 0
-307 -1743 0
-304 -1745 0
-305 -1746 0
-306 -1749 0
-307 -1750 0
-301 -1771 0
-304 -1773 0
-306 -1776 0
-307 -1777 0
-303 -1784 0
-305 -1786 0
-306 -1789 0
-307 -1790 0
-306 -1802 0
-307 -1803 0
-304 -1806 0
-305 -1807 0
-306 -1809 0
-307 -1810 0
-304 -1846 0
-305 -1847 0
-306 -1850 0
-307 -1851 0
-308 -437 0
-310 -438 0
-313 -440 0
-315 -442 0
-316 -443 0
-309 -485 0
-310 -486 0
-312 -487 0
-315 -490 0
-316 -491 0
-309 -500 0
-311 -501 0
-314 -503 0
-315 -505 0
-316 -506 0
-308 -541 0
-309 -542 0
-313 -543 0
-314 -544 0
-315 -546 0
-316 -547 0
-308 -562 0
-310 -563 0
-313 -564 0
-314 -565 0
-315 -567 0
-316 -568 0
-308 -576 0
-310 -577 0
-314 -580 0
-315 -582 0
-316 -583 0
-308 -600 0
-310 -601 0
-312 -603 0
-313 -605 0
-314 -606 0
-315 -608 0
-316 -609 0
-309 -616 0
-310 -617 0
-312 -618 0
-314 -620 0
-315 -621 0
-316 -622 0
-308 -623 0
-311 -624 0
-313 -626 0
-314 -627 0
-315 -628 0
-316 -629 0
-309 -630 0
-310 -631 0
-312 -633 0
-313 -634 0
-314 -635 0
-315 -636 0
-316 -637 0
-309 -647 0
-310 -648 0
-311 -649 0
-314 -650 0
-315 -652 0
-316 -653 0
-308 -654 0
-312 -656 0
-314 -658 0
-315 -659 0
-316 -660 0
-309 -667 0
-310 -668 0
-312 -670 0
-313 -672 0
-314 -673 0
-315 -675 0
-316 -676 0
-309 -677 0
-313 -679 0
-314 -680 0
-315 -682 0
-316 -683 0
-310 -742 0
-312 -743 0
-313 -744 0
-314 -745 0
-315 -747 0
-316 -748 0
-310 -757 0
-311 -758 0
-313 -760 0
-314 -761 0
-315 -762 0
-316 -763 0
-310 -772 0
-312 -774 0
-314 -776 0
-315 -777 0
-316 -778 0
-308 -786 0
-312 -787 0
-313 -788 0
-315 -790 0
-316 -791 0
-308 -833 0
-309 -834 0
-312 -835 0
-315 -837 0
-316 -838 0
-308 -862 0
-309 -863 0
-313 -864 0
-314 -865 0
-315 -867 0
-316 -868 0
-309 -876 0
-312 -877 0
-313 -879 0
-314 -880 0
-315 -881 0
-316 -882 0
-308 -883 0
-310 -884 0
-312 -886 0
-313 -887 0
-315 -888 0
-316 -889 0
-308 -900 0
-310 -901 0
-311 -902 0
-312 -903 0
-313 -904 0
-315 -906 0
-316 -907 0
-308 -914 0
-311 -915 0
-312 -917 0
-313 -919 0
-314 -920 0
-315 -922 0
-316 -923 0
-308 -940 0
-311 -941 0
-312 -943 0
-315 -946 0
-316 -947 0
-308 -955 0
-311 -956 0
-312 -957 0
-313 -959 0
-315 -960 0
-316 -961 0
-309 -962 0
-310 -963 0
-311 -964 0
-312 -965 0
-313 -967 0
-315 -968 0
-316 -969 0
-309 -970 0
-311 -971 0
-312 -973 0
-314 -974 0
-315 -975 0
-316 -976 0
-309 -984 0
-311 -985 0
-312 -986 0
-313 -987 0
-314 -988 0
-315 -990 0
-316 -991 0
-308 -992 0
-312 -994 0
-313 -995 0
-314 -996 0
-315 -998 0
-316 -999 0
-308 -1007 0
-311 -1008 0
-313 -1010 0
-314 -1011 0
-315 -1012 0
-316 -1013 0
-309 -1014 0
-310 -1015 0
-312 -1017 0
-313 -1018 0
-314 -1019 0
-315 -1020 0
-316 -1021 0
-309 -1022 0
-312 -1024 0
-313 -1026 0
-315 -1027 0
-316 -1028 0
-309 -1036 0
-311 -1037 0
-313 -1040 0
-315 -1042 0
-316 -1043 0
-309 -1051 0
-311 -1052 0
-312 -1054 0
-313 -1056 0
-314 -1057 0
-315 -1059 0
-316 -1060 0
-308 -1135 0
-313 -1137 0
-314 -1138 0
-315 -1139 0
-316 -1140 0
-309 -1169 0
-312 -1170 0
-314 -1171 0
-315 -1173 0
-316 -1174 0
-310 -1202 0
-311 -1203 0
-312 -1204 0
-315 -1206 0
-316 -1207 0
-311 -1223 0
-312 -1224 0
-314 -1226 0
-315 -1227 0
-316 -1228 0
-310 -1230 0
-312 -1232 0
-313 -1234 0
-314 -1235 0
-315 -1237 0
-316 -1238 0
-310 -1247 0
-311 -1248 0
-313 -1250 0
-314 -1251 0
-315 -1252 0
-316 -1253 0
-311 -1261 0
-313 -1264 0
-315 -1265 0
-316 -1266 0
-311 -1275 0
-312 -1277 0
-314 -1278 0
-315 -1280 0
-316 -1281 0
-308 -1297 0
-310 -1298 0
-313 -1300 0
-315 -1302 0
-316 -1303 0
-308 -1311 0
-314 -1313 0
-315 -1315 0
-316 -1316 0
-308 -1332 0
-312 -1334 0
-313 -1336 0
-315 -1337 0
-316 -1338 0
-309 -1346 0
-310 -1347 0
-312 -1348 0
-315 -1351 0
-316 -1352 0
-309 -1353 0
-312 -1355 0
-313 -1357 0
-314 -1358 0
-315 -1360 0
-316 -1361 0
-309 -1370 0
-311 -1371 0
-314 -1373 0
-315 -1375 0
-316 -1376 0
-309 -1385 0
-312 -1387 0
-313 -1388 0
-315 -1390 0
-316 -1391 0
-310 -1392 0
-312 -1394 0
-313 -1396 0
-315 -1398 0
-316 -1399 0
-310 -1400 0
-312 -1402 0
-314 -1403 0
-315 -1405 0
-316 -1406 0
-310 -1414 0
-311 -1415 0
-313 -1417 0
-314 -1418 0
-315 -1420 0
-316 -1421 0
-310 -1429 0
-311 -1430 0
-312 -1432 0
-315 -1434 0
-316 -1435 0
-311 -1445 0
-312 -1447 0
-313 -1449 0
-314 -1450 0
-315 -1451 0
-316 -1452 0
-311 -1460 0
-314 -1463 0
-315 -1465 0
-316 -1466 0
-310 -1467 0
-313 -1470 0
-314 -1471 0
-315 -1472 0
-316 -1473 0
-311 -1488 0
-312 -1490 0
-313 -1491 0
-315 -1493 0
-316 -1494 0
-310 -1535 0
-312 -1536 0
-313 -1538 0
-315 -1539 0
-316 -1540 0
-311 -1547 0
-313 -1548 0
-314 -1549 0
-315 -1551 0
-316 -1552 0
-312 -1560 0
-315 -1563 0
-316 -1564 0
-308 -1585 0
-312 -1586 0
-314 -1588 0
-315 -1590 0
-316 -1591 0
-308 -1605 0
-312 -1606 0
-313 -1607 0
-315 -1609 0
-316 -1610 0
-309 -1611 0
-312 -1612 0
-313 -1614 0
-314 -1615 0
-315 -1616 0
-316 -1617 0
-308 -1624 0
-313 -1626 0
-314 -1627 0
-315 -1628 0
-316 -1629 0
-309 -1636 0
-313 -1638 0
-315 -1640 0
-316 -1641 0
-309 -1642 0
-312 -1643 0
-314 -1644 0
-315 -1646 0
-316 -1647 0
-312 -1701 0
-313 -1703 0
-314 -1704 0
-315 -1706 0
-316 -1707 0
-310 -1726 0
-314 -1728 0
-315 -1730 0
-316 -1731 0
-310 -1732 0
-312 -1733 0
-313 -1735 0
-315 -1736 0
-316 -1737 0
-312 -1739 0
-313 -1740 0
-314 -1741 0
-315 -1742 0
-316 -1743 0
-311 -1751 0
-313 -1752 0
-314 -1753 0
-315 -1755 0
-316 -1756 0
-312 -1758 0
-315 -1761 0
-316 -1762 0
-310 -1784 0
-312 -1785 0
-313 -1786 0
-314 -1787 0
-315 -1789 0
-316 -1790 0
-312 -1792 0
-315 -1795 0
-316 -1796 0
-311 -1804 0
-312 -1805 0
-313 -1807 0
-315 -1809 0
-316 -1810 0
-311 -1812 0
-312 -1813 0
-314 -1815 0
-315 -1816 0
-316 -1817 0
-312 -1819 0
-313 -1820 0
-314 -1821 0
-315 -1822 0
-316 -1823 0
-312 -1853 0
-313 -1855 0
-314 -1856 0
-315 -1858 0
-316 -1859 0
-317 -437 0
-320 -440 0
-321 -441 0
-322 -442 0
-323 -443 0
-318 -444 0
-320 -447 0
-321 -449 0
-322 -450 0
-323 -451 0
-318 -477 0
-319 -479 0
-320 -482 0
-322 -483 0
-323 -484 0
-317 -525 0
-318 -526 0
-321 -530 0
-322 -531 0
-323 -532 0
-317 -556 0
-322 -560 0
-323 -561 0
-317 -576 0
-321 -581 0
-322 -582 0
-323 -583 0
-317 -584 0
-319 -586 0
-321 -590 0
-322 -591 0
-323 -592 0
-318 -593 0
-321 -597 0
-322 -598 0
-323 -599 0
-317 -610 0
-322 -614 0
-323 -615 0
-318 -616 0
-322 -621 0
-323 -622 0
-318 -647 0
-319 -649 0
-321 -651 0
-322 -652 0
-323 -653 0
-317 -654 0
-322 -659 0
-323 -660 0
-318 -661 0
-322 -665 0
-323 -666 0
-318 -684 0
-322 -688 0
-323 -689 0
-319 -735 0
-321 -739 0
-322 -740 0
-323 -741 0
-322 -777 0
-323 -778 0
-317 -786 0
-320 -788 0
-321 -789 0
-322 -790 0
-323 -791 0
-317 -792 0
-319 -793 0
-320 -795 0
-321 -797 0
-322 -798 0
-323 -799 0
-317 -800 0
-318 -801 0
-320 -805 0
-321 -807 0
-322 -808 0
-323 -809 0
-317 -826 0
-318 -827 0
-319 -828 0
-320 -829 0
-321 -830 0
-322 -831 0
-323 -832 0
-317 -854 0
-318 -855 0
-320 -858 0
-322 -860 0
-323 -861 0
-318 -869 0
-320 -871 0
-321 -873 0
-322 -874 0
-323 -875 0
-318 -876 0
-320 -879 0
-322 -881 0
-323 -882 0
-317 -883 0
-320 -887 0
-322 -888 0
-323 -889 0
-317 -890 0
-319 -892 0
-320 -896 0
-322 -898 0
-323 -899 0
-317 -914 0
-319 -915 0
-320 -919 0
-321 -921 0
-322 -922 0
-323 -923 0
-317 -924 0
-319 -925 0
-320 -927 0
-321 -928 0
-322 -929 0
-323 -930 0
-318 -931 0
-319 -933 0
-320 -936 0
-321 -937 0
-322 -938 0
-323 -939 0
-317 -948 0
-319 -949 0
-320 -951 0
-322 -953 0
-323 -954 0
-317 -955 0
-319 -956 0
-320 -959 0
-322 -960 0
-323 -961 0
-318 -962 0
-319 -964 0
-320 -967 0
-322 -968 0
-323 -969 0
-318 -984 0
-319 -985 0
-320 -987 0
-321 -989 0
-322 -990 0
-323 -991 0
-317 -992 0
-320 -995 0
-321 -997 0
-322 -998 0
-323 -999 0
-318 -1022 0
-320 -1026 0
-322 -1027 0
-323 -1028 0
-318 -1029 0
-319 -1030 0
-320 -1032 0
-322 -1034 0
-323 -1035 0
-318 -1044 0
-320 -1047 0
-321 -1048 0
-322 -1049 0
-323 -1050 0
-318 -1051 0
-319 -1052 0
-320 -1056 0
-321 -1058 0
-322 -1059 0
-323 -1060 0
-317 -1135 0
-320 -1137 0
-322 -1139 0
-323 -1140 0
-318 -1141 0
-320 -1143 0
-322 -1145 0
-323 -1146 0
-318 -1160 0
-319 -1161 0
-320 -1164 0
-321 -1166 0
-322 -1167 0
-323 -1168 0
-319 -1176 0
-320 -1178 0
-322 -1180 0
-323 -1181 0
-319 -1196 0
-320 -1198 0
-321 -1199 0
-322 -1200 0
-323 -1201 0
-320 -1234 0
-321 -1236 0
-322 -1237 0
-323 -1238 0
-319 -1240 0
-320 -1242 0
-321 -1244 0
-322 -1245 0
-323 -1246 0
-319 -1261 0
-320 -1264 0
-322 -1265 0
-323 -1266 0
-319 -1267 0
-320 -1271 0
-322 -1273 0
-323 -1274 0
-319 -1282 0
-320 -1285 0
-321 -1286 0
-322 -1287 0
-323 -1288 0
-317 -1289 0
-321 -1294 0
-322 -1295 0
-323 -1296 0
-317 -1311 0
-321 -1314 0
-322 -1315 0
-323 -1316 0
-317 -1317 0
-319 -1318 0
-321 -1322 0
-322 -1323 0
-323 -1324 0
-318 -1325 0
-321 -1329 0
-322 -1330 0
-323 -1331 0
-317 -1339 0
-321 -1343 0
-322 -1344 0
-323 -1345 0
-318 -1346 0
-321 -1350 0
-322 -1351 0
-323 -1352 0
-318 -1370 0
-319 -1371 0
-321 -1374 0
-322 -1375 0
-323 -1376 0
-318 -1377 0
-321 -1382 0
-322 -1383 0
-323 -1384 0
-321 -1404 0
-322 -1405 0
-323 -1406 0
-319 -1408 0
-321 -1411 0
-322 -1412 0
-323 -1413 0
-322 -1427 0
-323 -1428 0
-319 -1430 0
-322 -1434 0
-323 -1435 0
-319 -1453 0
-321 -1457 0
-322 -1458 0
-323 -1459 0
-319 -1460 0
-321 -1464 0
-322 -1465 0
-323 -1466 0
-321 -1498 0
-322 -1499 0
-323 -1500 0
-321 -1510 0
-322 -1511 0
-323 -1512 0
-319 -1530 0
-321 -1532 0
-322 -1533 0
-323 -1534 0
-321 -1562 0
-322 -1563 0
-323 -1564 0
-317 -1572 0
-322 -1576 0
-323 -1577 0
-317 -1585 0
-321 -1589 0
-322 -1590 0
-323 -1591 0
-317 -1592 0
-319 -1593 0
-321 -1595 0
-322 -1596 0
-323 -1597 0
-318 -1598 0
-321 -1602 0
-322 -1603 0
-323 -1604 0
-318 -1630 0
-322 -1634 0
-323 -1635 0
-318 -1642 0
-321 -1645 0
-322 -1646 0
-323 -1647 0
-321 -1684 0
-322 -1685 0
-323 -1686 0
-319 -1695 0
-322 -1699 0
-323 -1700 0
-317 -1708 0
-320 -1710 0
-321 -1711 0
-322 -1712 0
-323 -1713 0
-320 -1722 0
-321 -1723 0
-322 -1724 0
-323 -1725 0
-320 -1735 0
-322 -1736 0
-323 -1737 0
-320 -1746 0
-321 -1748 0
-322 -1749 0
-323 -1750 0
-319 -1751 0
-320 -1752 0
-321 -1754 0
-322 -1755 0
-323 -1756 0
-317 -1771 0
-321 -1775 0
-322 -1776 0
-323 -1777 0
-318 -1778 0
-321 -1781 0
-322 -1782 0
-323 -1783 0
-321 -1794 0
-322 -1795 0
-323 -1796 0
-319 -1797 0
-321 -1801 0
-322 -1802 0
-323 -1803 0
-319 -1812 0
-322 -1816 0
-323 -1817 0
-320 -1847 0
-321 -1849 0
-322 -1850 0
-323 -1851 0
-320 -1855 0
-321 -1857 0
-322 -1858 0
-323 -1859 0
-324 -525 0
-325 -526 0
-327 -528 0
-330 -529 0
-331 -530 0
-332 -531 0
-333 -532 0
-324 -541 0
-325 -542 0
-329 -543 0
-330 -544 0
-331 -545 0
-332 -546 0
-333 -547 0
-325 -548 0
-328 -550 0
-329 -551 0
-330 -552 0
-331 -553 0
-332 -554 0
-333 -555 0
-324 -556 0
-326 -558 0
-328 -559 0
-332 -560 0
-333 -561 0
-324 -576 0
-326 -578 0
-328 -579 0
-330 -580 0
-331 -581 0
-332 -582 0
-333 -583 0
-324 -584 0
-326 -587 0
-327 -588 0
-330 -589 0
-331 -590 0
-332 -591 0
-333 -592 0
-325 -593 0
-326 -595 0
-330 -596 0
-331 -597 0
-332 -598 0
-333 -599 0
-324 -600 0
-326 -602 0
-327 -603 0
-328 -604 0
-329 -605 0
-330 -606 0
-331 -607 0
-332 -608 0
-333 -609 0
-324 -623 0
-326 -625 0
-329 -626 0
-330 -627 0
-332 -628 0
-333 -629 0
-325 -630 0
-326 -632 0
-327 -633 0
-329 -634 0
-330 -635 0
-332 -636 0
-333 -637 0
-325 -638 0
-326 -641 0
-328 -642 0
-329 -643 0
-330 -644 0
-332 -645 0
-333 -646 0
-325 -667 0
-326 -669 0
-327 -670 0
-328 -671 0
-329 -672 0
-330 -673 0
-331 -674 0
-332 -675 0
-333 -676 0
-325 -684 0
-326 -685 0
-328 -686 0
-330 -687 0
-332 -688 0
-333 -689 0
-327 -736 0
-328 -737 0
-330 -738 0
-331 -739 0
-332 -740 0
-333 -741 0
-327 -743 0
-329 -744 0
-330 -745 0
-331 -746 0
-332 -747 0
-333 -748 0
-328 -759 0
-329 -760 0
-330 -761 0
-332 -762 0
-333 -763 0
-324 -786 0
-327 -787 0
-329 -788 0
-331 -789 0
-332 -790 0
-333 -791 0
-324 -792 0
-328 -794 0
-329 -795 0
-330 -796 0
-331 -797 0
-332 -798 0
-333 -799 0
-324 -800 0
-325 -801 0
-327 -803 0
-328 -804 0
-329 -805 0
-330 -806 0
-331 -807 0
-332 -808 0
-333 -809 0
-324 -826 0
-325 -827 0
-329 -829 0
-331 -830 0
-332 -831 0
-333 -832 0
-324 -833 0
-325 -834 0
-327 -835 0
-328 -836 0
-332 -837 0
-333 -838 0
-324 -839 0
-325 -840 0
-327 -842 0
-328 -843 0
-330 -844 0
-332 -845 0
-333 -846 0
-325 -847 0
-327 -849 0
-328 -850 0
-331 -851 0
-332 -852 0
-333 -853 0
-324 -862 0
-325 -863 0
-329 -864 0
-330 -865 0
-331 -866 0
-332 -867 0
-333 -868 0
-325 -876 0
-327 -877 0
-328 -878 0
-329 -879 0
-330 -880 0
-332 -881 0
-333 -882 0
-324 -883 0
-326 -885 0
-327 -886 0
-329 -887 0
-332 -888 0
-333 -889 0
-324 -890 0
-326 -893 0
-327 -894 0
-328 -895 0
-329 -896 0
-330 -897 0
-332 -898 0
-333 -899 0
-324 -914 0
-326 -916 0
-327 -917 0
-328 -918 0
-329 -919 0
-330 -920 0
-331 -921 0
-332 -922 0
-333 -923 0
-324 -924 0
-326 -926 0
-329 -927 0
-331 -928 0
-332 -929 0
-333 -930 0
-325 -931 0
-326 -934 0
-327 -935 0
-329 -936 0
-331 -937 0
-332 -938 0
-333 -939 0
-324 -940 0
-326 -942 0
-327 -943 0
-328 -944 0
-331 -945 0
-332 -946 0
-333 -947 0
-325 -970 0
-326 -972 0
-327 -973 0
-330 -974 0
-332 -975 0
-333 -976 0
-325 -977 0
-326 -979 0
-327 -980 0
-328 -981 0
-332 -982 0
-333 -983 0
-324 -1000 0
-326 -1001 0
-327 -1002 0
-328 -1003 0
-329 -1004 0
-332 -1005 0
-333 -1006 0
-324 -1007 0
-326 -1009 0
-329 -1010 0
-330 -1011 0
-332 -1012 0
-333 -1013 0
-325 -1014 0
-326 -1016 0
-327 -1017 0
-329 -1018 0
-330 -1019 0
-332 -1020 0
-333 -1021 0
-325 -1036 0
-326 -1038 0
-328 -1039 0
-329 -1040 0
-331 -1041 0
-332 -1042 0
-333 -1043 0
-325 -1044 0
-326 -1045 0
-327 -1046 0
-329 -1047 0
-331 -1048 0
-332 -1049 0
-333 -1050 0
-325 -1051 0
-326 -1053 0
-327 -1054 0
-328 -1055 0
-329 -1056 0
-330 -1057 0
-331 -1058 0
-332 -1059 0
-333 -1060 0
-327 -1177 0
-329 -1178 0
-330 -1179 0
-332 -1180 0
-333 -1181 0
-328 -1197 0
-329 -1198 0
-331 -1199 0
-332 -1200 0
-333 -1201 0
-327 -1204 0
-331 -1205 0
-332 -1206 0
-333 -1207 0
-327 -1210 0
-328 -1211 0
-330 -1212 0
-331 -1213 0
-332 -1214 0
-333 -1215 0
-327 -1224 0
-328 -1225 0
-330 -1226 0
-332 -1227 0
-333 -1228 0
-328 -1249 0
-329 -1250 0
-330 -1251 0
-332 -1252 0
-333 -1253 0
-327 -1283 0
-328 -1284 0
-329 -1285 0
-331 -1286 0
-332 -1287 0
-333 -1288 0
-324 -1289 0
-326 -1291 0
-328 -1292 0
-330 -1293 0
-331 -1294 0
-332 -1295 0
-333 -1296 0
-324 -1311 0
-326 -1312 0
-330 -1313 0
-331 -1314 0
-332 -1315 0
-333 -1316 0
-324 -1317 0
-326 -1319 0
-327 -1320 0
-328 -1321 0
-331 -1322 0
-332 -1323 0
-333 -1324 0
-325 -1325 0
-326 -1327 0
-328 -1328 0
-331 -1329 0
-332 -1330 0
-333 -1331 0
-324 -1332 0
-326 -1333 0
-327 -1334 0
-328 -1335 0
-329 -1336 0
-332 -1337 0
-333 -1338 0
-325 -1353 0
-326 -1354 0
-327 -1355 0
-328 -1356 0
-329 -1357 0
-330 -1358 0
-331 -1359 0
-332 -1360 0
-333 -1361 0
-325 -1362 0
-326 -1364 0
-328 -1365 0
-329 -1366 0
-331 -1367 0
-332 -1368 0
-333 -1369 0
-325 -1385 0
-326 -1386 0
-327 -1387 0
-329 -1388 0
-331 -1389 0
-332 -1390 0
-333 -1391 0
-326 -1401 0
-327 -1402 0
-330 -1403 0
-331 -1404 0
-332 -1405 0
-333 -1406 0
-326 -1409 0
-328 -1410 0
-331 -1411 0
-332 -1412 0
-333 -1413 0
-326 -1446 0
-327 -1447 0
-328 -1448 0
-329 -1449 0
-330 -1450 0
-332 -1451 0
-333 -1452 0
-326 -1468 0
-328 -1469 0
-329 -1470 0
-330 -1471 0
-332 -1472 0
-333 -1473 0
-326 -1481 0
-328 -1482 0
-329 -1483 0
-330 -1484 0
-331 -1485 0
-332 -1486 0
-333 -1487 0
-326 -1489 0
-327 -1490 0
-329 -1491 0
-331 -1492 0
-332 -1493 0
-333 -1494 0
-326 -1495 0
-327 -1496 0
-328 -1497 0
-331 -1498 0
-332 -1499 0
-333 -1500 0
-328 -1508 0
-330 -1509 0
-331 -1510 0
-332 -1511 0
-333 -1512 0
-327 -1531 0
-331 -1532 0
-332 -1533 0
-333 -1534 0
-327 -1536 0
-328 -1537 0
-329 -1538 0
-332 -1539 0
-333 -1540 0
-329 -1548 0
-330 -1549 0
-331 -1550 0
-332 -1551 0
-333 -1552 0
-324 -1572 0
-327 -1574 0
-330 -1575 0
-332 -1576 0
-333 -1577 0
-324 -1585 0
-327 -1586 0
-328 -1587 0
-330 -1588 0
-331 -1589 0
-332 -1590 0
-333 -1591 0
-324 -1592 0
-328 -1594 0
-331 -1595 0
-332 -1596 0
-333 -1597 0
-325 -1598 0
-327 -1600 0
-328 -1601 0
-331 -1602 0
-332 -1603 0
-333 -1604 0
-324 -1605 0
-327 -1606 0
-329 -1607 0
-331 -1608 0
-332 -1609 0
-333 -1610 0
-325 -1611 0
-327 -1612 0
-328 -1613 0
-329 -1614 0
-330 -1615 0
-332 -1616 0
-333 -1617 0
-325 -1618 0
-327 -1620 0
-329 -1621 0
-332 -1622 0
-333 -1623 0
-324 -1624 0
-328 -1625 0
-329 -1626 0
-330 -1627 0
-332 -1628 0
-333 -1629 0
-325 -1636 0
-328 -1637 0
-329 -1638 0
-331 -1639 0
-332 -1640 0
-333 -1641 0
-325 -1642 0
-327 -1643 0
-330 -1644 0
-331 -1645 0
-332 -1646 0
-333 -1647 0
-324 -1708 0
-327 -1709 0
-329 -1710 0
-331 -1711 0
-332 -1712 0
-333 -1713 0
-325 -1714 0
-328 -1715 0
-329 -1716 0
-331 -1717 0
-332 -1718 0
-333 -1719 0
-326 -1721 0
-329 -1722 0
-331 -1723 0
-332 -1724 0
-333 -1725 0
-326 -1738 0
-327 -1739 0
-329 -1740 0
-330 -1741 0
-332 -1742 0
-333 -1743 0
-326 -1757 0
-327 -1758 0
-328 -1759 0
-331 -1760 0
-332 -1761 0
-333 -1762 0
-324 -1771 0
-327 -1772 0
-328 -1773 0
-330 -1774 0
-331 -1775 0
-332 -1776 0
-333 -1777 0
-325 -1778 0
-327 -1779 0
-330 -1780 0
-331 -1781 0
-332 -1782 0
-333 -1783 0
-326 -1791 0
-327 -1792 0
-328 -1793 0
-331 -1794 0
-332 -1795 0
-333 -1796 0
-326 -1798 0
-327 -1799 0
-330 -1800 0
-331 -1801 0
-332 -1802 0
-333 -1803 0
-326 -1818 0
-327 -1819 0
-329 -1820 0
-330 -1821 0
-332 -1822 0
-333 -1823 0
-326 -1845 0
-328 -1846 0
-329 -1847 0
-330 -1848 0
-331 -1849 0
-332 -1850 0
-333 -1851 0
-334 -360 0
-338 -365 0
-339 -366 0
-334 -396 0
-336 -399 0
-338 -402 0
-339 -403 0
-335 -422 0
-338 -427 0
-339 -428 0
-334 -515 0
-335 -516 0
-336 -519 0
-337 -520 0
-338 -523 0
-339 -524 0
-334 -533 0
-335 -534 0
-337 -536 0
-338 -539 0
-339 -540 0
-335 -548 0
-337 -550 0
-338 -554 0
-339 -555 0
-334 -562 0
-338 -567 0
-339 -568 0
-334 -569 0
-338 -574 0
-339 -575 0
-334 -584 0
-336 -588 0
-338 -591 0
-339 -592 0
-335 -593 0
-338 -598 0
-339 -599 0
-334 -610 0
-336 -612 0
-338 -614 0
-339 -615 0
-334 -623 0
-338 -628 0
-339 -629 0
-335 -630 0
-336 -633 0
-338 -636 0
-339 -637 0
-335 -647 0
-338 -652 0
-339 -653 0
-335 -661 0
-336 -664 0
-338 -665 0
-339 -666 0
-335 -677 0
-338 -682 0
-339 -683 0
-336 -730 0
-338 -732 0
-339 -733 0
-336 -743 0
-338 -747 0
-339 -748 0
-338 -755 0
-339 -756 0
-334 -779 0
-336 -781 0
-337 -782 0
-338 -784 0
-339 -785 0
-334 -792 0
-337 -794 0
-338 -798 0
-339 -799 0
-334 -800 0
-335 -801 0
-336 -803 0
-337 -804 0
-338 -808 0
-339 -809 0
-334 -817 0
-335 -818 0
-337 -821 0
-338 -824 0
-339 -825 0
-334 -833 0
-335 -834 0
-336 -835 0
-337 -836 0
-338 -837 0
-339 -838 0
-335 -847 0
-336 -849 0
-337 -850 0
-338 -852 0
-339 -853 0
-334 -854 0
-335 -855 0
-337 -857 0
-338 -860 0
-339 -861 0
-335 -876 0
-336 -877 0
-337 -878 0
-338 -881 0
-339 -882 0
-334 -883 0
-336 -886 0
-338 -888 0
-339 -889 0
-334 -900 0
-336 -903 0
-338 -906 0
-339 -907 0
-334 -908 0
-336 -911 0
-338 -912 0
-339 -913 0
-334 -924 0
-338 -929 0
-339 -930 0
-335 -931 0
-336 -935 0
-338 -938 0
-339 -939 0
-334 -948 0
-336 -950 0
-338 -953 0
-339 -954 0
-335 -970 0
-336 -973 0
-338 -975 0
-339 -976 0
-335 -984 0
-336 -986 0
-338 -990 0
-339 -991 0
-334 -992 0
-336 -994 0
-338 -998 0
-339 -999 0
-334 -1007 0
-338 -1012 0
-339 -1013 0
-335 -1014 0
-336 -1017 0
-338 -1020 0
-339 -1021 0
-335 -1029 0
-338 -1034 0
-339 -1035 0
-335 -1044 0
-336 -1046 0
-338 -1049 0
-339 -1050 0
-335 -1061 0
-336 -1063 0
-338 -1065 0
-339 -1066 0
-334 -1073 0
-337 -1076 0
-338 -1078 0
-339 -1079 0
-334 -1107 0
-336 -1109 0
-337 -1110 0
-338 -1114 0
-339 -1115 0
-335 -1122 0
-337 -1124 0
-338 -1127 0
-339 -1128 0
-336 -1177 0
-338 -1180 0
-339 -1181 0
-338 -1193 0
-339 -1194 0
-336 -1204 0
-338 -1206 0
-339 -1207 0
-336 -1218 0
-338 -1221 0
-339 -1222 0
-338 -1245 0
-339 -1246 0
-336 -1277 0
-338 -1280 0
-339 -1281 0
-334 -1297 0
-337 -1299 0
-338 -1302 0
-339 -1303 0
-334 -1304 0
-337 -1306 0
-338 -1309 0
-339 -1310 0
-334 -1317 0
-336 -1320 0
-337 -1321 0
-338 -1323 0
-339 -1324 0
-335 -1325 0
-337 -1328 0
-338 -1330 0
-339 -1331 0
-334 -1339 0
-336 -1340 0
-337 -1341 0
-338 -1344 0
-339 -1345 0
-335 -1353 0
-336 -1355 0
-337 -1356 0
-338 -1360 0
-339 -1361 0
-335 -1370 0
-337 -1372 0
-338 -1375 0
-339 -1376 0
-335 -1377 0
-336 -1379 0
-337 -1380 0
-338 -1383 0
-339 -1384 0
-336 -1402 0
-338 -1405 0
-339 -1406 0
-338 -1420 0
-339 -1421 0
-336 -1455 0
-338 -1458 0
-339 -1459 0
-338 -1478 0
-339 -1479 0
-336 -1490 0
-338 -1493 0
-339 -1494 0
-336 -1502 0
-338 -1505 0
-339 -1506 0
-337 -1508 0
-338 -1511 0
-339 -1512 0
-336 -1522 0
-337 -1523 0
-338 -1527 0
-339 -1528 0
-336 -1536 0
-337 -1537 0
-338 -1539 0
-339 -1540 0
-337 -1543 0
-338 -1545 0
-339 -1546 0
-334 -1565 0
-335 -1566 0
-338 -1570 0
-339 -1571 0
-334 -1578 0
-336 -1580 0
-337 -1581 0
-338 -1583 0
-339 -1584 0
-334 -1592 0
-337 -1594 0
-338 -1596 0
-339 -1597 0
-335 -1598 0
-336 -1600 0
-337 -1601 0
-338 -1603 0
-339 -1604 0
-335 -1611 0
-336 -1612 0
-337 -1613 0
-338 -1616 0
-339 -1617 0
-334 -1624 0
-337 -1625 0
-338 -1628 0
-339 -1629 0
-335 -1630 0
-337 -1632 0
-338 -1634 0
-339 -1635 0
-337 -1669 0
-338 -1672 0
-339 -1673 0
-336 -1675 0
-337 -1676 0
-338 -1679 0
-339 -1680 0
-337 -1682 0
-338 -1685 0
-339 -1686 0
-336 -1701 0
-337 -1702 0
-338 -1706 0
-339 -1707 0
-334 -1708 0
-336 -1709 0
-338 -1712 0
-339 -1713 0
-337 -1727 0
-338 -1730 0
-339 -1731 0
-336 -1744 0
-337 -1745 0
-338 -1749 0
-339 -1750 0
-336 -1758 0
-337 -1759 0
-338 -1761 0
-339 -1762 0
-336 -1764 0
-338 -1768 0
-339 -1769 0
-335 -1778 0
-336 -1779 0
-338 -1782 0
-339 -1783 0
-336 -1792 0
-337 -1793 0
-338 -1795 0
-339 -1796 0
-336 -1805 0
-337 -1806 0
-338 -1809 0
-339 -1810 0
-336 -1824 0
-337 -1825 0
-338 -1829 0
-339 -1830 0
-338 -1842 0
-339 -1843 0
-341 -397 0
-342 -399 0
-345 -402 0
-346 -403 0
-343 -406 0
-344 -408 0
-345 -410 0
-346 -411 0
-342 -509 0
-344 -511 0
-345 -513 0
-346 -514 0
-340 -534 0
-343 -536 0
-344 -538 0
-345 -539 0
-346 -540 0
-340 -542 0
-344 -544 0
-345 -546 0
-346 -547 0
-341 -557 0
-343 -559 0
-345 -560 0
-346 -561 0
-341 -563 0
-344 -565 0
-345 -567 0
-346 -568 0
-341 -570 0
-344 -573 0
-345 -574 0
-346 -575 0
-341 -577 0
-343 -579 0
-344 -580 0
-345 -582 0
-346 -583 0
-341 -585 0
-342 -588 0
-344 -589 0
-345 -591 0
-346 -592 0
-340 -616 0
-341 -617 0
-342 -618 0
-343 -619 0
-344 -620 0
-345 -621 0
-346 -622 0
-340 -630 0
-341 -631 0
-342 -633 0
-344 -635 0
-345 -636 0
-346 -637 0
-340 -638 0
-341 -639 0
-343 -642 0
-344 -644 0
-345 -645 0
-346 -646 0
-340 -647 0
-341 -648 0
-344 -650 0
-345 -652 0
-346 -653 0
-342 -656 0
-343 -657 0
-344 -658 0
-345 -659 0
-346 -660 0
-340 -677 0
-344 -680 0
-345 -682 0
-346 -683 0
-340 -684 0
-343 -686 0
-344 -687 0
-345 -688 0
-346 -689 0
-341 -742 0
-342 -743 0
-344 -745 0
-345 -747 0
-346 -748 0
-341 -749 0
-344 -753 0
-345 -755 0
-346 -756 0
-341 -757 0
-343 -759 0
-344 -761 0
-345 -762 0
-346 -763 0
-342 -781 0
-343 -782 0
-344 -783 0
-345 -784 0
-346 -785 0
-342 -787 0
-345 -790 0
-346 -791 0
-343 -794 0
-344 -796 0
-345 -798 0
-346 -799 0
-340 -834 0
-342 -835 0
-343 -836 0
-345 -837 0
-346 -838 0
-340 -840 0
-342 -842 0
-343 -843 0
-344 -844 0
-345 -845 0
-346 -846 0
-341 -884 0
-342 -886 0
-345 -888 0
-346 -889 0
-341 -891 0
-342 -894 0
-343 -895 0
-344 -897 0
-345 -898 0
-346 -899 0
-341 -901 0
-342 -903 0
-345 -906 0
-346 -907 0
-342 -911 0
-345 -912 0
-346 -913 0
-342 -917 0
-343 -918 0
-344 -920 0
-345 -922 0
-346 -923 0
-345 -929 0
-346 -930 0
-340 -962 0
-341 -963 0
-342 -965 0
-343 -966 0
-345 -968 0
-346 -969 0
-340 -970 0
-342 -973 0
-344 -974 0
-345 -975 0
-346 -976 0
-340 -977 0
-342 -980 0
-343 -981 0
-345 -982 0
-346 -983 0
-340 -984 0
-342 -986 0
-344 -988 0
-345 -990 0
-346 -991 0
-342 -994 0
-344 -996 0
-345 -998 0
-346 -999 0
-342 -1002 0
-343 -1003 0
-345 -1005 0
-346 -1006 0
-344 -1011 0
-345 -1012 0
-346 -1013 0
-340 -1044 0
-342 -1046 0
-345 -1049 0
-346 -1050 0
-340 -1051 0
-342 -1054 0
-343 -1055 0
-344 -1057 0
-345 -1059 0
-346 -1060 0
-340 -1061 0
-342 -1063 0
-345 -1065 0
-346 -1066 0
-342 -1109 0
-343 -1110 0
-344 -1112 0
-345 -1114 0
-346 -1115 0
-341 -1202 0
-342 -1204 0
-345 -1206 0
-346 -1207 0
-341 -1208 0
-342 -1210 0
-343 -1211 0
-344 -1212 0
-345 -1214 0
-346 -1215 0
-342 -1218 0
-345 -1221 0
-346 -1222 0
-342 -1224 0
-343 -1225 0
-344 -1226 0
-345 -1227 0
-346 -1228 0
-342 -1277 0
-344 -1278 0
-345 -1280 0
-346 -1281 0
-342 -1283 0
-343 -1284 0
-345 -1287 0
-346 -1288 0
-341 -1290 0
-343 -1292 0
-344 -1293 0
-345 -1295 0
-346 -1296 0
-341 -1298 0
-343 -1299 0
-345 -1302 0
-346 -1303 0
-343 -1306 0
-345 -1309 0
-346 -1310 0
-344 -1313 0
-345 -1315 0
-346 -1316 0
-342 -1320 0
-343 -1321 0
-345 -1323 0
-346 -1324 0
-340 -1346 0
-341 -1347 0
-342 -1348 0
-343 -1349 0
-345 -1351 0
-346 -1352 0
-340 -1353 0
-342 -1355 0
-343 -1356 0
-344 -1358 0
-345 -1360 0
-346 -1361 0
-340 -1362 0
-343 -1365 0
-345 -1368 0
-346 -1369 0
-340 -1370 0
-343 -1372 0
-344 -1373 0
-345 -1375 0
-346 -1376 0
-341 -1392 0
-342 -1394 0
-343 -1395 0
-345 -1398 0
-346 -1399 0
-341 -1400 0
-342 -1402 0
-344 -1403 0
-345 -1405 0
-346 -1406 0
-341 -1407 0
-343 -1410 0
-345 -1412 0
-346 -1413 0
-341 -1414 0
-344 -1418 0
-345 -1420 0
-346 -1421 0
-341 -1467 0
-343 -1469 0
-344 -1471 0
-345 -1472 0
-346 -1473 0
-341 -1474 0
-345 -1478 0
-346 -1479 0
-343 -1482 0
-344 -1484 0
-345 -1486 0
-346 -1487 0
-342 -1490 0
-345 -1493 0
-346 -1494 0
-341 -1535 0
-342 -1536 0
-343 -1537 0
-345 -1539 0
-346 -1540 0
-343 -1543 0
-345 -1545 0
-346 -1546 0
-344 -1549 0
-345 -1551 0
-346 -1552 0
-341 -1573 0
-342 -1574 0
-344 -1575 0
-345 -1576 0
-346 -1577 0
-342 -1580 0
-343 -1581 0
-345 -1583 0
-346 -1584 0
-342 -1586 0
-343 -1587 0
-344 -1588 0
-345 -1590 0
-346 -1591 0
-343 -1594 0
-345 -1596 0
-346 -1597 0
-340 -1611 0
-342 -1612 0
-343 -1613 0
-344 -1615 0
-345 -1616 0
-346 -1617 0
-340 -1618 0
-342 -1620 0
-345 -1622 0
-346 -1623 0
-343 -1625 0
-344 -1627 0
-345 -1628 0
-346 -1629 0
-340 -1642 0
-342 -1643 0
-344 -1644 0
-345 -1646 0
-346 -1647 0
-342 -1675 0
-343 -1676 0
-345 -1679 0
-346 -1680 0
-342 -1701 0
-343 -1702 0
-344 -1704 0
-345 -1706 0
-346 -1707 0
-342 -1709 0
-345 -1712 0
-346 -1713 0
-340 -1714 0
-343 -1715 0
-345 -1718 0
-346 -1719 0
-341 -1720 0
-345 -1724 0
-346 -1725 0
-341 -1726 0
-343 -1727 0
-344 -1728 0
-345 -1730 0
-346 -1731 0
-342 -1758 0
-343 -1759 0
-345 -1761 0
-346 -1762 0
-342 -1772 0
-343 -1773 0
-344 -1774 0
-345 -1776 0
-346 -1777 0
-341 -1784 0
-342 -1785 0
-344 -1787 0
-345 -1789 0
-346 -1790 0
-342 -1792 0
-343 -1793 0
-345 -1795 0
-346 -1796 0
-342 -1799 0
-344 -1800 0
-345 -1802 0
-346 -1803 0
-342 -1805 0
-343 -1806 0
-345 -1809 0
-346 -1810 0
-342 -1819 0
-344 -1821 0
-345 -1822 0
-346 -1823 0
-342 -1824 0
-343 -1825 0
-344 -1827 0
-345 -1829 0
-346 -1830 0
-343 -1846 0
-344 -1848 0
-345 -1850 0
-346 -1851 0
-350 -364 0
-351 -365 0
-352 -366 0
-348 -387 0
-351 -388 0
-352 -389 0
-349 -510 0
-350 -512 0
-351 -513 0
-352 -514 0
-347 -516 0
-348 -520 0
-349 -521 0
-350 -522 0
-351 -523 0
-352 -524 0
-347 -526 0
-350 -530 0
-351 -531 0
-352 -532 0
-349 -572 0
-351 -574 0
-352 -575 0
-348 -579 0
-350 -581 0
-351 -582 0
-352 -583 0
-347 -593 0
-350 -597 0
-351 -598 0
-352 -599 0
-348 -604 0
-349 -605 0
-350 -607 0
-351 -608 0
-352 -609 0
-351 -614 0
-352 -615 0
-347 -616 0
-348 -619 0
-351 -621 0
-352 -622 0
-349 -626 0
-351 -628 0
-352 -629 0
-347 -638 0
-348 -642 0
-349 -643 0
-351 -645 0
-352 -646 0
-347 -647 0
-350 -651 0
-351 -652 0
-352 -653 0
-348 -657 0
-351 -659 0
-352 -660 0
-347 -661 0
-351 -665 0
-352 -666 0
-347 -667 0
-348 -671 0
-349 -672 0
-350 -674 0
-351 -675 0
-352 -676 0
-349 -731 0
-351 -732 0
-352 -733 0
-348 -737 0
-350 -739 0
-351 -740 0
-352 -741 0
-348 -782 0
-351 -784 0
-352 -785 0
-349 -788 0
-350 -789 0
-351 -790 0
-352 -791 0
-347 -801 0
-348 -804 0
-349 -805 0
-350 -807 0
-351 -808 0
-352 -809 0
-347 -818 0
-348 -821 0
-350 -823 0
-351 -824 0
-352 -825 0
-347 -827 0
-349 -829 0
-350 -830 0
-351 -831 0
-352 -832 0
-347 -840 0
-348 -843 0
-351 -845 0
-352 -846 0
-347 -855 0
-348 -857 0
-349 -858 0
-351 -860 0
-352 -861 0
-347 -863 0
-349 -864 0
-350 -866 0
-351 -867 0
-352 -868 0
-349 -887 0
-351 -888 0
-352 -889 0
-351 -912 0
-352 -913 0
-348 -918 0
-349 -919 0
-350 -921 0
-351 -922 0
-352 -923 0
-347 -931 0
-349 -936 0
-350 -937 0
-351 -938 0
-352 -939 0
-348 -944 0
-350 -945 0
-351 -946 0
-352 -947 0
-349 -951 0
-351 -953 0
-352 -954 0
-347 -962 0
-348 -966 0
-349 -967 0
-351 -968 0
-352 -969 0
-347 -977 0
-348 -981 0
-351 -982 0
-352 -983 0
-347 -984 0
-349 -987 0
-350 -989 0
-351 -990 0
-352 -991 0
-349 -995 0
-350 -997 0
-351 -998 0
-352 -999 0
-348 -1003 0
-349 -1004 0
-351 -1005 0
-352 -1006 0
-347 -1014 0
-349 -1018 0
-351 -1020 0
-352 -1021 0
-347 -1029 0
-349 -1032 0
-351 -1034 0
-352 -1035 0
-347 -1036 0
-348 -1039 0
-349 -1040 0
-350 -1041 0
-351 -1042 0
-352 -1043 0
-347 -1051 0
-348 -1055 0
-349 -1056 0
-350 -1058 0
-351 -1059 0
-352 -1060 0
-347 -1061 0
-349 -1064 0
-351 -1065 0
-352 -1066 0
-348 -1076 0
-351 -1078 0
-352 -1079 0
-350 -1097 0
-351 -1098 0
-352 -1099 0
-349 -1178 0
-351 -1180 0
-352 -1181 0
-351 -1193 0
-352 -1194 0
-348 -1197 0
-349 -1198 0
-350 -1199 0
-351 -1200 0
-352 -1201 0
-348 -1211 0
-350 -1213 0
-351 -1214 0
-352 -1215 0
-349 -1242 0
-350 -1244 0
-351 -1245 0
-352 -1246 0
-348 -1249 0
-349 -1250 0
-351 -1252 0
-352 -1253 0
-348 -1270 0
-349 -1271 0
-351 -1273 0
-352 -1274 0
-348 -1306 0
-349 -1307 0
-350 -1308 0
-351 -1309 0
-352 -1310 0
-350 -1314 0
-351 -1315 0
-352 -1316 0
-347 -1325 0
-348 -1328 0
-350 -1329 0
-351 -1330 0
-352 -1331 0
-348 -1335 0
-349 -1336 0
-351 -1337 0
-352 -1338 0
-348 -1341 0
-350 -1343 0
-351 -1344 0
-352 -1345 0
-347 -1346 0
-348 -1349 0
-350 -1350 0
-351 -1351 0
-352 -1352 0
-347 -1362 0
-348 -1365 0
-349 -1366 0
-350 -1367 0
-351 -1368 0
-352 -1369 0
-347 -1370 0
-348 -1372 0
-350 -1374 0
-351 -1375 0
-352 -1376 0
-347 -1377 0
-348 -1380 0
-350 -1382 0
-351 -1383 0
-352 -1384 0
-347 -1385 0
-349 -1388 0
-350 -1389 0
-351 -1390 0
-352 -1391 0
-350 -1404 0
-351 -1405 0
-352 -1406 0
-348 -1425 0
-351 -1427 0
-352 -1428 0
-348 -1448 0
-349 -1449 0
-351 -1451 0
-352 -1452 0
-350 -1457 0
-351 -1458 0
-352 -1459 0
-348 -1482 0
-349 -1483 0
-350 -1485 0
-351 -1486 0
-352 -1487 0
-348 -1497 0
-350 -1498 0
-351 -1499 0
-352 -1500 0
-349 -1503 0
-351 -1505 0
-352 -1506 0
-348 -1508 0
-350 -1510 0
-351 -1511 0
-352 -1512 0
-348 -1523 0
-349 -1524 0
-350 -1526 0
-351 -1527 0
-352 -1528 0
-350 -1532 0
-351 -1533 0
-352 -1534 0
-347 -1566 0
-349 -1567 0
-350 -1569 0
-351 -1570 0
-352 -1571 0
-348 -1581 0
-349 -1582 0
-351 -1583 0
-352 -1584 0
-348 -1587 0
-350 -1589 0
-351 -1590 0
-352 -1591 0
-347 -1598 0
-348 -1601 0
-350 -1602 0
-351 -1603 0
-352 -1604 0
-349 -1607 0
-350 -1608 0
-351 -1609 0
-352 -1610 0
-347 -1618 0
-349 -1621 0
-351 -1622 0
-352 -1623 0
-347 -1630 0
-348 -1632 0
-351 -1634 0
-352 -1635 0
-347 -1636 0
-348 -1637 0
-349 -1638 0
-350 -1639 0
-351 -1640 0
-352 -1641 0
-347 -1642 0
-350 -1645 0
-351 -1646 0
-352 -1647 0
-348 -1669 0
-349 -1670 0
-351 -1672 0
-352 -1673 0
-348 -1682 0
-350 -1684 0
-351 -1685 0
-352 -1686 0
-348 -1697 0
-351 -1699 0
-352 -1700 0
-347 -1714 0
-348 -1715 0
-349 -1716 0
-350 -1717 0
-351 -1718 0
-352 -1719 0
-349 -1740 0
-351 -1742 0
-352 -1743 0
-348 -1745 0
-349 -1746 0
-350 -1748 0
-351 -1749 0
-352 -1750 0
-349 -1765 0
-350 -1767 0
-351 -1768 0
-352 -1769 0
-347 -1778 0
-350 -1781 0
-351 -1782 0
-352 -1783 0
-348 -1793 0
-350 -1794 0
-351 -1795 0
-352 -1796 0
-349 -1839 0
-350 -1841 0
-351 -1842 0
-352 -1843 0
-353 -507 0
-355 -509 0
-357 -512 0
-358 -513 0
-359 -514 0
-353 -515 0
-354 -517 0
-355 -519 0
-356 -520 0
-357 -522 0
-358 -523 0
-359 -524 0
-353 -525 0
-354 -527 0
-355 -528 0
-357 -530 0
-358 -531 0
-359 -532 0
-353 -533 0
-356 -536 0
-358 -539 0
-359 -540 0
-353 -541 0
-357 -545 0
-358 -546 0
-359 -547 0
-354 -549 0
-356 -550 0
-357 -553 0
-358 -554 0
-359 -555 0
-353 -584 0
-354 -585 0
-355 -588 0
-357 -590 0
-358 -591 0
-359 -592 0
-353 -623 0
-358 -628 0
-359 -629 0
-354 -639 0
-356 -642 0
-358 -645 0
-359 -646 0
-354 -648 0
-357 -651 0
-358 -652 0
-359 -653 0
-353 -654 0
-355 -656 0
-356 -657 0
-358 -659 0
-359 -660 0
-354 -662 0
-355 -664 0
-358 -665 0
-359 -666 0
-354 -668 0
-355 -670 0
-356 -671 0
-357 -674 0
-358 -675 0
-359 -676 0
-357 -681 0
-358 -682 0
-359 -683 0
-356 -686 0
-358 -688 0
-359 -689 0
-353 -792 0
-356 -794 0
-357 -797 0
-358 -798 0
-359 -799 0
-353 -817 0
-356 -821 0
-357 -823 0
-358 -824 0
-359 -825 0
-353 -826 0
-357 -830 0
-358 -831 0
-359 -832 0
-353 -839 0
-355 -842 0
-356 -843 0
-358 -845 0
-359 -846 0
-355 -849 0
-356 -850 0
-357 -851 0
-358 -852 0
-359 -853 0
-353 -854 0
-356 -857 0
-358 -860 0
-359 -861 0
-353 -862 0
-357 -866 0
-358 -867 0
-359 -868 0
-357 -873 0
-358 -874 0
-359 -875 0
-355 -877 0
-356 -878 0
-358 -881 0
-359 -882 0
-353 -924 0
-357 -928 0
-358 -929 0
-359 -930 0
-353 -955 0
-355 -957 0
-356 -958 0
-358 -960 0
-359 -961 0
-355 -980 0
-356 -981 0
-358 -982 0
-359 -983 0
-355 -986 0
-357 -989 0
-358 -990 0
-359 -991 0
-353 -1007 0
-358 -1012 0
-359 -1013 0
-358 -1034 0
-359 -1035 0
-356 -1039 0
-357 -1041 0
-358 -1042 0
-359 -1043 0
-355 -1054 0
-356 -1055 0
-357 -1058 0
-358 -1059 0
-359 -1060 0
-355 -1063 0
-358 -1065 0
-359 -1066 0
-353 -1093 0
-355 -1095 0
-357 -1097 0
-358 -1098 0
-359 -1099 0
-356 -1124 0
-358 -1127 0
-359 -1128 0
-355 -1156 0
-358 -1158 0
-359 -1159 0
-355 -1162 0
-356 -1163 0
-357 -1166 0
-358 -1167 0
-359 -1168 0
-355 -1269 0
-356 -1270 0
-358 -1273 0
-359 -1274 0
-353 -1289 0
-354 -1290 0
-356 -1292 0
-357 -1294 0
-358 -1295 0
-359 -1296 0
-353 -1297 0
-354 -1298 0
-356 -1299 0
-357 -1301 0
-358 -1302 0
-359 -1303 0
-353 -1304 0
-356 -1306 0
-357 -1308 0
-358 -1309 0
-359 -1310 0
-353 -1311 0
-357 -1314 0
-358 -1315 0
-359 -1316 0
-354 -1326 0
-356 -1328 0
-357 -1329 0
-358 -1330 0
-359 -1331 0
-353 -1332 0
-355 -1334 0
-356 -1335 0
-358 -1337 0
-359 -1338 0
-353 -1339 0
-355 -1340 0
-356 -1341 0
-357 -1343 0
-358 -1344 0
-359 -1345 0
-354 -1347 0
-355 -1348 0
-356 -1349 0
-357 -1350 0
-358 -1351 0
-359 -1352 0
-355 -1355 0
-356 -1356 0
-357 -1359 0
-358 -1360 0
-359 -1361 0
-354 -1407 0
-356 -1410 0
-357 -1411 0
-358 -1412 0
-359 -1413 0
-354 -1414 0
-357 -1419 0
-358 -1420 0
-359 -1421 0
-354 -1429 0
-355 -1432 0
-356 -1433 0
-358 -1434 0
-359 -1435 0
-354 -1436 0
-355 -1438 0
-356 -1439 0
-357 -1442 0
-358 -1443 0
-359 -1444 0
-355 -1447 0
-356 -1448 0
-358 -1451 0
-359 -1452 0
-355 -1455 0
-357 -1457 0
-358 -1458 0
-359 -1459 0
-354 -1467 0
-356 -1469 0
-358 -1472 0
-359 -1473 0
-354 -1474 0
-357 -1477 0
-358 -1478 0
-359 -1479 0
-356 -1482 0
-357 -1485 0
-358 -1486 0
-359 -1487 0
-355 -1496 0
-356 -1497 0
-357 -1498 0
-358 -1499 0
-359 -1500 0
-355 -1502 0
-358 -1505 0
-359 -1506 0
-354 -1519 0
-355 -1522 0
-356 -1523 0
-357 -1526 0
-358 -1527 0
-359 -1528 0
-354 -1529 0
-355 -1531 0
-357 -1532 0
-358 -1533 0
-359 -1534 0
-356 -1543 0
-358 -1545 0
-359 -1546 0
-357 -1550 0
-358 -1551 0
-359 -1552 0
-355 -1554 0
-358 -1557 0
-359 -1558 0
-355 -1560 0
-356 -1561 0
-357 -1562 0
-358 -1563 0
-359 -1564 0
-353 -1565 0
-357 -1569 0
-358 -1570 0
-359 -1571 0
-353 -1592 0
-356 -1594 0
-357 -1595 0
-358 -1596 0
-359 -1597 0
-355 -1620 0
-358 -1622 0
-359 -1623 0
-353 -1624 0
-356 -1625 0
-358 -1628 0
-359 -1629 0
-356 -1632 0
-358 -1634 0
-359 -1635 0
-356 -1637 0
-357 -1639 0
-358 -1640 0
-359 -1641 0
-355 -1643 0
-357 -1645 0
-358 -1646 0
-359 -1647 0
-355 -1655 0
-356 -1656 0
-358 -1659 0
-359 -1660 0
-355 -1696 0
-356 -1697 0
-358 -1699 0
-359 -1700 0
-354 -1720 0
-357 -1723 0
-358 -1724 0
-359 -1725 0
-354 -1726 0
-356 -1727 0
-357 -1729 0
-358 -1730 0
-359 -1731 0
-354 -1732 0
-355 -1733 0
-356 -1734 0
-358 -1736 0
-359 -1737 0
-355 -1739 0
-358 -1742 0
-359 -1743 0
-355 -1744 0
-356 -1745 0
-357 -1748 0
-358 -1749 0
-359 -1750 0
-354 -1763 0
-355 -1764 0
-357 -1767 0
-358 -1768 0
-359 -1769 0
-353 -1771 0
-355 -1772 0
-356 -1773 0
-357 -1775 0
-358 -1776 0
-359 -1777 0
-355 -1779 0
-357 -1781 0
-358 -1782 0
-359 -1783 0
-355 -1799 0
-357 -1801 0
-358 -1802 0
-359 -1803 0
-355 -1805 0
-356 -1806 0
-357 -1808 0
-358 -1809 0
-359 -1810 0
-355 -1813 0
-356 -1814 0
-358 -1816 0
-359 -1817 0
-355 -1819 0
-358 -1822 0
-359 -1823 0
-355 -1824 0
-356 -1825 0
-357 -1828 0
-358 -1829 0
-359 -1830 0
-357 -1841 0
-358 -1842 0
-359 -1843 0
-362 -501 0
-363 -503 0
-364 -504 0
-365 -505 0
-366 -506 0
-360 -507 0
-363 -511 0
-364 -512 0
-365 -513 0
-366 -514 0
-360 -525 0
-361 -527 0
-363 -529 0
-364 -530 0
-365 -531 0
-366 -532 0
-360 -533 0
-363 -538 0
-365 -539 0
-366 -540 0
-361 -549 0
-363 -552 0
-364 -553 0
-365 -554 0
-366 -555 0
-360 -576 0
-361 -577 0
-363 -580 0
-364 -581 0
-365 -582 0
-366 -583 0
-360 -610 0
-361 -611 0
-363 -613 0
-365 -614 0
-366 -615 0
-360 -623 0
-362 -624 0
-363 -627 0
-365 -628 0
-366 -629 0
-361 -631 0
-363 -635 0
-365 -636 0
-366 -637 0
-361 -648 0
-362 -649 0
-363 -650 0
-364 -651 0
-365 -652 0
-366 -653 0
-360 -654 0
-363 -658 0
-365 -659 0
-366 -660 0
-361 -668 0
-363 -673 0
-364 -674 0
-365 -675 0
-366 -676 0
-363 -680 0
-364 -681 0
-365 -682 0
-366 -683 0
-360 -697 0
-361 -698 0
-363 -702 0
-364 -703 0
-365 -704 0
-366 -705 0
-361 -714 0
-363 -716 0
-365 -717 0
-366 -718 0
-361 -757 0
-362 -758 0
-363 -761 0
-365 -762 0
-366 -763 0
-361 -772 0
-363 -776 0
-365 -777 0
-366 -778 0
-360 -786 0
-364 -789 0
-365 -790 0
-366 -791 0
-360 -810 0
-364 -814 0
-365 -815 0
-366 -816 0
-360 -826 0
-362 -828 0
-364 -830 0
-365 -831 0
-366 -832 0
-360 -833 0
-365 -837 0
-366 -838 0
-362 -848 0
-364 -851 0
-365 -852 0
-366 -853 0
-360 -862 0
-363 -865 0
-364 -866 0
-365 -867 0
-366 -868 0
-363 -872 0
-364 -873 0
-365 -874 0
-366 -875 0
-363 -880 0
-365 -881 0
-366 -882 0
-360 -914 0
-362 -915 0
-363 -920 0
-364 -921 0
-365 -922 0
-366 -923 0
-360 -948 0
-362 -949 0
-363 -952 0
-365 -953 0
-366 -954 0
-362 -971 0
-363 -974 0
-365 -975 0
-366 -976 0
-362 -985 0
-363 -988 0
-364 -989 0
-365 -990 0
-366 -991 0
-360 -1000 0
-365 -1005 0
-366 -1006 0
-365 -1027 0
-366 -1028 0
-362 -1037 0
-364 -1041 0
-365 -1042 0
-366 -1043 0
-364 -1048 0
-365 -1049 0
-366 -1050 0
-362 -1062 0
-365 -1065 0
-366 -1066 0
-360 -1087 0
-362 -1088 0
-364 -1090 0
-365 -1091 0
-366 -1092 0
-362 -1117 0
-365 -1120 0
-366 -1121 0
-360 -1135 0
-363 -1138 0
-365 -1139 0
-366 -1140 0
-363 -1150 0
-365 -1151 0
-366 -1152 0
-362 -1161 0
-363 -1165 0
-364 -1166 0
-365 -1167 0
-366 -1168 0
-363 -1171 0
-364 -1172 0
-365 -1173 0
-366 -1174 0
-362 -1223 0
-363 -1226 0
-365 -1227 0
-366 -1228 0
-362 -1261 0
-365 -1265 0
-366 -1266 0
-362 -1282 0
-364 -1286 0
-365 -1287 0
-366 -1288 0
-360 -1297 0
-361 -1298 0
-364 -1301 0
-365 -1302 0
-366 -1303 0
-360 -1304 0
-364 -1308 0
-365 -1309 0
-366 -1310 0
-360 -1317 0
-362 -1318 0
-364 -1322 0
-365 -1323 0
-366 -1324 0
-361 -1326 0
-364 -1329 0
-365 -1330 0
-366 -1331 0
-360 -1332 0
-365 -1337 0
-366 -1338 0
-361 -1347 0
-364 -1350 0
-365 -1351 0
-366 -1352 0
-362 -1363 0
-364 -1367 0
-365 -1368 0
-366 -1369 0
-363 -1381 0
-364 -1382 0
-365 -1383 0
-366 -1384 0
-361 -1400 0
-363 -1403 0
-364 -1404 0
-365 -1405 0
-366 -1406 0
-361 -1414 0
-362 -1415 0
-363 -1418 0
-364 -1419 0
-365 -1420 0
-366 -1421 0
-361 -1422 0
-363 -1426 0
-365 -1427 0
-366 -1428 0
-361 -1436 0
-362 -1437 0
-363 -1441 0
-364 -1442 0
-365 -1443 0
-366 -1444 0
-362 -1445 0
-363 -1450 0
-365 -1451 0
-366 -1452 0
-362 -1460 0
-363 -1463 0
-364 -1464 0
-365 -1465 0
-366 -1466 0
-361 -1474 0
-364 -1477 0
-365 -1478 0
-366 -1479 0
-362 -1488 0
-364 -1492 0
-365 -1493 0
-366 -1494 0
-364 -1498 0
-365 -1499 0
-366 -1500 0
-361 -1513 0
-364 -1516 0
-365 -1517 0
-366 -1518 0
-361 -1529 0
-362 -1530 0
-364 -1532 0
-365 -1533 0
-366 -1534 0
-361 -1535 0
-365 -1539 0
-366 -1540 0
-362 -1541 0
-365 -1545 0
-366 -1546 0
-363 -1556 0
-365 -1557 0
-366 -1558 0
-360 -1585 0
-363 -1588 0
-364 -1589 0
-365 -1590 0
-366 -1591 0
-363 -1615 0
-365 -1616 0
-366 -1617 0
-364 -1639 0
-365 -1640 0
-366 -1641 0
-360 -1708 0
-364 -1711 0
-365 -1712 0
-366 -1713 0
-364 -1717 0
-365 -1718 0
-366 -1719 0
-361 -1726 0
-363 -1728 0
-364 -1729 0
-365 -1730 0
-366 -1731 0
-363 -1741 0
-365 -1742 0
-366 -1743 0
-362 -1751 0
-363 -1753 0
-364 -1754 0
-365 -1755 0
-366 -1756 0
-364 -1760 0
-365 -1761 0
-366 -1762 0
-363 -1780 0
-364 -1781 0
-365 -1782 0
-366 -1783 0
-364 -1794 0
-365 -1795 0
-366 -1796 0
-362 -1804 0
-364 -1808 0
-365 -1809 0
-366 -1810 0
-363 -1827 0
-364 -1828 0
-365 -1829 0
-366 -1830 0
-363 -1834 0
-364 -1835 0
-365 -1836 0
-366 -1837 0
-363 -1848 0
-364 -1849 0
-365 -1850 0
-366 -1851 0
-363 -1856 0
-364 -1857 0
-365 -1858 0
-366 -1859 0
-367 -525 0
-368 -527 0
-373 -530 0
-374 -531 0
-375 -532 0
-367 -541 0
-372 -543 0
-373 -545 0
-374 -546 0
-375 -547 0
-368 -549 0
-371 -550 0
-372 -551 0
-373 -553 0
-374 -554 0
-375 -555 0
-367 -562 0
-368 -563 0
-372 -564 0
-373 -566 0
-374 -567 0
-375 -568 0
-367 -610 0
-368 -611 0
-374 -614 0
-375 -615 0
-368 -617 0
-371 -619 0
-374 -621 0
-375 -622 0
-368 -648 0
-369 -649 0
-373 -651 0
-374 -652 0
-375 -653 0
-368 -668 0
-370 -669 0
-371 -671 0
-372 -672 0
-373 -674 0
-374 -675 0
-375 -676 0
-370 -685 0
-371 -686 0
-374 -688 0
-375 -689 0
-367 -786 0
-372 -788 0
-373 -789 0
-374 -790 0
-375 -791 0
-367 -792 0
-369 -793 0
-371 -794 0
-372 -795 0
-373 -797 0
-374 -798 0
-375 -799 0
-367 -800 0
-368 -802 0
-371 -804 0
-372 -805 0
-373 -807 0
-374 -808 0
-375 -809 0
-367 -826 0
-369 -828 0
-372 -829 0
-373 -830 0
-374 -831 0
-375 -832 0
-367 -833 0
-371 -836 0
-374 -837 0
-375 -838 0
-367 -839 0
-369 -841 0
-371 -843 0
-374 -845 0
-375 -846 0
-369 -848 0
-371 -850 0
-373 -851 0
-374 -852 0
-375 -853 0
-367 -854 0
-370 -856 0
-371 -857 0
-372 -858 0
-374 -860 0
-375 -861 0
-370 -870 0
-372 -871 0
-373 -873 0
-374 -874 0
-375 -875 0
-367 -900 0
-368 -901 0
-369 -902 0
-372 -904 0
-373 -905 0
-374 -906 0
-375 -907 0
-367 -948 0
-369 -949 0
-372 -951 0
-374 -953 0
-375 -954 0
-367 -955 0
-369 -956 0
-371 -958 0
-372 -959 0
-374 -960 0
-375 -961 0
-368 -963 0
-369 -964 0
-371 -966 0
-372 -967 0
-374 -968 0
-375 -969 0
-369 -985 0
-372 -987 0
-373 -989 0
-374 -990 0
-375 -991 0
-367 -1000 0
-370 -1001 0
-371 -1003 0
-372 -1004 0
-374 -1005 0
-375 -1006 0
-367 -1007 0
-369 -1008 0
-370 -1009 0
-372 -1010 0
-374 -1012 0
-375 -1013 0
-368 -1015 0
-370 -1016 0
-372 -1018 0
-374 -1020 0
-375 -1021 0
-369 -1037 0
-370 -1038 0
-371 -1039 0
-372 -1040 0
-373 -1041 0
-374 -1042 0
-375 -1043 0
-370 -1045 0
-372 -1047 0
-373 -1048 0
-374 -1049 0
-375 -1050 0
-369 -1052 0
-370 -1053 0
-371 -1055 0
-372 -1056 0
-373 -1058 0
-374 -1059 0
-375 -1060 0
-367 -1135 0
-371 -1136 0
-372 -1137 0
-374 -1139 0
-375 -1140 0
-368 -1142 0
-372 -1143 0
-374 -1145 0
-375 -1146 0
-369 -1161 0
-371 -1163 0
-372 -1164 0
-373 -1166 0
-374 -1167 0
-375 -1168 0
-373 -1172 0
-374 -1173 0
-375 -1174 0
-368 -1247 0
-369 -1248 0
-371 -1249 0
-372 -1250 0
-374 -1252 0
-375 -1253 0
-369 -1282 0
-371 -1284 0
-372 -1285 0
-373 -1286 0
-374 -1287 0
-375 -1288 0
-367 -1289 0
-368 -1290 0
-370 -1291 0
-371 -1292 0
-373 -1294 0
-374 -1295 0
-375 -1296 0
-367 -1311 0
-370 -1312 0
-373 -1314 0
-374 -1315 0
-375 -1316 0
-367 -1317 0
-369 -1318 0
-370 -1319 0
-371 -1321 0
-373 -1322 0
-374 -1323 0
-375 -1324 0
-368 -1326 0
-370 -1327 0
-371 -1328 0
-373 -1329 0
-374 -1330 0
-375 -1331 0
-367 -1332 0
-370 -1333 0
-371 -1335 0
-372 -1336 0
-374 -1337 0
-375 -1338 0
-370 -1354 0
-371 -1356 0
-372 -1357 0
-373 -1359 0
-374 -1360 0
-375 -1361 0
-369 -1363 0
-370 -1364 0
-371 -1365 0
-372 -1366 0
-373 -1367 0
-374 -1368 0
-375 -1369 0
-370 -1378 0
-371 -1380 0
-373 -1382 0
-374 -1383 0
-375 -1384 0
-368 -1392 0
-370 -1393 0
-371 -1395 0
-372 -1396 0
-373 -1397 0
-374 -1398 0
-375 -1399 0
-368 -1414 0
-369 -1415 0
-370 -1416 0
-372 -1417 0
-373 -1419 0
-374 -1420 0
-375 -1421 0
-368 -1422 0
-370 -1423 0
-371 -1425 0
-374 -1427 0
-375 -1428 0
-368 -1429 0
-369 -1430 0
-370 -1431 0
-371 -1433 0
-374 -1434 0
-375 -1435 0
-369 -1453 0
-370 -1454 0
-373 -1457 0
-374 -1458 0
-375 -1459 0
-369 -1460 0
-370 -1461 0
-371 -1462 0
-373 -1464 0
-374 -1465 0
-375 -1466 0
-368 -1467 0
-370 -1468 0
-371 -1469 0
-372 -1470 0
-374 -1472 0
-375 -1473 0
-370 -1481 0
-371 -1482 0
-372 -1483 0
-373 -1485 0
-374 -1486 0
-375 -1487 0
-369 -1488 0
-370 -1489 0
-372 -1491 0
-373 -1492 0
-374 -1493 0
-375 -1494 0
-370 -1495 0
-371 -1497 0
-373 -1498 0
-374 -1499 0
-375 -1500 0
-368 -1507 0
-371 -1508 0
-373 -1510 0
-374 -1511 0
-375 -1512 0
-368 -1529 0
-369 -1530 0
-373 -1532 0
-374 -1533 0
-375 -1534 0
-368 -1535 0
-371 -1537 0
-372 -1538 0
-374 -1539 0
-375 -1540 0
-369 -1547 0
-372 -1548 0
-373 -1550 0
-374 -1551 0
-375 -1552 0
-370 -1559 0
-371 -1561 0
-373 -1562 0
-374 -1563 0
-375 -1564 0
-367 -1624 0
-371 -1625 0
-372 -1626 0
-374 -1628 0
-375 -1629 0
-371 -1637 0
-372 -1638 0
-373 -1639 0
-374 -1640 0
-375 -1641 0
-373 -1645 0
-374 -1646 0
-375 -1647 0
-367 -1708 0
-372 -1710 0
-373 -1711 0
-374 -1712 0
-375 -1713 0
-371 -1715 0
-372 -1716 0
-373 -1717 0
-374 -1718 0
-375 -1719 0
-368 -1726 0
-371 -1727 0
-373 -1729 0
-374 -1730 0
-375 -1731 0
-368 -1732 0
-371 -1734 0
-372 -1735 0
-374 -1736 0
-375 -1737 0
-371 -1745 0
-372 -1746 0
-373 -1748 0
-374 -1749 0
-375 -1750 0
-369 -1751 0
-372 -1752 0
-373 -1754 0
-374 -1755 0
-375 -1756 0
-370 -1757 0
-371 -1759 0
-373 -1760 0
-374 -1761 0
-375 -1762 0
-367 -1771 0
-371 -1773 0
-373 -1775 0
-374 -1776 0
-375 -1777 0
-373 -1781 0
-374 -1782 0
-375 -1783 0
-368 -1784 0
-372 -1786 0
-373 -1788 0
-374 -1789 0
-375 -1790 0
-369 -1804 0
-371 -1806 0
-372 -1807 0
-373 -1808 0
-374 -1809 0
-375 -1810 0
-369 -1812 0
-371 -1814 0
-374 -1816 0
-375 -1817 0
-370 -1818 0
-372 -1820 0
-374 -1822 0
-375 -1823 0
-370 -1845 0
-371 -1846 0
-372 -1847 0
-373 -1849 0
-374 -1850 0
-375 -1851 0
-376 -515 0
-377 -517 0
-379 -520 0
-381 -523 0
-382 -524 0
-376 -533 0
-379 -536 0
-380 -538 0
-381 -539 0
-382 -540 0
-377 -549 0
-379 -550 0
-380 -552 0
-381 -554 0
-382 -555 0
-376 -556 0
-377 -557 0
-379 -559 0
-381 -560 0
-382 -561 0
-376 -600 0
-377 -601 0
-379 -604 0
-380 -606 0
-381 -608 0
-382 -609 0
-377 -617 0
-379 -619 0
-380 -620 0
-381 -621 0
-382 -622 0
-377 -639 0
-378 -640 0
-379 -642 0
-380 -644 0
-381 -645 0
-382 -646 0
-377 -662 0
-381 -665 0
-382 -666 0
-380 -680 0
-381 -682 0
-382 -683 0
-376 -779 0
-379 -782 0
-380 -783 0
-381 -784 0
-382 -785 0
-376 -792 0
-378 -793 0
-379 -794 0
-380 -796 0
-381 -798 0
-382 -799 0
-376 -800 0
-377 -802 0
-379 -804 0
-380 -806 0
-381 -808 0
-382 -809 0
-376 -817 0
-378 -819 0
-379 -821 0
-380 -822 0
-381 -824 0
-382 -825 0
-376 -833 0
-379 -836 0
-381 -837 0
-382 -838 0
-378 -848 0
-379 -850 0
-381 -852 0
-382 -853 0
-376 -862 0
-380 -865 0
-381 -867 0
-382 -868 0
-380 -872 0
-381 -874 0
-382 -875 0
-376 -890 0
-377 -891 0
-378 -892 0
-379 -895 0
-380 -897 0
-381 -898 0
-382 -899 0
-376 -940 0
-378 -941 0
-379 -944 0
-381 -946 0
-382 -947 0
-376 -955 0
-378 -956 0
-379 -958 0
-381 -960 0
-382 -961 0
-377 -963 0
-378 -964 0
-379 -966 0
-381 -968 0
-382 -969 0
-378 -978 0
-379 -981 0
-381 -982 0
-382 -983 0
-376 -992 0
-380 -996 0
-381 -998 0
-382 -999 0
-376 -1007 0
-378 -1008 0
-380 -1011 0
-381 -1012 0
-382 -1013 0
-377 -1015 0
-380 -1019 0
-381 -1020 0
-382 -1021 0
-378 -1030 0
-380 -1033 0
-381 -1034 0
-382 -1035 0
-381 -1049 0
-382 -1050 0
-378 -1062 0
-381 -1065 0
-382 -1066 0
-376 -1073 0
-377 -1074 0
-378 -1075 0
-379 -1076 0
-380 -1077 0
-381 -1078 0
-382 -1079 0
-376 -1107 0
-378 -1108 0
-379 -1110 0
-380 -1112 0
-381 -1114 0
-382 -1115 0
-378 -1123 0
-379 -1124 0
-380 -1126 0
-381 -1127 0
-382 -1128 0
-376 -1129 0
-380 -1131 0
-381 -1133 0
-382 -1134 0
-377 -1142 0
-380 -1144 0
-381 -1145 0
-382 -1146 0
-378 -1154 0
-380 -1157 0
-381 -1158 0
-382 -1159 0
-380 -1171 0
-381 -1173 0
-382 -1174 0
-377 -1208 0
-378 -1209 0
-379 -1211 0
-380 -1212 0
-381 -1214 0
-382 -1215 0
-377 -1239 0
-378 -1240 0
-380 -1243 0
-381 -1245 0
-382 -1246 0
-378 -1275 0
-380 -1278 0
-381 -1280 0
-382 -1281 0
-376 -1297 0
-377 -1298 0
-379 -1299 0
-381 -1302 0
-382 -1303 0
-376 -1304 0
-379 -1306 0
-381 -1309 0
-382 -1310 0
-376 -1317 0
-378 -1318 0
-379 -1321 0
-381 -1323 0
-382 -1324 0
-377 -1326 0
-379 -1328 0
-381 -1330 0
-382 -1331 0
-376 -1339 0
-379 -1341 0
-380 -1342 0
-381 -1344 0
-382 -1345 0
-379 -1356 0
-380 -1358 0
-381 -1360 0
-382 -1361 0
-378 -1371 0
-379 -1372 0
-380 -1373 0
-381 -1375 0
-382 -1376 0
-381 -1390 0
-382 -1391 0
-377 -1392 0
-379 -1395 0
-381 -1398 0
-382 -1399 0
-377 -1407 0
-378 -1408 0
-379 -1410 0
-381 -1412 0
-382 -1413 0
-377 -1422 0
-379 -1425 0
-380 -1426 0
-381 -1427 0
-382 -1428 0
-377 -1436 0
-378 -1437 0
-379 -1439 0
-380 -1441 0
-381 -1443 0
-382 -1444 0
-378 -1445 0
-379 -1448 0
-380 -1450 0
-381 -1451 0
-382 -1452 0
-378 -1460 0
-379 -1462 0
-380 -1463 0
-381 -1465 0
-382 -1466 0
-377 -1474 0
-381 -1478 0
-382 -1479 0
-378 -1488 0
-381 -1493 0
-382 -1494 0
-380 -1504 0
-381 -1505 0
-382 -1506 0
-377 -1507 0
-379 -1508 0
-380 -1509 0
-381 -1511 0
-382 -1512 0
-377 -1519 0
-378 -1520 0
-379 -1523 0
-380 -1525 0
-381 -1527 0
-382 -1528 0
-377 -1535 0
-379 -1537 0
-381 -1539 0
-382 -1540 0
-378 -1541 0
-379 -1543 0
-381 -1545 0
-382 -1546 0
-380 -1556 0
-381 -1557 0
-382 -1558 0
-376 -1565 0
-380 -1568 0
-381 -1570 0
-382 -1571 0
-376 -1572 0
-377 -1573 0
-380 -1575 0
-381 -1576 0
-382 -1577 0
-376 -1605 0
-381 -1609 0
-382 -1610 0
-378 -1619 0
-381 -1622 0
-382 -1623 0
-376 -1624 0
-379 -1625 0
-380 -1627 0
-381 -1628 0
-382 -1629 0
-379 -1632 0
-380 -1633 0
-381 -1634 0
-382 -1635 0
-379 -1656 0
-380 -1658 0
-381 -1659 0
-382 -1660 0
-377 -1681 0
-379 -1682 0
-380 -1683 0
-381 -1685 0
-382 -1686 0
-379 -1702 0
-380 -1704 0
-381 -1706 0
-382 -1707 0
-376 -1708 0
-381 -1712 0
-382 -1713 0
-377 -1720 0
-381 -1724 0
-382 -1725 0
-380 -1741 0
-381 -1742 0
-382 -1743 0
-378 -1751 0
-380 -1753 0
-381 -1755 0
-382 -1756 0
-379 -1759 0
-381 -1761 0
-382 -1762 0
-377 -1763 0
-380 -1766 0
-381 -1768 0
-382 -1769 0
-380 -1780 0
-381 -1782 0
-382 -1783 0
-377 -1784 0
-380 -1787 0
-381 -1789 0
-382 -1790 0
-378 -1797 0
-380 -1800 0
-381 -1802 0
-382 -1803 0
-379 -1825 0
-380 -1827 0
-381 -1829 0
-382 -1830 0
-378 -1838 0
-380 -1840 0
-381 -1842 0
-382 -1843 0
-384 -486 0
-386 -487 0
-387 -488 0
-388 -490 0
-389 -491 0
-383 -533 0
-387 -536 0
-388 -539 0
-389 -540 0
-383 -541 0
-388 -546 0
-389 -547 0
-384 -549 0
-387 -550 0
-388 -554 0
-389 -555 0
-383 -600 0
-384 -601 0
-386 -603 0
-387 -604 0
-388 -608 0
-389 -609 0
-383 -610 0
-384 -611 0
-386 -612 0
-388 -614 0
-389 -615 0
-384 -617 0
-386 -618 0
-387 -619 0
-388 -621 0
-389 -622 0
-384 -631 0
-386 -633 0
-388 -636 0
-389 -637 0
-388 -682 0
-389 -683 0
-387 -686 0
-388 -688 0
-389 -689 0
-384 -714 0
-388 -717 0
-389 -718 0
-384 -742 0
-386 -743 0
-388 -747 0
-389 -748 0
-383 -779 0
-386 -781 0
-387 -782 0
-388 -784 0
-389 -785 0
-383 -786 0
-386 -787 0
-388 -790 0
-389 -791 0
-383 -800 0
-384 -802 0
-386 -803 0
-387 -804 0
-388 -808 0
-389 -809 0
-383 -810 0
-386 -813 0
-388 -815 0
-389 -816 0
-383 -839 0
-385 -841 0
-386 -842 0
-387 -843 0
-388 -845 0
-389 -846 0
-385 -848 0
-386 -849 0
-387 -850 0
-388 -852 0
-389 -853 0
-383 -854 0
-387 -857 0
-388 -860 0
-389 -861 0
-383 -862 0
-388 -867 0
-389 -868 0
-388 -874 0
-389 -875 0
-383 -883 0
-384 -884 0
-386 -886 0
-388 -888 0
-389 -889 0
-383 -940 0
-385 -941 0
-386 -943 0
-387 -944 0
-388 -946 0
-389 -947 0
-383 -948 0
-385 -949 0
-386 -950 0
-388 -953 0
-389 -954 0
-384 -963 0
-385 -964 0
-386 -965 0
-387 -966 0
-388 -968 0
-389 -969 0
-385 -971 0
-386 -973 0
-388 -975 0
-389 -976 0
-383 -992 0
-386 -994 0
-388 -998 0
-389 -999 0
-383 -1000 0
-386 -1002 0
-387 -1003 0
-388 -1005 0
-389 -1006 0
-384 -1015 0
-386 -1017 0
-388 -1020 0
-389 -1021 0
-386 -1024 0
-387 -1025 0
-388 -1027 0
-389 -1028 0
-385 -1052 0
-386 -1054 0
-387 -1055 0
-388 -1059 0
-389 -1060 0
-385 -1062 0
-386 -1063 0
-388 -1065 0
-389 -1066 0
-383 -1067 0
-384 -1068 0
-386 -1069 0
-388 -1071 0
-389 -1072 0
-383 -1107 0
-385 -1108 0
-386 -1109 0
-387 -1110 0
-388 -1114 0
-389 -1115 0
-385 -1117 0
-386 -1118 0
-388 -1120 0
-389 -1121 0
-383 -1129 0
-388 -1133 0
-389 -1134 0
-383 -1135 0
-387 -1136 0
-388 -1139 0
-389 -1140 0
-384 -1142 0
-388 -1145 0
-389 -1146 0
-387 -1149 0
-388 -1151 0
-389 -1152 0
-384 -1202 0
-385 -1203 0
-386 -1204 0
-388 -1206 0
-389 -1207 0
-384 -1230 0
-386 -1232 0
-387 -1233 0
-388 -1237 0
-389 -1238 0
-385 -1275 0
-386 -1277 0
-388 -1280 0
-389 -1281 0
-385 -1282 0
-386 -1283 0
-387 -1284 0
-388 -1287 0
-389 -1288 0
-383 -1289 0
-384 -1290 0
-387 -1292 0
-388 -1295 0
-389 -1296 0
-383 -1297 0
-384 -1298 0
-387 -1299 0
-388 -1302 0
-389 -1303 0
-383 -1304 0
-387 -1306 0
-388 -1309 0
-389 -1310 0
-383 -1311 0
-388 -1315 0
-389 -1316 0
-384 -1326 0
-387 -1328 0
-388 -1330 0
-389 -1331 0
-385 -1363 0
-387 -1365 0
-388 -1368 0
-389 -1369 0
-385 -1371 0
-387 -1372 0
-388 -1375 0
-389 -1376 0
-386 -1379 0
-387 -1380 0
-388 -1383 0
-389 -1384 0
-386 -1387 0
-388 -1390 0
-389 -1391 0
-384 -1392 0
-386 -1394 0
-387 -1395 0
-388 -1398 0
-389 -1399 0
-384 -1400 0
-386 -1402 0
-388 -1405 0
-389 -1406 0
-384 -1429 0
-385 -1430 0
-386 -1432 0
-387 -1433 0
-388 -1434 0
-389 -1435 0
-384 -1436 0
-385 -1437 0
-386 -1438 0
-387 -1439 0
-388 -1443 0
-389 -1444 0
-385 -1445 0
-386 -1447 0
-387 -1448 0
-388 -1451 0
-389 -1452 0
-385 -1453 0
-386 -1455 0
-388 -1458 0
-389 -1459 0
-384 -1467 0
-387 -1469 0
-388 -1472 0
-389 -1473 0
-384 -1474 0
-388 -1478 0
-389 -1479 0
-387 -1482 0
-388 -1486 0
-389 -1487 0
-384 -1507 0
-387 -1508 0
-388 -1511 0
-389 -1512 0
-384 -1513 0
-388 -1517 0
-389 -1518 0
-385 -1541 0
-387 -1543 0
-388 -1545 0
-389 -1546 0
-385 -1547 0
-388 -1551 0
-389 -1552 0
-386 -1554 0
-388 -1557 0
-389 -1558 0
-386 -1560 0
-387 -1561 0
-388 -1563 0
-389 -1564 0
-383 -1605 0
-386 -1606 0
-388 -1609 0
-389 -1610 0
-386 -1612 0
-387 -1613 0
-388 -1616 0
-389 -1617 0
-386 -1643 0
-388 -1646 0
-389 -1647 0
-386 -1701 0
-387 -1702 0
-388 -1706 0
-389 -1707 0
-387 -1715 0
-388 -1718 0
-389 -1719 0
-384 -1732 0
-386 -1733 0
-387 -1734 0
-388 -1736 0
-389 -1737 0
-386 -1739 0
-388 -1742 0
-389 -1743 0
-386 -1744 0
-387 -1745 0
-388 -1749 0
-389 -1750 0
-383 -1771 0
-386 -1772 0
-387 -1773 0
-388 -1776 0
-389 -1777 0
-386 -1779 0
-388 -1782 0
-389 -1783 0
-384 -1784 0
-386 -1785 0
-388 -1789 0
-389 -1790 0
-386 -1792 0
-387 -1793 0
-388 -1795 0
-389 -1796 0
-385 -1812 0
-386 -1813 0
-387 -1814 0
-388 -1816 0
-389 -1817 0
-386 -1819 0
-388 -1822 0
-389 -1823 0
-386 -1824 0
-387 -1825 0
-388 -1829 0
-389 -1830 0
-386 -1831 0
-387 -1832 0
-388 -1836 0
-389 -1837 0
-387 -1846 0
-388 -1850 0
-389 -1851 0
-394 -513 0
-395 -514 0
-390 -534 0
-393 -536 0
-394 -539 0
-395 -540 0
-390 -542 0
-394 -546 0
-395 -547 0
-391 -601 0
-393 -604 0
-394 -608 0
-395 -609 0
-391 -611 0
-394 -614 0
-395 -615 0
-392 -624 0
-394 -628 0
-395 -629 0
-393 -657 0
-394 -659 0
-395 -660 0
-390 -677 0
-394 -682 0
-395 -683 0
-390 -684 0
-393 -686 0
-394 -688 0
-395 -689 0
-393 -782 0
-394 -784 0
-395 -785 0
-394 -790 0
-395 -791 0
-392 -793 0
-393 -794 0
-394 -798 0
-395 -799 0
-390 -834 0
-393 -836 0
-394 -837 0
-395 -838 0
-390 -840 0
-392 -841 0
-393 -843 0
-394 -845 0
-395 -846 0
-390 -855 0
-393 -857 0
-394 -860 0
-395 -861 0
-390 -863 0
-394 -867 0
-395 -868 0
-390 -876 0
-393 -878 0
-394 -881 0
-395 -882 0
-392 -941 0
-393 -944 0
-394 -946 0
-395 -947 0
-392 -949 0
-394 -953 0
-395 -954 0
-392 -956 0
-393 -958 0
-394 -960 0
-395 -961 0
-394 -998 0
-395 -999 0
-393 -1003 0
-394 -1005 0
-395 -1006 0
-392 -1008 0
-394 -1012 0
-395 -1013 0
-390 -1044 0
-394 -1049 0
-395 -1050 0
-390 -1051 0
-392 -1052 0
-393 -1055 0
-394 -1059 0
-395 -1060 0
-390 -1061 0
-392 -1062 0
-394 -1065 0
-395 -1066 0
-392 -1108 0
-393 -1110 0
-394 -1114 0
-395 -1115 0
-394 -1133 0
-395 -1134 0
-393 -1136 0
-394 -1139 0
-395 -1140 0
-390 -1169 0
-394 -1173 0
-395 -1174 0
-392 -1275 0
-394 -1280 0
-395 -1281 0
-392 -1282 0
-393 -1284 0
-394 -1287 0
-395 -1288 0
-391 -1290 0
-393 -1292 0
-394 -1295 0
-395 -1296 0
-391 -1298 0
-393 -1299 0
-394 -1302 0
-395 -1303 0
-393 -1306 0
-394 -1309 0
-395 -1310 0
-394 -1315 0
-395 -1316 0
-392 -1318 0
-393 -1321 0
-394 -1323 0
-395 -1324 0
-390 -1346 0
-391 -1347 0
-393 -1349 0
-394 -1351 0
-395 -1352 0
-390 -1353 0
-393 -1356 0
-394 -1360 0
-395 -1361 0
-390 -1362 0
-392 -1363 0
-393 -1365 0
-394 -1368 0
-395 -1369 0
-390 -1370 0
-392 -1371 0
-393 -1372 0
-394 -1375 0
-395 -1376 0
-390 -1377 0
-393 -1380 0
-394 -1383 0
-395 -1384 0
-390 -1385 0
-394 -1390 0
-395 -1391 0
-391 -1422 0
-393 -1425 0
-394 -1427 0
-395 -1428 0
-391 -1429 0
-392 -1430 0
-393 -1433 0
-394 -1434 0
-395 -1435 0
-391 -1436 0
-392 -1437 0
-393 -1439 0
-394 -1443 0
-395 -1444 0
-392 -1445 0
-393 -1448 0
-394 -1451 0
-395 -1452 0
-392 -1453 0
-394 -1458 0
-395 -1459 0
-392 -1460 0
-393 -1462 0
-394 -1465 0
-395 -1466 0
-391 -1467 0
-393 -1469 0
-394 -1472 0
-395 -1473 0
-391 -1474 0
-394 -1478 0
-395 -1479 0
-393 -1482 0
-394 -1486 0
-395 -1487 0
-392 -1488 0
-394 -1493 0
-395 -1494 0
-391 -1535 0
-393 -1537 0
-394 -1539 0
-395 -1540 0
-392 -1541 0
-393 -1543 0
-394 -1545 0
-395 -1546 0
-392 -1547 0
-394 -1551 0
-395 -1552 0
-394 -1557 0
-395 -1558 0
-393 -1561 0
-394 -1563 0
-395 -1564 0
-394 -1609 0
-395 -1610 0
-393 -1625 0
-394 -1628 0
-395 -1629 0
-390 -1642 0
-394 -1646 0
-395 -1647 0
-393 -1702 0
-394 -1706 0
-395 -1707 0
-394 -1712 0
-395 -1713 0
-390 -1714 0
-393 -1715 0
-394 -1718 0
-395 -1719 0
-391 -1732 0
-393 -1734 0
-394 -1736 0
-395 -1737 0
-394 -1742 0
-395 -1743 0
-393 -1745 0
-394 -1749 0
-395 -1750 0
-392 -1751 0
-394 -1755 0
-395 -1756 0
-393 -1759 0
-394 -1761 0
-395 -1762 0
-393 -1773 0
-394 -1776 0
-395 -1777 0
-392 -1812 0
-393 -1814 0
-394 -1816 0
-395 -1817 0
-394 -1822 0
-395 -1823 0
-393 -1825 0
-394 -1829 0
-395 -1830 0
-393 -1846 0
-394 -1850 0
-395 -1851 0
-397 -478 0
-398 -479 0
-399 -480 0
-400 -482 0
-402 -483 0
-403 -484 0
-396 -507 0
-399 -509 0
-400 -510 0
-401 -512 0
-402 -513 0
-403 -514 0
-396 -515 0
-397 -517 0
-399 -519 0
-400 -521 0
-401 -522 0
-402 -523 0
-403 -524 0
-396 -541 0
-400 -543 0
-401 -545 0
-402 -546 0
-403 -547 0
-397 -549 0
-400 -551 0
-401 -553 0
-402 -554 0
-403 -555 0
-396 -562 0
-397 -563 0
-400 -564 0
-401 -566 0
-402 -567 0
-403 -568 0
-396 -576 0
-397 -577 0
-401 -581 0
-402 -582 0
-403 -583 0
-396 -584 0
-397 -585 0
-398 -586 0
-399 -588 0
-401 -590 0
-402 -591 0
-403 -592 0
-397 -594 0
-401 -597 0
-402 -598 0
-403 -599 0
-397 -648 0
-398 -649 0
-401 -651 0
-402 -652 0
-403 -653 0
-396 -654 0
-399 -656 0
-402 -659 0
-403 -660 0
-397 -662 0
-399 -664 0
-402 -665 0
-403 -666 0
-402 -688 0
-403 -689 0
-396 -697 0
-397 -698 0
-399 -699 0
-400 -701 0
-401 -703 0
-402 -704 0
-403 -705 0
-397 -707 0
-399 -708 0
-400 -709 0
-401 -710 0
-402 -711 0
-403 -712 0
-397 -734 0
-398 -735 0
-399 -736 0
-401 -739 0
-402 -740 0
-403 -741 0
-397 -772 0
-399 -774 0
-402 -777 0
-403 -778 0
-396 -786 0
-399 -787 0
-400 -788 0
-401 -789 0
-402 -790 0
-403 -791 0
-396 -792 0
-398 -793 0
-400 -795 0
-401 -797 0
-402 -798 0
-403 -799 0
-396 -800 0
-397 -802 0
-399 -803 0
-400 -805 0
-401 -807 0
-402 -808 0
-403 -809 0
-396 -810 0
-399 -813 0
-401 -814 0
-402 -815 0
-403 -816 0
-396 -817 0
-398 -819 0
-401 -823 0
-402 -824 0
-403 -825 0
-398 -848 0
-399 -849 0
-401 -851 0
-402 -852 0
-403 -853 0
-396 -854 0
-400 -858 0
-402 -860 0
-403 -861 0
-399 -877 0
-400 -879 0
-402 -881 0
-403 -882 0
-396 -900 0
-397 -901 0
-398 -902 0
-399 -903 0
-400 -904 0
-401 -905 0
-402 -906 0
-403 -907 0
-396 -914 0
-398 -915 0
-399 -917 0
-400 -919 0
-401 -921 0
-402 -922 0
-403 -923 0
-396 -924 0
-398 -925 0
-400 -927 0
-401 -928 0
-402 -929 0
-403 -930 0
-397 -932 0
-398 -933 0
-399 -935 0
-400 -936 0
-401 -937 0
-402 -938 0
-403 -939 0
-398 -985 0
-399 -986 0
-400 -987 0
-401 -989 0
-402 -990 0
-403 -991 0
-396 -1000 0
-399 -1002 0
-400 -1004 0
-402 -1005 0
-403 -1006 0
-396 -1007 0
-398 -1008 0
-400 -1010 0
-402 -1012 0
-403 -1013 0
-397 -1015 0
-399 -1017 0
-400 -1018 0
-402 -1020 0
-403 -1021 0
-399 -1024 0
-400 -1026 0
-402 -1027 0
-403 -1028 0
-398 -1030 0
-400 -1032 0
-402 -1034 0
-403 -1035 0
-398 -1062 0
-399 -1063 0
-400 -1064 0
-402 -1065 0
-403 -1066 0
-396 -1087 0
-398 -1088 0
-401 -1090 0
-402 -1091 0
-403 -1092 0
-396 -1093 0
-398 -1094 0
-399 -1095 0
-401 -1097 0
-402 -1098 0
-403 -1099 0
-397 -1101 0
-398 -1102 0
-401 -1104 0
-402 -1105 0
-403 -1106 0
-396 -1135 0
-400 -1137 0
-402 -1139 0
-403 -1140 0
-397 -1142 0
-400 -1143 0
-402 -1145 0
-403 -1146 0
-402 -1151 0
-403 -1152 0
-398 -1154 0
-399 -1156 0
-402 -1158 0
-403 -1159 0
-397 -1195 0
-398 -1196 0
-400 -1198 0
-401 -1199 0
-402 -1200 0
-403 -1201 0
-397 -1247 0
-398 -1248 0
-400 -1250 0
-402 -1252 0
-403 -1253 0
-398 -1261 0
-400 -1264 0
-402 -1265 0
-403 -1266 0
-398 -1267 0
-399 -1269 0
-400 -1271 0
-402 -1273 0
-403 -1274 0
-396 -1289 0
-397 -1290 0
-401 -1294 0
-402 -1295 0
-403 -1296 0
-396 -1304 0
-400 -1307 0
-401 -1308 0
-402 -1309 0
-403 -1310 0
-396 -1339 0
-399 -1340 0
-401 -1343 0
-402 -1344 0
-403 -1345 0
-397 -1347 0
-399 -1348 0
-401 -1350 0
-402 -1351 0
-403 -1352 0
-399 -1355 0
-400 -1357 0
-401 -1359 0
-402 -1360 0
-403 -1361 0
-398 -1363 0
-400 -1366 0
-401 -1367 0
-402 -1368 0
-403 -1369 0
-397 -1392 0
-399 -1394 0
-400 -1396 0
-401 -1397 0
-402 -1398 0
-403 -1399 0
-397 -1400 0
-399 -1402 0
-401 -1404 0
-402 -1405 0
-403 -1406 0
-397 -1407 0
-398 -1408 0
-401 -1411 0
-402 -1412 0
-403 -1413 0
-397 -1436 0
-398 -1437 0
-399 -1438 0
-400 -1440 0
-401 -1442 0
-402 -1443 0
-403 -1444 0
-398 -1453 0
-399 -1455 0
-401 -1457 0
-402 -1458 0
-403 -1459 0
-398 -1460 0
-401 -1464 0
-402 -1465 0
-403 -1466 0
-397 -1467 0
-400 -1470 0
-402 -1472 0
-403 -1473 0
-399 -1502 0
-400 -1503 0
-402 -1505 0
-403 -1506 0
-397 -1507 0
-401 -1510 0
-402 -1511 0
-403 -1512 0
-397 -1513 0
-400 -1515 0
-401 -1516 0
-402 -1517 0
-403 -1518 0
-397 -1519 0
-398 -1520 0
-399 -1522 0
-400 -1524 0
-401 -1526 0
-402 -1527 0
-403 -1528 0
-398 -1547 0
-400 -1548 0
-401 -1550 0
-402 -1551 0
-403 -1552 0
-399 -1554 0
-400 -1555 0
-402 -1557 0
-403 -1558 0
-396 -1565 0
-400 -1567 0
-401 -1569 0
-402 -1570 0
-403 -1571 0
-396 -1585 0
-399 -1586 0
-401 -1589 0
-402 -1590 0
-403 -1591 0
-396 -1592 0
-398 -1593 0
-401 -1595 0
-402 -1596 0
-403 -1597 0
-397 -1599 0
-399 -1600 0
-401 -1602 0
-402 -1603 0
-403 -1604 0
-396 -1624 0
-400 -1626 0
-402 -1628 0
-403 -1629 0
-402 -1634 0
-403 -1635 0
-399 -1655 0
-400 -1657 0
-402 -1659 0
-403 -1660 0
-398 -1695 0
-399 -1696 0
-402 -1699 0
-403 -1700 0
-400 -1716 0
-401 -1717 0
-402 -1718 0
-403 -1719 0
-397 -1720 0
-400 -1722 0
-401 -1723 0
-402 -1724 0
-403 -1725 0
-399 -1744 0
-400 -1746 0
-401 -1748 0
-402 -1749 0
-403 -1750 0
-398 -1751 0
-400 -1752 0
-401 -1754 0
-402 -1755 0
-403 -1756 0
-397 -1763 0
-399 -1764 0
-400 -1765 0
-401 -1767 0
-402 -1768 0
-403 -1769 0
-396 -1771 0
-399 -1772 0
-401 -1775 0
-402 -1776 0
-403 -1777 0
-397 -1784 0
-399 -1785 0
-400 -1786 0
-401 -1788 0
-402 -1789 0
-403 -1790 0
-399 -1792 0
-401 -1794 0
-402 -1795 0
-403 -1796 0
-398 -1797 0
-399 -1799 0
-401 -1801 0
-402 -1802 0
-403 -1803 0
-399 -1819 0
-400 -1820 0
-402 -1822 0
-403 -1823 0
-399 -1831 0
-400 -1833 0
-401 -1835 0
-402 -1836 0
-403 -1837 0
-398 -1838 0
-400 -1839 0
-401 -1841 0
-402 -1842 0
-403 -1843 0
-399 -1853 0
-400 -1855 0
-401 -1857 0
-402 -1858 0
-403 -1859 0
-406 -446 0
-407 -447 0
-408 -448 0
-409 -449 0
-410 -450 0
-411 -451 0
-404 -515 0
-406 -520 0
-407 -521 0
-409 -522 0
-410 -523 0
-411 -524 0
-404 -525 0
-408 -529 0
-409 -530 0
-410 -531 0
-411 -532 0
-406 -550 0
-407 -551 0
-408 -552 0
-409 -553 0
-410 -554 0
-411 -555 0
-404 -556 0
-406 -559 0
-410 -560 0
-411 -561 0
-404 -562 0
-407 -564 0
-408 -565 0
-409 -566 0
-410 -567 0
-411 -568 0
-408 -596 0
-409 -597 0
-410 -598 0
-411 -599 0
-406 -619 0
-408 -620 0
-410 -621 0
-411 -622 0
-410 -665 0
-411 -666 0
-406 -671 0
-407 -672 0
-408 -673 0
-409 -674 0
-410 -675 0
-411 -676 0
-407 -709 0
-409 -710 0
-410 -711 0
-411 -712 0
-404 -779 0
-406 -782 0
-408 -783 0
-410 -784 0
-411 -785 0
-404 -786 0
-407 -788 0
-409 -789 0
-410 -790 0
-411 -791 0
-404 -792 0
-405 -793 0
-406 -794 0
-407 -795 0
-408 -796 0
-409 -797 0
-410 -798 0
-411 -799 0
-404 -810 0
-409 -814 0
-410 -815 0
-411 -816 0
-404 -817 0
-405 -819 0
-406 -821 0
-408 -822 0
-409 -823 0
-410 -824 0
-411 -825 0
-404 -826 0
-405 -828 0
-407 -829 0
-409 -830 0
-410 -831 0
-411 -832 0
-404 -833 0
-406 -836 0
-410 -837 0
-411 -838 0
-404 -839 0
-405 -841 0
-406 -843 0
-408 -844 0
-410 -845 0
-411 -846 0
-405 -848 0
-406 -850 0
-409 -851 0
-410 -852 0
-411 -853 0
-404 -883 0
-407 -887 0
-410 -888 0
-411 -889 0
-404 -890 0
-405 -892 0
-406 -895 0
-407 -896 0
-408 -897 0
-410 -898 0
-411 -899 0
-404 -900 0
-405 -902 0
-407 -904 0
-409 -905 0
-410 -906 0
-411 -907 0
-405 -933 0
-407 -936 0
-409 -937 0
-410 -938 0
-411 -939 0
-405 -964 0
-406 -966 0
-407 -967 0
-410 -968 0
-411 -969 0
-404 -992 0
-407 -995 0
-408 -996 0
-409 -997 0
-410 -998 0
-411 -999 0
-404 -1000 0
-406 -1003 0
-407 -1004 0
-410 -1005 0
-411 -1006 0
-404 -1007 0
-405 -1008 0
-407 -1010 0
-408 -1011 0
-410 -1012 0
-411 -1013 0
-406 -1025 0
-407 -1026 0
-410 -1027 0
-411 -1028 0
-405 -1030 0
-407 -1032 0
-408 -1033 0
-410 -1034 0
-411 -1035 0
-405 -1037 0
-406 -1039 0
-407 -1040 0
-409 -1041 0
-410 -1042 0
-411 -1043 0
-407 -1047 0
-409 -1048 0
-410 -1049 0
-411 -1050 0
-405 -1052 0
-406 -1055 0
-407 -1056 0
-408 -1057 0
-409 -1058 0
-410 -1059 0
-411 -1060 0
-405 -1062 0
-407 -1064 0
-410 -1065 0
-411 -1066 0
-404 -1067 0
-408 -1070 0
-410 -1071 0
-411 -1072 0
-404 -1073 0
-405 -1075 0
-406 -1076 0
-408 -1077 0
-410 -1078 0
-411 -1079 0
-405 -1102 0
-408 -1103 0
-409 -1104 0
-410 -1105 0
-411 -1106 0
-404 -1129 0
-408 -1131 0
-409 -1132 0
-410 -1133 0
-411 -1134 0
-404 -1135 0
-406 -1136 0
-407 -1137 0
-408 -1138 0
-410 -1139 0
-411 -1140 0
-406 -1149 0
-408 -1150 0
-410 -1151 0
-411 -1152 0
-405 -1154 0
-408 -1157 0
-410 -1158 0
-411 -1159 0
-405 -1161 0
-406 -1163 0
-407 -1164 0
-408 -1165 0
-409 -1166 0
-410 -1167 0
-411 -1168 0
-408 -1171 0
-409 -1172 0
-410 -1173 0
-411 -1174 0
-405 -1176 0
-407 -1178 0
-408 -1179 0
-410 -1180 0
-411 -1181 0
-406 -1233 0
-407 -1234 0
-408 -1235 0
-409 -1236 0
-410 -1237 0
-411 -1238 0
-405 -1240 0
-407 -1242 0
-408 -1243 0
-409 -1244 0
-410 -1245 0
-411 -1246 0
-405 -1248 0
-406 -1249 0
-407 -1250 0
-408 -1251 0
-410 -1252 0
-411 -1253 0
-404 -1304 0
-406 -1306 0
-407 -1307 0
-409 -1308 0
-410 -1309 0
-411 -1310 0
-404 -1311 0
-408 -1313 0
-409 -1314 0
-410 -1315 0
-411 -1316 0
-404 -1317 0
-405 -1318 0
-406 -1321 0
-409 -1322 0
-410 -1323 0
-411 -1324 0
-404 -1332 0
-406 -1335 0
-407 -1336 0
-410 -1337 0
-411 -1338 0
-404 -1339 0
-406 -1341 0
-408 -1342 0
-409 -1343 0
-410 -1344 0
-411 -1345 0
-406 -1356 0
-407 -1357 0
-408 -1358 0
-409 -1359 0
-410 -1360 0
-411 -1361 0
-405 -1363 0
-406 -1365 0
-407 -1366 0
-409 -1367 0
-410 -1368 0
-411 -1369 0
-405 -1371 0
-406 -1372 0
-408 -1373 0
-409 -1374 0
-410 -1375 0
-411 -1376 0
-408 -1403 0
-409 -1404 0
-410 -1405 0
-411 -1406 0
-405 -1408 0
-406 -1410 0
-409 -1411 0
-410 -1412 0
-411 -1413 0
-405 -1415 0
-407 -1417 0
-408 -1418 0
-409 -1419 0
-410 -1420 0
-411 -1421 0
-406 -1425 0
-408 -1426 0
-410 -1427 0
-411 -1428 0
-405 -1430 0
-406 -1433 0
-410 -1434 0
-411 -1435 0
-405 -1437 0
-406 -1439 0
-407 -1440 0
-408 -1441 0
-409 -1442 0
-410 -1443 0
-411 -1444 0
-406 -1482 0
-407 -1483 0
-408 -1484 0
-409 -1485 0
-410 -1486 0
-411 -1487 0
-405 -1488 0
-407 -1491 0
-409 -1492 0
-410 -1493 0
-411 -1494 0
-406 -1497 0
-409 -1498 0
-410 -1499 0
-411 -1500 0
-407 -1503 0
-408 -1504 0
-410 -1505 0
-411 -1506 0
-407 -1515 0
-409 -1516 0
-410 -1517 0
-411 -1518 0
-405 -1520 0
-406 -1523 0
-407 -1524 0
-408 -1525 0
-409 -1526 0
-410 -1527 0
-411 -1528 0
-405 -1530 0
-409 -1532 0
-410 -1533 0
-411 -1534 0
-406 -1537 0
-407 -1538 0
-410 -1539 0
-411 -1540 0
-407 -1555 0
-408 -1556 0
-410 -1557 0
-411 -1558 0
-406 -1561 0
-409 -1562 0
-410 -1563 0
-411 -1564 0
-404 -1565 0
-407 -1567 0
-408 -1568 0
-409 -1569 0
-410 -1570 0
-411 -1571 0
-404 -1572 0
-408 -1575 0
-410 -1576 0
-411 -1577 0
-406 -1601 0
-409 -1602 0
-410 -1603 0
-411 -1604 0
-404 -1624 0
-406 -1625 0
-407 -1626 0
-408 -1627 0
-410 -1628 0
-411 -1629 0
-406 -1632 0
-408 -1633 0
-410 -1634 0
-411 -1635 0
-406 -1637 0
-407 -1638 0
-409 -1639 0
-410 -1640 0
-411 -1641 0
-408 -1644 0
-409 -1645 0
-410 -1646 0
-411 -1647 0
-406 -1656 0
-407 -1657 0
-408 -1658 0
-410 -1659 0
-411 -1660 0
-406 -1682 0
-408 -1683 0
-409 -1684 0
-410 -1685 0
-411 -1686 0
-404 -1708 0
-407 -1710 0
-409 -1711 0
-410 -1712 0
-411 -1713 0
-406 -1715 0
-407 -1716 0
-409 -1717 0
-410 -1718 0
-411 -1719 0
-407 -1722 0
-409 -1723 0
-410 -1724 0
-411 -1725 0
-406 -1727 0
-408 -1728 0
-409 -1729 0
-410 -1730 0
-411 -1731 0
-406 -1734 0
-407 -1735 0
-410 -1736 0
-411 -1737 0
-406 -1759 0
-409 -1760 0
-410 -1761 0
-411 -1762 0
-407 -1765 0
-408 -1766 0
-409 -1767 0
-410 -1768 0
-411 -1769 0
-406 -1793 0
-409 -1794 0
-410 -1795 0
-411 -1796 0
-405 -1797 0
-408 -1800 0
-409 -1801 0
-410 -1802 0
-411 -1803 0
-405 -1804 0
-406 -1806 0
-407 -1807 0
-409 -1808 0
-410 -1809 0
-411 -1810 0
-405 -1812 0
-406 -1814 0
-408 -1815 0
-410 -1816 0
-411 -1817 0
-406 -1832 0
-407 -1833 0
-408 -1834 0
-409 -1835 0
-410 -1836 0
-411 -1837 0
-405 -1838 0
-407 -1839 0
-408 -1840 0
-409 -1841 0
-410 -1842 0
-411 -1843 0
-415 -509 0
-417 -510 0
-418 -511 0
-419 -512 0
-420 -513 0
-421 -514 0
-412 -516 0
-413 -517 0
-415 -519 0
-416 -520 0
-417 -521 0
-419 -522 0
-420 -523 0
-421 -524 0
-412 -526 0
-413 -527 0
-415 -528 0
-418 -529 0
-419 -530 0
-420 -531 0
-421 -532 0
-413 -557 0
-416 -559 0
-420 -560 0
-421 -561 0
-413 -563 0
-417 -564 0
-418 -565 0
-419 -566 0
-420 -567 0
-421 -568 0
-413 -585 0
-414 -586 0
-415 -588 0
-418 -589 0
-419 -590 0
-420 -591 0
-421 -592 0
-415 -656 0
-416 -657 0
-418 -658 0
-420 -659 0
-421 -660 0
-412 -661 0
-413 -662 0
-415 -664 0
-420 -665 0
-421 -666 0
-412 -667 0
-413 -668 0
-415 -670 0
-416 -671 0
-417 -672 0
-418 -673 0
-419 -674 0
-420 -675 0
-421 -676 0
-415 -781 0
-416 -782 0
-418 -783 0
-420 -784 0
-421 -785 0
-415 -787 0
-417 -788 0
-419 -789 0
-420 -790 0
-421 -791 0
-412 -801 0
-413 -802 0
-415 -803 0
-416 -804 0
-417 -805 0
-418 -806 0
-419 -807 0
-420 -808 0
-421 -809 0
-412 -818 0
-414 -819 0
-416 -821 0
-418 -822 0
-419 -823 0
-420 -824 0
-421 -825 0
-412 -827 0
-414 -828 0
-417 -829 0
-419 -830 0
-420 -831 0
-421 -832 0
-412 -840 0
-414 -841 0
-415 -842 0
-416 -843 0
-418 -844 0
-420 -845 0
-421 -846 0
-412 -869 0
-417 -871 0
-418 -872 0
-419 -873 0
-420 -874 0
-421 -875 0
-412 -876 0
-415 -877 0
-416 -878 0
-417 -879 0
-418 -880 0
-420 -881 0
-421 -882 0
-413 -891 0
-414 -892 0
-415 -894 0
-416 -895 0
-417 -896 0
-418 -897 0
-420 -898 0
-421 -899 0
-413 -901 0
-414 -902 0
-415 -903 0
-417 -904 0
-419 -905 0
-420 -906 0
-421 -907 0
-414 -925 0
-417 -927 0
-419 -928 0
-420 -929 0
-421 -930 0
-414 -956 0
-415 -957 0
-416 -958 0
-417 -959 0
-420 -960 0
-421 -961 0
-415 -994 0
-417 -995 0
-418 -996 0
-419 -997 0
-420 -998 0
-421 -999 0
-415 -1002 0
-416 -1003 0
-417 -1004 0
-420 -1005 0
-421 -1006 0
-412 -1014 0
-413 -1015 0
-415 -1017 0
-417 -1018 0
-418 -1019 0
-420 -1020 0
-421 -1021 0
-412 -1029 0
-414 -1030 0
-417 -1032 0
-418 -1033 0
-420 -1034 0
-421 -1035 0
-412 -1036 0
-414 -1037 0
-416 -1039 0
-417 -1040 0
-419 -1041 0
-420 -1042 0
-421 -1043 0
-412 -1051 0
-414 -1052 0
-415 -1054 0
-416 -1055 0
-417 -1056 0
-418 -1057 0
-419 -1058 0
-420 -1059 0
-421 -1060 0
-412 -1061 0
-414 -1062 0
-415 -1063 0
-417 -1064 0
-420 -1065 0
-421 -1066 0
-413 -1074 0
-414 -1075 0
-416 -1076 0
-418 -1077 0
-420 -1078 0
-421 -1079 0
-414 -1094 0
-415 -1095 0
-418 -1096 0
-419 -1097 0
-420 -1098 0
-421 -1099 0
-418 -1131 0
-419 -1132 0
-420 -1133 0
-421 -1134 0
-416 -1136 0
-417 -1137 0
-418 -1138 0
-420 -1139 0
-421 -1140 0
-412 -1141 0
-413 -1142 0
-417 -1143 0
-418 -1144 0
-420 -1145 0
-421 -1146 0
-412 -1153 0
-414 -1154 0
-415 -1156 0
-418 -1157 0
-420 -1158 0
-421 -1159 0
-412 -1160 0
-414 -1161 0
-415 -1162 0
-416 -1163 0
-417 -1164 0
-418 -1165 0
-419 -1166 0
-420 -1167 0
-421 -1168 0
-413 -1239 0
-414 -1240 0
-417 -1242 0
-418 -1243 0
-419 -1244 0
-420 -1245 0
-421 -1246 0
-413 -1247 0
-414 -1248 0
-416 -1249 0
-417 -1250 0
-418 -1251 0
-420 -1252 0
-421 -1253 0
-414 -1267 0
-415 -1269 0
-416 -1270 0
-417 -1271 0
-418 -1272 0
-420 -1273 0
-421 -1274 0
-416 -1306 0
-417 -1307 0
-419 -1308 0
-420 -1309 0
-421 -1310 0
-418 -1313 0
-419 -1314 0
-420 -1315 0
-421 -1316 0
-412 -1325 0
-413 -1326 0
-416 -1328 0
-419 -1329 0
-420 -1330 0
-421 -1331 0
-415 -1334 0
-416 -1335 0
-417 -1336 0
-420 -1337 0
-421 -1338 0
-415 -1340 0
-416 -1341 0
-418 -1342 0
-419 -1343 0
-420 -1344 0
-421 -1345 0
-412 -1346 0
-413 -1347 0
-415 -1348 0
-416 -1349 0
-419 -1350 0
-420 -1351 0
-421 -1352 0
-412 -1362 0
-414 -1363 0
-416 -1365 0
-417 -1366 0
-419 -1367 0
-420 -1368 0
-421 -1369 0
-412 -1370 0
-414 -1371 0
-416 -1372 0
-418 -1373 0
-419 -1374 0
-420 -1375 0
-421 -1376 0
-413 -1392 0
-415 -1394 0
-416 -1395 0
-417 -1396 0
-419 -1397 0
-420 -1398 0
-421 -1399 0
-413 -1407 0
-414 -1408 0
-416 -1410 0
-419 -1411 0
-420 -1412 0
-421 -1413 0
-413 -1414 0
-414 -1415 0
-417 -1417 0
-418 -1418 0
-419 -1419 0
-420 -1420 0
-421 -1421 0
-413 -1429 0
-414 -1430 0
-415 -1432 0
-416 -1433 0
-420 -1434 0
-421 -1435 0
-413 -1436 0
-414 -1437 0
-415 -1438 0
-416 -1439 0
-417 -1440 0
-418 -1441 0
-419 -1442 0
-420 -1443 0
-421 -1444 0
-414 -1460 0
-416 -1462 0
-418 -1463 0
-419 -1464 0
-420 -1465 0
-421 -1466 0
-416 -1482 0
-417 -1483 0
-418 -1484 0
-419 -1485 0
-420 -1486 0
-421 -1487 0
-415 -1496 0
-416 -1497 0
-419 -1498 0
-420 -1499 0
-421 -1500 0
-415 -1502 0
-417 -1503 0
-418 -1504 0
-420 -1505 0
-421 -1506 0
-413 -1507 0
-416 -1508 0
-418 -1509 0
-419 -1510 0
-420 -1511 0
-421 -1512 0
-413 -1519 0
-414 -1520 0
-415 -1522 0
-416 -1523 0
-417 -1524 0
-418 -1525 0
-419 -1526 0
-420 -1527 0
-421 -1528 0
-413 -1529 0
-414 -1530 0
-415 -1531 0
-419 -1532 0
-420 -1533 0
-421 -1534 0
-415 -1554 0
-417 -1555 0
-418 -1556 0
-420 -1557 0
-421 -1558 0
-415 -1560 0
-416 -1561 0
-419 -1562 0
-420 -1563 0
-421 -1564 0
-412 -1566 0
-417 -1567 0
-418 -1568 0
-419 -1569 0
-420 -1570 0
-421 -1571 0
-413 -1573 0
-415 -1574 0
-418 -1575 0
-420 -1576 0
-421 -1577 0
-414 -1593 0
-416 -1594 0
-419 -1595 0
-420 -1596 0
-421 -1597 0
-412 -1630 0
-416 -1632 0
-418 -1633 0
-420 -1634 0
-421 -1635 0
-412 -1636 0
-416 -1637 0
-417 -1638 0
-419 -1639 0
-420 -1640 0
-421 -1641 0
-412 -1642 0
-415 -1643 0
-418 -1644 0
-419 -1645 0
-420 -1646 0
-421 -1647 0
-412 -1654 0
-415 -1655 0
-416 -1656 0
-417 -1657 0
-418 -1658 0
-420 -1659 0
-421 -1660 0
-413 -1681 0
-416 -1682 0
-418 -1683 0
-419 -1684 0
-420 -1685 0
-421 -1686 0
-414 -1695 0
-415 -1696 0
-416 -1697 0
-418 -1698 0
-420 -1699 0
-421 -1700 0
-412 -1714 0
-416 -1715 0
-417 -1716 0
-419 -1717 0
-420 -1718 0
-421 -1719 0
-413 -1720 0
-417 -1722 0
-419 -1723 0
-420 -1724 0
-421 -1725 0
-413 -1726 0
-416 -1727 0
-418 -1728 0
-419 -1729 0
-420 -1730 0
-421 -1731 0
-413 -1732 0
-415 -1733 0
-416 -1734 0
-417 -1735 0
-420 -1736 0
-421 -1737 0
-414 -1751 0
-417 -1752 0
-418 -1753 0
-419 -1754 0
-420 -1755 0
-421 -1756 0
-413 -1763 0
-415 -1764 0
-417 -1765 0
-418 -1766 0
-419 -1767 0
-420 -1768 0
-421 -1769 0
-412 -1778 0
-415 -1779 0
-418 -1780 0
-419 -1781 0
-420 -1782 0
-421 -1783 0
-413 -1784 0
-415 -1785 0
-417 -1786 0
-418 -1787 0
-419 -1788 0
-420 -1789 0
-421 -1790 0
-414 -1797 0
-415 -1799 0
-418 -1800 0
-419 -1801 0
-420 -1802 0
-421 -1803 0
-414 -1804 0
-415 -1805 0
-416 -1806 0
-417 -1807 0
-419 -1808 0
-420 -1809 0
-421 -1810 0
-414 -1812 0
-415 -1813 0
-416 -1814 0
-418 -1815 0
-420 -1816 0
-421 -1817 0
-414 -1838 0
-417 -1839 0
-418 -1840 0
-419 -1841 0
-420 -1842 0
-421 -1843 0
-423 -438 0
-425 -440 0
-426 -441 0
-427 -442 0
-428 -443 0
-425 -510 0
-426 -512 0
-427 -513 0
-428 -514 0
-422 -526 0
-423 -527 0
-426 -530 0
-427 -531 0
-428 -532 0
-422 -542 0
-425 -543 0
-426 -545 0
-427 -546 0
-428 -547 0
-423 -563 0
-425 -564 0
-426 -566 0
-427 -567 0
-428 -568 0
-423 -577 0
-426 -581 0
-427 -582 0
-428 -583 0
-423 -611 0
-427 -614 0
-428 -615 0
-427 -659 0
-428 -660 0
-422 -667 0
-423 -668 0
-425 -672 0
-426 -674 0
-427 -675 0
-428 -676 0
-422 -684 0
-427 -688 0
-428 -689 0
-423 -698 0
-425 -701 0
-426 -703 0
-427 -704 0
-428 -705 0
-423 -772 0
-427 -777 0
-428 -778 0
-427 -784 0
-428 -785 0
-424 -793 0
-425 -795 0
-426 -797 0
-427 -798 0
-428 -799 0
-422 -801 0
-423 -802 0
-425 -805 0
-426 -807 0
-427 -808 0
-428 -809 0
-422 -811 0
-426 -814 0
-427 -815 0
-428 -816 0
-422 -827 0
-424 -828 0
-425 -829 0
-426 -830 0
-427 -831 0
-428 -832 0
-422 -834 0
-427 -837 0
-428 -838 0
-422 -855 0
-425 -858 0
-427 -860 0
-428 -861 0
-422 -869 0
-425 -871 0
-426 -873 0
-427 -874 0
-428 -875 0
-422 -876 0
-425 -879 0
-427 -881 0
-428 -882 0
-423 -884 0
-425 -887 0
-427 -888 0
-428 -889 0
-423 -901 0
-424 -902 0
-425 -904 0
-426 -905 0
-427 -906 0
-428 -907 0
-424 -915 0
-425 -919 0
-426 -921 0
-427 -922 0
-428 -923 0
-424 -949 0
-425 -951 0
-427 -953 0
-428 -954 0
-425 -995 0
-426 -997 0
-427 -998 0
-428 -999 0
-424 -1008 0
-425 -1010 0
-427 -1012 0
-428 -1013 0
-422 -1014 0
-423 -1015 0
-425 -1018 0
-427 -1020 0
-428 -1021 0
-422 -1022 0
-425 -1026 0
-427 -1027 0
-428 -1028 0
-422 -1036 0
-424 -1037 0
-425 -1040 0
-426 -1041 0
-427 -1042 0
-428 -1043 0
-422 -1044 0
-425 -1047 0
-426 -1048 0
-427 -1049 0
-428 -1050 0
-422 -1061 0
-424 -1062 0
-425 -1064 0
-427 -1065 0
-428 -1066 0
-423 -1068 0
-427 -1071 0
-428 -1072 0
-424 -1088 0
-426 -1090 0
-427 -1091 0
-428 -1092 0
-426 -1132 0
-427 -1133 0
-428 -1134 0
-422 -1141 0
-423 -1142 0
-425 -1143 0
-427 -1145 0
-428 -1146 0
-422 -1147 0
-427 -1151 0
-428 -1152 0
-422 -1160 0
-424 -1161 0
-425 -1164 0
-426 -1166 0
-427 -1167 0
-428 -1168 0
-422 -1169 0
-426 -1172 0
-427 -1173 0
-428 -1174 0
-423 -1230 0
-425 -1234 0
-426 -1236 0
-427 -1237 0
-428 -1238 0
-423 -1247 0
-424 -1248 0
-425 -1250 0
-427 -1252 0
-428 -1253 0
-424 -1261 0
-425 -1264 0
-427 -1265 0
-428 -1266 0
-424 -1282 0
-425 -1285 0
-426 -1286 0
-427 -1287 0
-428 -1288 0
-423 -1290 0
-426 -1294 0
-427 -1295 0
-428 -1296 0
-425 -1307 0
-426 -1308 0
-427 -1309 0
-428 -1310 0
-424 -1318 0
-426 -1322 0
-427 -1323 0
-428 -1324 0
-422 -1325 0
-423 -1326 0
-426 -1329 0
-427 -1330 0
-428 -1331 0
-425 -1336 0
-427 -1337 0
-428 -1338 0
-422 -1346 0
-423 -1347 0
-426 -1350 0
-427 -1351 0
-428 -1352 0
-422 -1353 0
-425 -1357 0
-426 -1359 0
-427 -1360 0
-428 -1361 0
-422 -1370 0
-424 -1371 0
-426 -1374 0
-427 -1375 0
-428 -1376 0
-422 -1377 0
-426 -1382 0
-427 -1383 0
-428 -1384 0
-423 -1392 0
-425 -1396 0
-426 -1397 0
-427 -1398 0
-428 -1399 0
-423 -1400 0
-426 -1404 0
-427 -1405 0
-428 -1406 0
-423 -1414 0
-424 -1415 0
-425 -1417 0
-426 -1419 0
-427 -1420 0
-428 -1421 0
-423 -1422 0
-427 -1427 0
-428 -1428 0
-423 -1436 0
-424 -1437 0
-425 -1440 0
-426 -1442 0
-427 -1443 0
-428 -1444 0
-424 -1453 0
-426 -1457 0
-427 -1458 0
-428 -1459 0
-423 -1467 0
-425 -1470 0
-427 -1472 0
-428 -1473 0
-424 -1488 0
-425 -1491 0
-426 -1492 0
-427 -1493 0
-428 -1494 0
-426 -1498 0
-427 -1499 0
-428 -1500 0
-423 -1507 0
-426 -1510 0
-427 -1511 0
-428 -1512 0
-423 -1513 0
-425 -1515 0
-426 -1516 0
-427 -1517 0
-428 -1518 0
-423 -1529 0
-424 -1530 0
-426 -1532 0
-427 -1533 0
-428 -1534 0
-423 -1535 0
-425 -1538 0
-427 -1539 0
-428 -1540 0
-424 -1547 0
-425 -1548 0
-426 -1550 0
-427 -1551 0
-428 -1552 0
-425 -1555 0
-427 -1557 0
-428 -1558 0
-426 -1589 0
-427 -1590 0
-428 -1591 0
-425 -1626 0
-427 -1628 0
-428 -1629 0
-422 -1636 0
-425 -1638 0
-426 -1639 0
-427 -1640 0
-428 -1641 0
-425 -1710 0
-426 -1711 0
-427 -1712 0
-428 -1713 0
-423 -1726 0
-426 -1729 0
-427 -1730 0
-428 -1731 0
-425 -1746 0
-426 -1748 0
-427 -1749 0
-428 -1750 0
-426 -1760 0
-427 -1761 0
-428 -1762 0
-426 -1775 0
-427 -1776 0
-428 -1777 0
-422 -1778 0
-426 -1781 0
-427 -1782 0
-428 -1783 0
-423 -1784 0
-425 -1786 0
-426 -1788 0
-427 -1789 0
-428 -1790 0
-426 -1794 0
-427 -1795 0
-428 -1796 0
-424 -1804 0
-425 -1807 0
-426 -1808 0
-427 -1809 0
-428 -1810 0
-425 -1820 0
-427 -1822 0
-428 -1823 0
-425 -1833 0
-426 -1835 0
-427 -1836 0
-428 -1837 0
-425 -1847 0
-426 -1849 0
-427 -1850 0
-428 -1851 0
-425 -1855 0
-426 -1857 0
-427 -1858 0
-428 -1859 0
-429 -507 0
-431 -508 0
-433 -511 0
-434 -512 0
-435 -513 0
-436 -514 0
-429 -515 0
-430 -517 0
-431 -518 0
-432 -520 0
-434 -522 0
-435 -523 0
-436 -524 0
-429 -533 0
-431 -535 0
-432 -536 0
-433 -538 0
-435 -539 0
-436 -540 0
-429 -562 0
-430 -563 0
-433 -565 0
-434 -566 0
-435 -567 0
-436 -568 0
-429 -576 0
-430 -577 0
-431 -578 0
-432 -579 0
-433 -580 0
-434 -581 0
-435 -582 0
-436 -583 0
-429 -584 0
-430 -585 0
-431 -587 0
-433 -589 0
-434 -590 0
-435 -591 0
-436 -592 0
-430 -594 0
-431 -595 0
-433 -596 0
-434 -597 0
-435 -598 0
-436 -599 0
-429 -610 0
-430 -611 0
-433 -613 0
-435 -614 0
-436 -615 0
-430 -617 0
-432 -619 0
-433 -620 0
-435 -621 0
-436 -622 0
-429 -623 0
-431 -625 0
-433 -627 0
-435 -628 0
-436 -629 0
-430 -631 0
-431 -632 0
-433 -635 0
-435 -636 0
-436 -637 0
-430 -639 0
-431 -641 0
-432 -642 0
-433 -644 0
-435 -645 0
-436 -646 0
-430 -668 0
-431 -669 0
-432 -671 0
-433 -673 0
-434 -674 0
-435 -675 0
-436 -676 0
-431 -685 0
-432 -686 0
-433 -687 0
-435 -688 0
-436 -689 0
-429 -697 0
-430 -698 0
-432 -700 0
-433 -702 0
-434 -703 0
-435 -704 0
-436 -705 0
-430 -707 0
-434 -710 0
-435 -711 0
-436 -712 0
-430 -714 0
-433 -716 0
-435 -717 0
-436 -718 0
-430 -734 0
-432 -737 0
-433 -738 0
-434 -739 0
-435 -740 0
-436 -741 0
-430 -757 0
-432 -759 0
-433 -761 0
-435 -762 0
-436 -763 0
-429 -786 0
-434 -789 0
-435 -790 0
-436 -791 0
-429 -792 0
-432 -794 0
-433 -796 0
-434 -797 0
-435 -798 0
-436 -799 0
-429 -800 0
-430 -802 0
-432 -804 0
-433 -806 0
-434 -807 0
-435 -808 0
-436 -809 0
-429 -810 0
-431 -812 0
-434 -814 0
-435 -815 0
-436 -816 0
-429 -817 0
-431 -820 0
-432 -821 0
-433 -822 0
-434 -823 0
-435 -824 0
-436 -825 0
-429 -833 0
-432 -836 0
-435 -837 0
-436 -838 0
-429 -839 0
-432 -843 0
-433 -844 0
-435 -845 0
-436 -846 0
-429 -862 0
-433 -865 0
-434 -866 0
-435 -867 0
-436 -868 0
-431 -870 0
-433 -872 0
-434 -873 0
-435 -874 0
-436 -875 0
-432 -878 0
-433 -880 0
-435 -881 0
-436 -882 0
-429 -900 0
-430 -901 0
-434 -905 0
-435 -906 0
-436 -907 0
-429 -914 0
-431 -916 0
-432 -918 0
-433 -920 0
-434 -921 0
-435 -922 0
-436 -923 0
-429 -924 0
-431 -926 0
-434 -928 0
-435 -929 0
-436 -930 0
-430 -932 0
-431 -934 0
-434 -937 0
-435 -938 0
-436 -939 0
-429 -948 0
-433 -952 0
-435 -953 0
-436 -954 0
-429 -955 0
-432 -958 0
-435 -960 0
-436 -961 0
-430 -963 0
-432 -966 0
-435 -968 0
-436 -969 0
-431 -972 0
-433 -974 0
-435 -975 0
-436 -976 0
-431 -979 0
-432 -981 0
-435 -982 0
-436 -983 0
-431 -1038 0
-432 -1039 0
-434 -1041 0
-435 -1042 0
-436 -1043 0
-435 -1065 0
-436 -1066 0
-429 -1087 0
-432 -1089 0
-434 -1090 0
-435 -1091 0
-436 -1092 0
-429 -1093 0
-433 -1096 0
-434 -1097 0
-435 -1098 0
-436 -1099 0
-430 -1101 0
-433 -1103 0
-434 -1104 0
-435 -1105 0
-436 -1106 0
-435 -1120 0
-436 -1121 0
-432 -1124 0
-433 -1126 0
-435 -1127 0
-436 -1128 0
-432 -1163 0
-433 -1165 0
-434 -1166 0
-435 -1167 0
-436 -1168 0
-430 -1195 0
-432 -1197 0
-434 -1199 0
-435 -1200 0
-436 -1201 0
-432 -1225 0
-433 -1226 0
-435 -1227 0
-436 -1228 0
-429 -1289 0
-430 -1290 0
-431 -1291 0
-432 -1292 0
-433 -1293 0
-434 -1294 0
-435 -1295 0
-436 -1296 0
-429 -1304 0
-431 -1305 0
-432 -1306 0
-434 -1308 0
-435 -1309 0
-436 -1310 0
-429 -1332 0
-431 -1333 0
-432 -1335 0
-435 -1337 0
-436 -1338 0
-431 -1378 0
-432 -1380 0
-433 -1381 0
-434 -1382 0
-435 -1383 0
-436 -1384 0
-430 -1392 0
-431 -1393 0
-432 -1395 0
-434 -1397 0
-435 -1398 0
-436 -1399 0
-430 -1400 0
-431 -1401 0
-433 -1403 0
-434 -1404 0
-435 -1405 0
-436 -1406 0
-430 -1407 0
-431 -1409 0
-432 -1410 0
-434 -1411 0
-435 -1412 0
-436 -1413 0
-430 -1422 0
-431 -1423 0
-432 -1425 0
-433 -1426 0
-435 -1427 0
-436 -1428 0
-430 -1429 0
-431 -1431 0
-432 -1433 0
-435 -1434 0
-436 -1435 0
-431 -1446 0
-432 -1448 0
-433 -1450 0
-435 -1451 0
-436 -1452 0
-430 -1474 0
-431 -1475 0
-434 -1477 0
-435 -1478 0
-436 -1479 0
-431 -1481 0
-432 -1482 0
-433 -1484 0
-434 -1485 0
-435 -1486 0
-436 -1487 0
-431 -1489 0
-434 -1492 0
-435 -1493 0
-436 -1494 0
-431 -1501 0
-433 -1504 0
-435 -1505 0
-436 -1506 0
-430 -1507 0
-432 -1508 0
-433 -1509 0
-434 -1510 0
-435 -1511 0
-436 -1512 0
-430 -1513 0
-431 -1514 0
-434 -1516 0
-435 -1517 0
-436 -1518 0
-430 -1519 0
-431 -1521 0
-432 -1523 0
-433 -1525 0
-434 -1526 0
-435 -1527 0
-436 -1528 0
-430 -1535 0
-432 -1537 0
-435 -1539 0
-436 -1540 0
-431 -1542 0
-432 -1543 0
-435 -1545 0
-436 -1546 0
-431 -1559 0
-432 -1561 0
-434 -1562 0
-435 -1563 0
-436 -1564 0
-429 -1565 0
-433 -1568 0
-434 -1569 0
-435 -1570 0
-436 -1571 0
-429 -1585 0
-432 -1587 0
-433 -1588 0
-434 -1589 0
-435 -1590 0
-436 -1591 0
-429 -1592 0
-432 -1594 0
-434 -1595 0
-435 -1596 0
-436 -1597 0
-430 -1599 0
-432 -1601 0
-434 -1602 0
-435 -1603 0
-436 -1604 0
-432 -1613 0
-433 -1615 0
-435 -1616 0
-436 -1617 0
-435 -1622 0
-436 -1623 0
-432 -1637 0
-434 -1639 0
-435 -1640 0
-436 -1641 0
-430 -1720 0
-431 -1721 0
-434 -1723 0
-435 -1724 0
-436 -1725 0
-430 -1732 0
-432 -1734 0
-435 -1736 0
-436 -1737 0
-431 -1738 0
-433 -1741 0
-435 -1742 0
-436 -1743 0
-431 -1757 0
-432 -1759 0
-434 -1760 0
-435 -1761 0
-436 -1762 0
-430 -1763 0
-433 -1766 0
-434 -1767 0
-435 -1768 0
-436 -1769 0
-429 -1771 0
-432 -1773 0
-433 -1774 0
-434 -1775 0
-435 -1776 0
-436 -1777 0
-430 -1784 0
-433 -1787 0
-434 -1788 0
-435 -1789 0
-436 -1790 0
-431 -1791 0
-432 -1793 0
-434 -1794 0
-435 -1795 0
-436 -1796 0
-431 -1798 0
-433 -1800 0
-434 -1801 0
-435 -1802 0
-436 -1803 0
-432 -1814 0
-433 -1815 0
-435 -1816 0
-436 -1817 0
-432 -1825 0
-433 -1827 0
-434 -1828 0
-435 -1829 0
-436 -1830 0
-432 -1832 0
-433 -1834 0
-434 -1835 0
-435 -1836 0
-436 -1837 0
-433 -1840 0
-434 -1841 0
-435 -1842 0
-436 -1843 0
-437 -507 0
-440 -510 0
-441 -512 0
-442 -513 0
-443 -514 0
-437 -525 0
-438 -527 0
-441 -530 0
-442 -531 0
-443 -532 0
-437 -541 0
-440 -543 0
-441 -545 0
-442 -546 0
-443 -547 0
-437 -556 0
-438 -557 0
-439 -559 0
-442 -560 0
-443 -561 0
-437 -569 0
-438 -570 0
-440 -572 0
-442 -574 0
-443 -575 0
-437 -584 0
-438 -585 0
-441 -590 0
-442 -591 0
-443 -592 0
-438 -594 0
-441 -597 0
-442 -598 0
-443 -599 0
-437 -600 0
-438 -601 0
-439 -604 0
-440 -605 0
-441 -607 0
-442 -608 0
-443 -609 0
-438 -617 0
-439 -619 0
-442 -621 0
-443 -622 0
-437 -623 0
-440 -626 0
-442 -628 0
-443 -629 0
-438 -631 0
-440 -634 0
-442 -636 0
-443 -637 0
-438 -648 0
-441 -651 0
-442 -652 0
-443 -653 0
-438 -662 0
-442 -665 0
-443 -666 0
-440 -679 0
-441 -681 0
-442 -682 0
-443 -683 0
-437 -690 0
-438 -691 0
-440 -694 0
-442 -695 0
-443 -696 0
-438 -707 0
-440 -709 0
-441 -710 0
-442 -711 0
-443 -712 0
-438 -714 0
-440 -715 0
-442 -717 0
-443 -718 0
-438 -727 0
-440 -731 0
-442 -732 0
-443 -733 0
-438 -749 0
-440 -752 0
-441 -754 0
-442 -755 0
-443 -756 0
-437 -779 0
-439 -782 0
-442 -784 0
-443 -785 0
-437 -792 0
-439 -794 0
-440 -795 0
-441 -797 0
-442 -798 0
-443 -799 0
-437 -800 0
-438 -802 0
-439 -804 0
-440 -805 0
-441 -807 0
-442 -808 0
-443 -809 0
-437 -810 0
-441 -814 0
-442 -815 0
-443 -816 0
-437 -826 0
-440 -829 0
-441 -830 0
-442 -831 0
-443 -832 0
-437 -833 0
-439 -836 0
-442 -837 0
-443 -838 0
-437 -854 0
-439 -857 0
-440 -858 0
-442 -860 0
-443 -861 0
-440 -871 0
-441 -873 0
-442 -874 0
-443 -875 0
-439 -878 0
-440 -879 0
-442 -881 0
-443 -882 0
-437 -890 0
-438 -891 0
-439 -895 0
-440 -896 0
-442 -898 0
-443 -899 0
-437 -908 0
-442 -912 0
-443 -913 0
-437 -924 0
-440 -927 0
-441 -928 0
-442 -929 0
-443 -930 0
-438 -932 0
-440 -936 0
-441 -937 0
-442 -938 0
-443 -939 0
-437 -940 0
-439 -944 0
-441 -945 0
-442 -946 0
-443 -947 0
-437 -955 0
-439 -958 0
-440 -959 0
-442 -960 0
-443 -961 0
-438 -963 0
-439 -966 0
-440 -967 0
-442 -968 0
-443 -969 0
-442 -975 0
-443 -976 0
-440 -987 0
-441 -989 0
-442 -990 0
-443 -991 0
-440 -1032 0
-442 -1034 0
-443 -1035 0
-439 -1055 0
-440 -1056 0
-441 -1058 0
-442 -1059 0
-443 -1060 0
-437 -1073 0
-438 -1074 0
-439 -1076 0
-442 -1078 0
-443 -1079 0
-437 -1080 0
-440 -1083 0
-442 -1085 0
-443 -1086 0
-437 -1093 0
-441 -1097 0
-442 -1098 0
-443 -1099 0
-438 -1101 0
-441 -1104 0
-442 -1105 0
-443 -1106 0
-437 -1107 0
-439 -1110 0
-440 -1111 0
-441 -1113 0
-442 -1114 0
-443 -1115 0
-440 -1119 0
-442 -1120 0
-443 -1121 0
-442 -1158 0
-443 -1159 0
-438 -1189 0
-442 -1193 0
-443 -1194 0
-438 -1208 0
-439 -1211 0
-441 -1213 0
-442 -1214 0
-443 -1215 0
-440 -1219 0
-441 -1220 0
-442 -1221 0
-443 -1222 0
-437 -1297 0
-438 -1298 0
-439 -1299 0
-440 -1300 0
-441 -1301 0
-442 -1302 0
-443 -1303 0
-437 -1311 0
-441 -1314 0
-442 -1315 0
-443 -1316 0
-437 -1339 0
-439 -1341 0
-441 -1343 0
-442 -1344 0
-443 -1345 0
-440 -1388 0
-441 -1389 0
-442 -1390 0
-443 -1391 0
-438 -1392 0
-439 -1395 0
-440 -1396 0
-441 -1397 0
-442 -1398 0
-443 -1399 0
-438 -1400 0
-441 -1404 0
-442 -1405 0
-443 -1406 0
-438 -1414 0
-440 -1417 0
-441 -1419 0
-442 -1420 0
-443 -1421 0
-438 -1422 0
-439 -1425 0
-442 -1427 0
-443 -1428 0
-438 -1436 0
-439 -1439 0
-440 -1440 0
-441 -1442 0
-442 -1443 0
-443 -1444 0
-441 -1457 0
-442 -1458 0
-443 -1459 0
-438 -1467 0
-439 -1469 0
-440 -1470 0
-442 -1472 0
-443 -1473 0
-440 -1491 0
-441 -1492 0
-442 -1493 0
-443 -1494 0
-439 -1497 0
-441 -1498 0
-442 -1499 0
-443 -1500 0
-438 -1507 0
-439 -1508 0
-441 -1510 0
-442 -1511 0
-443 -1512 0
-438 -1513 0
-440 -1515 0
-441 -1516 0
-442 -1517 0
-443 -1518 0
-438 -1529 0
-441 -1532 0
-442 -1533 0
-443 -1534 0
-438 -1535 0
-439 -1537 0
-440 -1538 0
-442 -1539 0
-443 -1540 0
-440 -1548 0
-441 -1550 0
-442 -1551 0
-443 -1552 0
-440 -1555 0
-442 -1557 0
-443 -1558 0
-437 -1572 0
-438 -1573 0
-442 -1576 0
-443 -1577 0
-437 -1578 0
-439 -1581 0
-440 -1582 0
-442 -1583 0
-443 -1584 0
-437 -1592 0
-439 -1594 0
-441 -1595 0
-442 -1596 0
-443 -1597 0
-438 -1599 0
-439 -1601 0
-441 -1602 0
-442 -1603 0
-443 -1604 0
-437 -1605 0
-440 -1607 0
-441 -1608 0
-442 -1609 0
-443 -1610 0
-439 -1613 0
-440 -1614 0
-442 -1616 0
-443 -1617 0
-439 -1632 0
-442 -1634 0
-443 -1635 0
-441 -1645 0
-442 -1646 0
-443 -1647 0
-437 -1648 0
-439 -1649 0
-440 -1650 0
-442 -1652 0
-443 -1653 0
-439 -1656 0
-440 -1657 0
-442 -1659 0
-443 -1660 0
-438 -1667 0
-439 -1669 0
-440 -1670 0
-442 -1672 0
-443 -1673 0
-439 -1676 0
-440 -1677 0
-441 -1678 0
-442 -1679 0
-443 -1680 0
-438 -1726 0
-439 -1727 0
-441 -1729 0
-442 -1730 0
-443 -1731 0
-439 -1745 0
-440 -1746 0
-441 -1748 0
-442 -1749 0
-443 -1750 0
-439 -1759 0
-441 -1760 0
-442 -1761 0
-443 -1762 0
-438 -1784 0
-440 -1786 0
-441 -1788 0
-442 -1789 0
-443 -1790 0
-439 -1793 0
-441 -1794 0
-442 -1795 0
-443 -1796 0
-439 -1806 0
-440 -1807 0
-441 -1808 0
-442 -1809 0
-443 -1810 0
-440 -1820 0
-442 -1822 0
-443 -1823 0
-439 -1832 0
-440 -1833 0
-441 -1835 0
-442 -1836 0
-443 -1837 0
-444 -516 0
-445 -517 0
-446 -520 0
-447 -521 0
-449 -522 0
-450 -523 0
-451 -524 0
-444 -526 0
-445 -527 0
-448 -529 0
-449 -530 0
-450 -531 0
-451 -532 0
-444 -548 0
-445 -549 0
-446 -550 0
-447 -551 0
-448 -552 0
-449 -553 0
-450 -554 0
-451 -555 0
-445 -570 0
-447 -572 0
-448 -573 0
-450 -574 0
-451 -575 0
-445 -577 0
-446 -579 0
-448 -580 0
-449 -581 0
-450 -582 0
-451 -583 0
-445 -585 0
-448 -589 0
-449 -590 0
-450 -591 0
-451 -592 0
-445 -601 0
-446 -604 0
-447 -605 0
-448 -606 0
-449 -607 0
-450 -608 0
-451 -609 0
-445 -611 0
-448 -613 0
-450 -614 0
-451 -615 0
-444 -630 0
-445 -631 0
-447 -634 0
-448 -635 0
-450 -636 0
-451 -637 0
-444 -638 0
-445 -639 0
-446 -642 0
-447 -643 0
-448 -644 0
-450 -645 0
-451 -646 0
-444 -647 0
-445 -648 0
-448 -650 0
-449 -651 0
-450 -652 0
-451 -653 0
-446 -657 0
-448 -658 0
-450 -659 0
-451 -660 0
-444 -677 0
-447 -679 0
-448 -680 0
-449 -681 0
-450 -682 0
-451 -683 0
-444 -684 0
-446 -686 0
-448 -687 0
-450 -688 0
-451 -689 0
-445 -691 0
-447 -694 0
-450 -695 0
-451 -696 0
-445 -698 0
-446 -700 0
-447 -701 0
-448 -702 0
-449 -703 0
-450 -704 0
-451 -705 0
-444 -713 0
-445 -714 0
-447 -715 0
-448 -716 0
-450 -717 0
-451 -718 0
-445 -749 0
-447 -752 0
-448 -753 0
-449 -754 0
-450 -755 0
-451 -756 0
-445 -757 0
-446 -759 0
-447 -760 0
-448 -761 0
-450 -762 0
-451 -763 0
-446 -782 0
-448 -783 0
-450 -784 0
-451 -785 0
-447 -788 0
-449 -789 0
-450 -790 0
-451 -791 0
-446 -794 0
-447 -795 0
-448 -796 0
-449 -797 0
-450 -798 0
-451 -799 0
-444 -811 0
-449 -814 0
-450 -815 0
-451 -816 0
-444 -818 0
-446 -821 0
-448 -822 0
-449 -823 0
-450 -824 0
-451 -825 0
-444 -827 0
-447 -829 0
-449 -830 0
-450 -831 0
-451 -832 0
-444 -834 0
-446 -836 0
-450 -837 0
-451 -838 0
-444 -840 0
-446 -843 0
-448 -844 0
-450 -845 0
-451 -846 0
-444 -847 0
-446 -850 0
-449 -851 0
-450 -852 0
-451 -853 0
-450 -912 0
-451 -913 0
-446 -918 0
-447 -919 0
-448 -920 0
-449 -921 0
-450 -922 0
-451 -923 0
-447 -927 0
-449 -928 0
-450 -929 0
-451 -930 0
-446 -944 0
-449 -945 0
-450 -946 0
-451 -947 0
-447 -951 0
-448 -952 0
-450 -953 0
-451 -954 0
-446 -958 0
-447 -959 0
-450 -960 0
-451 -961 0
-444 -970 0
-448 -974 0
-450 -975 0
-451 -976 0
-444 -977 0
-446 -981 0
-450 -982 0
-451 -983 0
-444 -984 0
-447 -987 0
-448 -988 0
-449 -989 0
-450 -990 0
-451 -991 0
-447 -1083 0
-448 -1084 0
-450 -1085 0
-451 -1086 0
-446 -1089 0
-449 -1090 0
-450 -1091 0
-451 -1092 0
-448 -1096 0
-449 -1097 0
-450 -1098 0
-451 -1099 0
-446 -1110 0
-447 -1111 0
-448 -1112 0
-449 -1113 0
-450 -1114 0
-451 -1115 0
-444 -1116 0
-447 -1119 0
-450 -1120 0
-451 -1121 0
-444 -1122 0
-446 -1124 0
-447 -1125 0
-448 -1126 0
-450 -1127 0
-451 -1128 0
-447 -1219 0
-449 -1220 0
-450 -1221 0
-451 -1222 0
-446 -1225 0
-448 -1226 0
-450 -1227 0
-451 -1228 0
-445 -1290 0
-446 -1292 0
-448 -1293 0
-449 -1294 0
-450 -1295 0
-451 -1296 0
-445 -1298 0
-446 -1299 0
-447 -1300 0
-449 -1301 0
-450 -1302 0
-451 -1303 0
-444 -1325 0
-445 -1326 0
-446 -1328 0
-449 -1329 0
-450 -1330 0
-451 -1331 0
-444 -1346 0
-445 -1347 0
-446 -1349 0
-449 -1350 0
-450 -1351 0
-451 -1352 0
-444 -1377 0
-446 -1380 0
-448 -1381 0
-449 -1382 0
-450 -1383 0
-451 -1384 0
-444 -1385 0
-447 -1388 0
-449 -1389 0
-450 -1390 0
-451 -1391 0
-445 -1400 0
-448 -1403 0
-449 -1404 0
-450 -1405 0
-451 -1406 0
-445 -1407 0
-446 -1410 0
-449 -1411 0
-450 -1412 0
-451 -1413 0
-445 -1414 0
-447 -1417 0
-448 -1418 0
-449 -1419 0
-450 -1420 0
-451 -1421 0
-445 -1422 0
-446 -1425 0
-448 -1426 0
-450 -1427 0
-451 -1428 0
-445 -1429 0
-446 -1433 0
-450 -1434 0
-451 -1435 0
-445 -1436 0
-446 -1439 0
-447 -1440 0
-448 -1441 0
-449 -1442 0
-450 -1443 0
-451 -1444 0
-446 -1482 0
-447 -1483 0
-448 -1484 0
-449 -1485 0
-450 -1486 0
-451 -1487 0
-447 -1491 0
-449 -1492 0
-450 -1493 0
-451 -1494 0
-446 -1497 0
-449 -1498 0
-450 -1499 0
-451 -1500 0
-447 -1503 0
-448 -1504 0
-450 -1505 0
-451 -1506 0
-445 -1513 0
-447 -1515 0
-449 -1516 0
-450 -1517 0
-451 -1518 0
-445 -1519 0
-446 -1523 0
-447 -1524 0
-448 -1525 0
-449 -1526 0
-450 -1527 0
-451 -1528 0
-445 -1529 0
-449 -1532 0
-450 -1533 0
-451 -1534 0
-445 -1535 0
-446 -1537 0
-447 -1538 0
-450 -1539 0
-451 -1540 0
-447 -1555 0
-448 -1556 0
-450 -1557 0
-451 -1558 0
-446 -1561 0
-449 -1562 0
-450 -1563 0
-451 -1564 0
-444 -1566 0
-447 -1567 0
-448 -1568 0
-449 -1569 0
-450 -1570 0
-451 -1571 0
-446 -1581 0
-447 -1582 0
-450 -1583 0
-451 -1584 0
-446 -1587 0
-448 -1588 0
-449 -1589 0
-450 -1590 0
-451 -1591 0
-446 -1594 0
-449 -1595 0
-450 -1596 0
-451 -1597 0
-447 -1607 0
-449 -1608 0
-450 -1609 0
-451 -1610 0
-444 -1611 0
-446 -1613 0
-447 -1614 0
-448 -1615 0
-450 -1616 0
-451 -1617 0
-444 -1618 0
-447 -1621 0
-450 -1622 0
-451 -1623 0
-446 -1649 0
-447 -1650 0
-448 -1651 0
-450 -1652 0
-451 -1653 0
-446 -1676 0
-447 -1677 0
-449 -1678 0
-450 -1679 0
-451 -1680 0
-445 -1720 0
-447 -1722 0
-449 -1723 0
-450 -1724 0
-451 -1725 0
-445 -1726 0
-446 -1727 0
-448 -1728 0
-449 -1729 0
-450 -1730 0
-451 -1731 0
-445 -1732 0
-446 -1734 0
-447 -1735 0
-450 -1736 0
-451 -1737 0
-446 -1759 0
-449 -1760 0
-450 -1761 0
-451 -1762 0
-445 -1763 0
-447 -1765 0
-448 -1766 0
-449 -1767 0
-450 -1768 0
-451 -1769 0
-446 -1773 0
-448 -1774 0
-449 -1775 0
-450 -1776 0
-451 -1777 0
-444 -1778 0
-448 -1780 0
-449 -1781 0
-450 -1782 0
-451 -1783 0
-446 -1793 0
-449 -1794 0
-450 -1795 0
-451 -1796 0
-448 -1800 0
-449 -1801 0
-450 -1802 0
-451 -1803 0
-446 -1806 0
-447 -1807 0
-449 -1808 0
-450 -1809 0
-451 -1810 0
-446 -1814 0
-448 -1815 0
-450 -1816 0
-451 -1817 0
-446 -1832 0
-447 -1833 0
-448 -1834 0
-449 -1835 0
-450 -1836 0
-451 -1837 0
-447 -1839 0
-448 -1840 0
-449 -1841 0
-450 -1842 0
-451 -1843 0
-452 -515 0
-454 -518 0
-455 -519 0
-456 -520 0
-457 -522 0
-458 -523 0
-459 -524 0
-452 -525 0
-455 -528 0
-457 -530 0
-458 -531 0
-459 -532 0
-452 -533 0
-454 -535 0
-456 -536 0
-458 -539 0
-459 -540 0
-452 -541 0
-457 -545 0
-458 -546 0
-459 -547 0
-452 -556 0
-454 -558 0
-456 -559 0
-458 -560 0
-459 -561 0
-452 -562 0
-457 -566 0
-458 -567 0
-459 -568 0
-454 -595 0
-457 -597 0
-458 -598 0
-459 -599 0
-452 -600 0
-454 -602 0
-455 -603 0
-456 -604 0
-457 -607 0
-458 -608 0
-459 -609 0
-452 -610 0
-455 -612 0
-458 -614 0
-459 -615 0
-454 -632 0
-455 -633 0
-458 -636 0
-459 -637 0
-453 -640 0
-454 -641 0
-456 -642 0
-458 -645 0
-459 -646 0
-453 -649 0
-457 -651 0
-458 -652 0
-459 -653 0
-455 -708 0
-457 -710 0
-458 -711 0
-459 -712 0
-458 -717 0
-459 -718 0
-455 -743 0
-457 -746 0
-458 -747 0
-459 -748 0
-452 -779 0
-454 -780 0
-455 -781 0
-456 -782 0
-458 -784 0
-459 -785 0
-452 -786 0
-455 -787 0
-457 -789 0
-458 -790 0
-459 -791 0
-452 -792 0
-453 -793 0
-456 -794 0
-457 -797 0
-458 -798 0
-459 -799 0
-452 -810 0
-454 -812 0
-455 -813 0
-457 -814 0
-458 -815 0
-459 -816 0
-452 -817 0
-453 -819 0
-454 -820 0
-456 -821 0
-457 -823 0
-458 -824 0
-459 -825 0
-452 -826 0
-453 -828 0
-457 -830 0
-458 -831 0
-459 -832 0
-452 -854 0
-454 -856 0
-456 -857 0
-458 -860 0
-459 -861 0
-452 -862 0
-457 -866 0
-458 -867 0
-459 -868 0
-454 -870 0
-457 -873 0
-458 -874 0
-459 -875 0
-452 -883 0
-454 -885 0
-455 -886 0
-458 -888 0
-459 -889 0
-452 -890 0
-453 -892 0
-454 -893 0
-455 -894 0
-456 -895 0
-458 -898 0
-459 -899 0
-452 -900 0
-453 -902 0
-455 -903 0
-457 -905 0
-458 -906 0
-459 -907 0
-453 -933 0
-454 -934 0
-455 -935 0
-457 -937 0
-458 -938 0
-459 -939 0
-452 -940 0
-453 -941 0
-454 -942 0
-455 -943 0
-456 -944 0
-457 -945 0
-458 -946 0
-459 -947 0
-452 -948 0
-453 -949 0
-455 -950 0
-458 -953 0
-459 -954 0
-452 -955 0
-453 -956 0
-455 -957 0
-456 -958 0
-458 -960 0
-459 -961 0
-453 -971 0
-454 -972 0
-455 -973 0
-458 -975 0
-459 -976 0
-453 -978 0
-454 -979 0
-455 -980 0
-456 -981 0
-458 -982 0
-459 -983 0
-453 -985 0
-455 -986 0
-457 -989 0
-458 -990 0
-459 -991 0
-454 -1016 0
-455 -1017 0
-458 -1020 0
-459 -1021 0
-454 -1045 0
-455 -1046 0
-457 -1048 0
-458 -1049 0
-459 -1050 0
-453 -1052 0
-454 -1053 0
-455 -1054 0
-456 -1055 0
-457 -1058 0
-458 -1059 0
-459 -1060 0
-453 -1062 0
-455 -1063 0
-458 -1065 0
-459 -1066 0
-452 -1067 0
-455 -1069 0
-458 -1071 0
-459 -1072 0
-452 -1073 0
-453 -1075 0
-456 -1076 0
-458 -1078 0
-459 -1079 0
-453 -1102 0
-457 -1104 0
-458 -1105 0
-459 -1106 0
-452 -1107 0
-453 -1108 0
-455 -1109 0
-456 -1110 0
-457 -1113 0
-458 -1114 0
-459 -1115 0
-453 -1117 0
-455 -1118 0
-458 -1120 0
-459 -1121 0
-453 -1123 0
-456 -1124 0
-458 -1127 0
-459 -1128 0
-458 -1145 0
-459 -1146 0
-455 -1170 0
-457 -1172 0
-458 -1173 0
-459 -1174 0
-453 -1176 0
-455 -1177 0
-458 -1180 0
-459 -1181 0
-453 -1203 0
-455 -1204 0
-457 -1205 0
-458 -1206 0
-459 -1207 0
-453 -1209 0
-455 -1210 0
-456 -1211 0
-457 -1213 0
-458 -1214 0
-459 -1215 0
-452 -1304 0
-454 -1305 0
-456 -1306 0
-457 -1308 0
-458 -1309 0
-459 -1310 0
-452 -1311 0
-454 -1312 0
-457 -1314 0
-458 -1315 0
-459 -1316 0
-452 -1317 0
-453 -1318 0
-454 -1319 0
-455 -1320 0
-456 -1321 0
-457 -1322 0
-458 -1323 0
-459 -1324 0
-454 -1378 0
-455 -1379 0
-456 -1380 0
-457 -1382 0
-458 -1383 0
-459 -1384 0
-454 -1386 0
-455 -1387 0
-457 -1389 0
-458 -1390 0
-459 -1391 0
-454 -1401 0
-455 -1402 0
-457 -1404 0
-458 -1405 0
-459 -1406 0
-453 -1408 0
-454 -1409 0
-456 -1410 0
-457 -1411 0
-458 -1412 0
-459 -1413 0
-453 -1415 0
-454 -1416 0
-457 -1419 0
-458 -1420 0
-459 -1421 0
-453 -1445 0
-454 -1446 0
-455 -1447 0
-456 -1448 0
-458 -1451 0
-459 -1452 0
-453 -1453 0
-454 -1454 0
-455 -1455 0
-457 -1457 0
-458 -1458 0
-459 -1459 0
-453 -1460 0
-454 -1461 0
-456 -1462 0
-457 -1464 0
-458 -1465 0
-459 -1466 0
-454 -1468 0
-456 -1469 0
-458 -1472 0
-459 -1473 0
-454 -1475 0
-457 -1477 0
-458 -1478 0
-459 -1479 0
-454 -1495 0
-455 -1496 0
-456 -1497 0
-457 -1498 0
-458 -1499 0
-459 -1500 0
-454 -1501 0
-455 -1502 0
-458 -1505 0
-459 -1506 0
-454 -1514 0
-457 -1516 0
-458 -1517 0
-459 -1518 0
-453 -1520 0
-454 -1521 0
-455 -1522 0
-456 -1523 0
-457 -1526 0
-458 -1527 0
-459 -1528 0
-453 -1530 0
-455 -1531 0
-457 -1532 0
-458 -1533 0
-459 -1534 0
-453 -1541 0
-454 -1542 0
-456 -1543 0
-458 -1545 0
-459 -1546 0
-453 -1547 0
-457 -1550 0
-458 -1551 0
-459 -1552 0
-452 -1565 0
-457 -1569 0
-458 -1570 0
-459 -1571 0
-452 -1572 0
-455 -1574 0
-458 -1576 0
-459 -1577 0
-455 -1600 0
-456 -1601 0
-457 -1602 0
-458 -1603 0
-459 -1604 0
-452 -1605 0
-455 -1606 0
-457 -1608 0
-458 -1609 0
-459 -1610 0
-455 -1612 0
-456 -1613 0
-458 -1616 0
-459 -1617 0
-453 -1619 0
-455 -1620 0
-458 -1622 0
-459 -1623 0
-455 -1643 0
-457 -1645 0
-458 -1646 0
-459 -1647 0
-452 -1708 0
-455 -1709 0
-457 -1711 0
-458 -1712 0
-459 -1713 0
-454 -1721 0
-457 -1723 0
-458 -1724 0
-459 -1725 0
-456 -1727 0
-457 -1729 0
-458 -1730 0
-459 -1731 0
-454 -1738 0
-455 -1739 0
-458 -1742 0
-459 -1743 0
-455 -1744 0
-456 -1745 0
-457 -1748 0
-458 -1749 0
-459 -1750 0
-453 -1751 0
-457 -1754 0
-458 -1755 0
-459 -1756 0
-455 -1764 0
-457 -1767 0
-458 -1768 0
-459 -1769 0
-454 -1791 0
-455 -1792 0
-456 -1793 0
-457 -1794 0
-458 -1795 0
-459 -1796 0
-453 -1797 0
-454 -1798 0
-455 -1799 0
-457 -1801 0
-458 -1802 0
-459 -1803 0
-453 -1804 0
-455 -1805 0
-456 -1806 0
-457 -1808 0
-458 -1809 0
-459 -1810 0
-454 -1818 0
-455 -1819 0
-458 -1822 0
-459 -1823 0
-455 -1824 0
-456 -1825 0
-457 -1828 0
-458 -1829 0
-459 -1830 0
-455 -1831 0
-456 -1832 0
-457 -1835 0
-458 -1836 0
-459 -1837 0
-453 -1838 0
-457 -1841 0
-458 -1842 0
-459 -1843 0
-462 -508 0
-464 -512 0
-465 -513 0
-466 -514 0
-460 -516 0
-461 -517 0
-462 -518 0
-463 -520 0
-464 -522 0
-465 -523 0
-466 -524 0
-460 -526 0
-461 -527 0
-464 -530 0
-465 -531 0
-466 -532 0
-460 -534 0
-462 -535 0
-463 -536 0
-465 -539 0
-466 -540 0
-460 -542 0
-464 -545 0
-465 -546 0
-466 -547 0
-460 -548 0
-461 -549 0
-463 -550 0
-464 -553 0
-465 -554 0
-466 -555 0
-461 -557 0
-462 -558 0
-463 -559 0
-465 -560 0
-466 -561 0
-461 -563 0
-464 -566 0
-465 -567 0
-466 -568 0
-461 -585 0
-462 -587 0
-464 -590 0
-465 -591 0
-466 -592 0
-461 -601 0
-462 -602 0
-463 -604 0
-464 -607 0
-465 -608 0
-466 -609 0
-461 -611 0
-465 -614 0
-466 -615 0
-460 -616 0
-461 -617 0
-463 -619 0
-465 -621 0
-466 -622 0
-462 -625 0
-465 -628 0
-466 -629 0
-460 -638 0
-461 -639 0
-462 -641 0
-463 -642 0
-465 -645 0
-466 -646 0
-460 -647 0
-461 -648 0
-464 -651 0
-465 -652 0
-466 -653 0
-462 -780 0
-463 -782 0
-465 -784 0
-466 -785 0
-464 -789 0
-465 -790 0
-466 -791 0
-460 -801 0
-461 -802 0
-463 -804 0
-464 -807 0
-465 -808 0
-466 -809 0
-460 -818 0
-462 -820 0
-463 -821 0
-464 -823 0
-465 -824 0
-466 -825 0
-460 -827 0
-464 -830 0
-465 -831 0
-466 -832 0
-460 -834 0
-463 -836 0
-465 -837 0
-466 -838 0
-460 -847 0
-463 -850 0
-464 -851 0
-465 -852 0
-466 -853 0
-460 -855 0
-462 -856 0
-463 -857 0
-465 -860 0
-466 -861 0
-460 -863 0
-464 -866 0
-465 -867 0
-466 -868 0
-460 -876 0
-463 -878 0
-465 -881 0
-466 -882 0
-461 -891 0
-462 -893 0
-463 -895 0
-465 -898 0
-466 -899 0
-461 -901 0
-464 -905 0
-465 -906 0
-466 -907 0
-462 -926 0
-464 -928 0
-465 -929 0
-466 -930 0
-462 -942 0
-463 -944 0
-464 -945 0
-465 -946 0
-466 -947 0
-465 -953 0
-466 -954 0
-460 -962 0
-461 -963 0
-463 -966 0
-465 -968 0
-466 -969 0
-460 -977 0
-462 -979 0
-463 -981 0
-465 -982 0
-466 -983 0
-460 -984 0
-464 -989 0
-465 -990 0
-466 -991 0
-462 -1009 0
-465 -1012 0
-466 -1013 0
-460 -1051 0
-462 -1053 0
-463 -1055 0
-464 -1058 0
-465 -1059 0
-466 -1060 0
-460 -1061 0
-465 -1065 0
-466 -1066 0
-461 -1074 0
-463 -1076 0
-465 -1078 0
-466 -1079 0
-464 -1097 0
-465 -1098 0
-466 -1099 0
-463 -1110 0
-464 -1113 0
-465 -1114 0
-466 -1115 0
-460 -1122 0
-463 -1124 0
-465 -1127 0
-466 -1128 0
-461 -1208 0
-463 -1211 0
-464 -1213 0
-465 -1214 0
-466 -1215 0
-462 -1305 0
-463 -1306 0
-464 -1308 0
-465 -1309 0
-466 -1310 0
-462 -1312 0
-464 -1314 0
-465 -1315 0
-466 -1316 0
-460 -1325 0
-461 -1326 0
-462 -1327 0
-463 -1328 0
-464 -1329 0
-465 -1330 0
-466 -1331 0
-460 -1353 0
-462 -1354 0
-463 -1356 0
-464 -1359 0
-465 -1360 0
-466 -1361 0
-460 -1377 0
-462 -1378 0
-463 -1380 0
-464 -1382 0
-465 -1383 0
-466 -1384 0
-460 -1385 0
-462 -1386 0
-464 -1389 0
-465 -1390 0
-466 -1391 0
-461 -1392 0
-462 -1393 0
-463 -1395 0
-464 -1397 0
-465 -1398 0
-466 -1399 0
-461 -1407 0
-462 -1409 0
-463 -1410 0
-464 -1411 0
-465 -1412 0
-466 -1413 0
-461 -1414 0
-462 -1416 0
-464 -1419 0
-465 -1420 0
-466 -1421 0
-461 -1422 0
-462 -1423 0
-463 -1425 0
-465 -1427 0
-466 -1428 0
-462 -1446 0
-463 -1448 0
-465 -1451 0
-466 -1452 0
-462 -1454 0
-464 -1457 0
-465 -1458 0
-466 -1459 0
-461 -1467 0
-462 -1468 0
-463 -1469 0
-465 -1472 0
-466 -1473 0
-461 -1474 0
-462 -1475 0
-464 -1477 0
-465 -1478 0
-466 -1479 0
-462 -1489 0
-464 -1492 0
-465 -1493 0
-466 -1494 0
-462 -1495 0
-463 -1497 0
-464 -1498 0
-465 -1499 0
-466 -1500 0
-462 -1501 0
-465 -1505 0
-466 -1506 0
-461 -1507 0
-463 -1508 0
-464 -1510 0
-465 -1511 0
-466 -1512 0
-461 -1519 0
-462 -1521 0
-463 -1523 0
-464 -1526 0
-465 -1527 0
-466 -1528 0
-461 -1529 0
-464 -1532 0
-465 -1533 0
-466 -1534 0
-461 -1535 0
-463 -1537 0
-465 -1539 0
-466 -1540 0
-462 -1542 0
-463 -1543 0
-465 -1545 0
-466 -1546 0
-464 -1550 0
-465 -1551 0
-466 -1552 0
-460 -1566 0
-464 -1569 0
-465 -1570 0
-466 -1571 0
-461 -1573 0
-465 -1576 0
-466 -1577 0
-463 -1594 0
-464 -1595 0
-465 -1596 0
-466 -1597 0
-464 -1608 0
-465 -1609 0
-466 -1610 0
-460 -1618 0
-465 -1622 0
-466 -1623 0
-463 -1625 0
-465 -1628 0
-466 -1629 0
-460 -1642 0
-464 -1645 0
-465 -1646 0
-466 -1647 0
-461 -1720 0
-462 -1721 0
-464 -1723 0
-465 -1724 0
-466 -1725 0
-461 -1726 0
-463 -1727 0
-464 -1729 0
-465 -1730 0
-466 -1731 0
-462 -1738 0
-465 -1742 0
-466 -1743 0
-463 -1745 0
-464 -1748 0
-465 -1749 0
-466 -1750 0
-462 -1757 0
-463 -1759 0
-464 -1760 0
-465 -1761 0
-466 -1762 0
-461 -1763 0
-464 -1767 0
-465 -1768 0
-466 -1769 0
-460 -1778 0
-464 -1781 0
-465 -1782 0
-466 -1783 0
-461 -1784 0
-464 -1788 0
-465 -1789 0
-466 -1790 0
-462 -1798 0
-464 -1801 0
-465 -1802 0
-466 -1803 0
-463 -1806 0
-464 -1808 0
-465 -1809 0
-466 -1810 0
-462 -1818 0
-465 -1822 0
-466 -1823 0
-463 -1825 0
-464 -1828 0
-465 -1829 0
-466 -1830 0
-464 -1841 0
-465 -1842 0
-466 -1843 0
-470 -508 0
-471 -509 0
-473 -511 0
-474 -512 0
-475 -513 0
-476 -514 0
-467 -526 0
-468 -527 0
-471 -528 0
-473 -529 0
-474 -530 0
-475 -531 0
-476 -532 0
-467 -534 0
-470 -535 0
-472 -536 0
-473 -538 0
-475 -539 0
-476 -540 0
-467 -548 0
-468 -549 0
-472 -550 0
-473 -552 0
-474 -553 0
-475 -554 0
-476 -555 0
-468 -563 0
-473 -565 0
-474 -566 0
-475 -567 0
-476 -568 0
-468 -577 0
-470 -578 0
-472 -579 0
-473 -580 0
-474 -581 0
-475 -582 0
-476 -583 0
-468 -601 0
-470 -602 0
-471 -603 0
-472 -604 0
-473 -606 0
-474 -607 0
-475 -608 0
-476 -609 0
-467 -616 0
-468 -617 0
-471 -618 0
-472 -619 0
-473 -620 0
-475 -621 0
-476 -622 0
-469 -624 0
-470 -625 0
-473 -627 0
-475 -628 0
-476 -629 0
-467 -630 0
-468 -631 0
-470 -632 0
-471 -633 0
-473 -635 0
-475 -636 0
-476 -637 0
-467 -647 0
-468 -648 0
-469 -649 0
-473 -650 0
-474 -651 0
-475 -652 0
-476 -653 0
-467 -684 0
-470 -685 0
-472 -686 0
-473 -687 0
-475 -688 0
-476 -689 0
-468 -698 0
-471 -699 0
-472 -700 0
-473 -702 0
-474 -703 0
-475 -704 0
-476 -705 0
-467 -713 0
-468 -714 0
-473 -716 0
-475 -717 0
-476 -718 0
-468 -742 0
-471 -743 0
-473 -745 0
-474 -746 0
-475 -747 0
-476 -748 0
-468 -757 0
-469 -758 0
-472 -759 0
-473 -761 0
-475 -762 0
-476 -763 0
-470 -780 0
-471 -781 0
-472 -782 0
-473 -783 0
-475 -784 0
-476 -785 0
-469 -793 0
-472 -794 0
-473 -796 0
-474 -797 0
-475 -798 0
-476 -799 0
-467 -801 0
-468 -802 0
-471 -803 0
-472 -804 0
-473 -806 0
-474 -807 0
-475 -808 0
-476 -809 0
-467 -811 0
-470 -812 0
-471 -813 0
-474 -814 0
-475 -815 0
-476 -816 0
-467 -827 0
-469 -828 0
-474 -830 0
-475 -831 0
-476 -832 0
-467 -840 0
-469 -841 0
-471 -842 0
-472 -843 0
-473 -844 0
-475 -845 0
-476 -846 0
-467 -847 0
-469 -848 0
-471 -849 0
-472 -850 0
-474 -851 0
-475 -852 0
-476 -853 0
-467 -863 0
-473 -865 0
-474 -866 0
-475 -867 0
-476 -868 0
-467 -876 0
-471 -877 0
-472 -878 0
-473 -880 0
-475 -881 0
-476 -882 0
-468 -884 0
-470 -885 0
-471 -886 0
-475 -888 0
-476 -889 0
-468 -901 0
-469 -902 0
-471 -903 0
-474 -905 0
-475 -906 0
-476 -907 0
-469 -915 0
-470 -916 0
-471 -917 0
-472 -918 0
-473 -920 0
-474 -921 0
-475 -922 0
-476 -923 0
-469 -941 0
-470 -942 0
-471 -943 0
-472 -944 0
-474 -945 0
-475 -946 0
-476 -947 0
-469 -956 0
-471 -957 0
-472 -958 0
-475 -960 0
-476 -961 0
-467 -962 0
-468 -963 0
-469 -964 0
-471 -965 0
-472 -966 0
-475 -968 0
-476 -969 0
-467 -970 0
-469 -971 0
-470 -972 0
-471 -973 0
-473 -974 0
-475 -975 0
-476 -976 0
-467 -984 0
-469 -985 0
-471 -986 0
-473 -988 0
-474 -989 0
-475 -990 0
-476 -991 0
-470 -1001 0
-471 -1002 0
-472 -1003 0
-475 -1005 0
-476 -1006 0
-467 -1044 0
-470 -1045 0
-471 -1046 0
-474 -1048 0
-475 -1049 0
-476 -1050 0
-467 -1061 0
-469 -1062 0
-471 -1063 0
-475 -1065 0
-476 -1066 0
-468 -1068 0
-471 -1069 0
-473 -1070 0
-475 -1071 0
-476 -1072 0
-469 -1088 0
-472 -1089 0
-474 -1090 0
-475 -1091 0
-476 -1092 0
-469 -1108 0
-471 -1109 0
-472 -1110 0
-473 -1112 0
-474 -1113 0
-475 -1114 0
-476 -1115 0
-467 -1116 0
-469 -1117 0
-471 -1118 0
-475 -1120 0
-476 -1121 0
-472 -1136 0
-473 -1138 0
-475 -1139 0
-476 -1140 0
-467 -1169 0
-471 -1170 0
-473 -1171 0
-474 -1172 0
-475 -1173 0
-476 -1174 0
-468 -1202 0
-469 -1203 0
-471 -1204 0
-474 -1205 0
-475 -1206 0
-476 -1207 0
-469 -1223 0
-471 -1224 0
-472 -1225 0
-473 -1226 0
-475 -1227 0
-476 -1228 0
-469 -1282 0
-471 -1283 0
-472 -1284 0
-474 -1286 0
-475 -1287 0
-476 -1288 0
-468 -1290 0
-470 -1291 0
-472 -1292 0
-473 -1293 0
-474 -1294 0
-475 -1295 0
-476 -1296 0
-470 -1305 0
-472 -1306 0
-474 -1308 0
-475 -1309 0
-476 -1310 0
-469 -1318 0
-470 -1319 0
-471 -1320 0
-472 -1321 0
-474 -1322 0
-475 -1323 0
-476 -1324 0
-467 -1325 0
-468 -1326 0
-470 -1327 0
-472 -1328 0
-474 -1329 0
-475 -1330 0
-476 -1331 0
-467 -1362 0
-469 -1363 0
-470 -1364 0
-472 -1365 0
-474 -1367 0
-475 -1368 0
-476 -1369 0
-467 -1385 0
-470 -1386 0
-471 -1387 0
-474 -1389 0
-475 -1390 0
-476 -1391 0
-468 -1392 0
-470 -1393 0
-471 -1394 0
-472 -1395 0
-474 -1397 0
-475 -1398 0
-476 -1399 0
-468 -1400 0
-470 -1401 0
-471 -1402 0
-473 -1403 0
-474 -1404 0
-475 -1405 0
-476 -1406 0
-468 -1414 0
-469 -1415 0
-470 -1416 0
-473 -1418 0
-474 -1419 0
-475 -1420 0
-476 -1421 0
-468 -1429 0
-469 -1430 0
-470 -1431 0
-471 -1432 0
-472 -1433 0
-475 -1434 0
-476 -1435 0
-469 -1445 0
-470 -1446 0
-471 -1447 0
-472 -1448 0
-473 -1450 0
-475 -1451 0
-476 -1452 0
-469 -1460 0
-470 -1461 0
-472 -1462 0
-473 -1463 0
-474 -1464 0
-475 -1465 0
-476 -1466 0
-468 -1474 0
-470 -1475 0
-474 -1477 0
-475 -1478 0
-476 -1479 0
-470 -1481 0
-472 -1482 0
-473 -1484 0
-474 -1485 0
-475 -1486 0
-476 -1487 0
-470 -1495 0
-471 -1496 0
-472 -1497 0
-474 -1498 0
-475 -1499 0
-476 -1500 0
-468 -1507 0
-472 -1508 0
-473 -1509 0
-474 -1510 0
-475 -1511 0
-476 -1512 0
-468 -1513 0
-470 -1514 0
-474 -1516 0
-475 -1517 0
-476 -1518 0
-468 -1529 0
-469 -1530 0
-471 -1531 0
-474 -1532 0
-475 -1533 0
-476 -1534 0
-469 -1541 0
-470 -1542 0
-472 -1543 0
-475 -1545 0
-476 -1546 0
-470 -1559 0
-471 -1560 0
-472 -1561 0
-474 -1562 0
-475 -1563 0
-476 -1564 0
-471 -1586 0
-472 -1587 0
-473 -1588 0
-474 -1589 0
-475 -1590 0
-476 -1591 0
-471 -1606 0
-474 -1608 0
-475 -1609 0
-476 -1610 0
-467 -1611 0
-471 -1612 0
-472 -1613 0
-473 -1615 0
-475 -1616 0
-476 -1617 0
-471 -1709 0
-474 -1711 0
-475 -1712 0
-476 -1713 0
-467 -1714 0
-472 -1715 0
-474 -1717 0
-475 -1718 0
-476 -1719 0
-468 -1726 0
-472 -1727 0
-473 -1728 0
-474 -1729 0
-475 -1730 0
-476 -1731 0
-468 -1732 0
-471 -1733 0
-472 -1734 0
-475 -1736 0
-476 -1737 0
-470 -1738 0
-471 -1739 0
-473 -1741 0
-475 -1742 0
-476 -1743 0
-469 -1751 0
-473 -1753 0
-474 -1754 0
-475 -1755 0
-476 -1756 0
-471 -1772 0
-472 -1773 0
-473 -1774 0
-474 -1775 0
-475 -1776 0
-476 -1777 0
-467 -1778 0
-471 -1779 0
-473 -1780 0
-474 -1781 0
-475 -1782 0
-476 -1783 0
-468 -1784 0
-471 -1785 0
-473 -1787 0
-474 -1788 0
-475 -1789 0
-476 -1790 0
-470 -1791 0
-471 -1792 0
-472 -1793 0
-474 -1794 0
-475 -1795 0
-476 -1796 0
-469 -1804 0
-471 -1805 0
-472 -1806 0
-474 -1808 0
-475 -1809 0
-476 -1810 0
-469 -1812 0
-471 -1813 0
-472 -1814 0
-473 -1815 0
-475 -1816 0
-476 -1817 0
-471 -1824 0
-472 -1825 0
-473 -1827 0
-474 -1828 0
-475 -1829 0
-476 -1830 0
-471 -1831 0
-472 -1832 0
-473 -1834 0
-474 -1835 0
-475 -1836 0
-476 -1837 0
-470 -1845 0
-472 -1846 0
-473 -1848 0
-474 -1849 0
-475 -1850 0
-476 -1851 0
-480 -509 0
-482 -510 0
-483 -513 0
-484 -514 0
-477 -516 0
-478 -517 0
-480 -519 0
-481 -520 0
-482 -521 0
-483 -523 0
-484 -524 0
-477 -542 0
-482 -543 0
-483 -546 0
-484 -547 0
-477 -548 0
-478 -549 0
-481 -550 0
-482 -551 0
-483 -554 0
-484 -555 0
-478 -557 0
-481 -559 0
-483 -560 0
-484 -561 0
-478 -570 0
-482 -572 0
-483 -574 0
-484 -575 0
-478 -611 0
-480 -612 0
-483 -614 0
-484 -615 0
-477 -616 0
-478 -617 0
-480 -618 0
-481 -619 0
-483 -621 0
-484 -622 0
-479 -624 0
-482 -626 0
-483 -628 0
-484 -629 0
-477 -630 0
-478 -631 0
-480 -633 0
-482 -634 0
-483 -636 0
-484 -637 0
-477 -638 0
-478 -639 0
-479 -640 0
-481 -642 0
-482 -643 0
-483 -645 0
-484 -646 0
-477 -677 0
-482 -679 0
-483 -682 0
-484 -683 0
-478 -691 0
-480 -693 0
-482 -694 0
-483 -695 0
-484 -696 0
-477 -713 0
-478 -714 0
-482 -715 0
-483 -717 0
-484 -718 0
-478 -742 0
-480 -743 0
-482 -744 0
-483 -747 0
-484 -748 0
-478 -749 0
-479 -750 0
-482 -752 0
-483 -755 0
-484 -756 0
-480 -787 0
-482 -788 0
-483 -790 0
-484 -791 0
-479 -793 0
-481 -794 0
-482 -795 0
-483 -798 0
-484 -799 0
-477 -801 0
-478 -802 0
-480 -803 0
-481 -804 0
-482 -805 0
-483 -808 0
-484 -809 0
-477 -811 0
-480 -813 0
-483 -815 0
-484 -816 0
-477 -818 0
-479 -819 0
-481 -821 0
-483 -824 0
-484 -825 0
-477 -847 0
-479 -848 0
-480 -849 0
-481 -850 0
-483 -852 0
-484 -853 0
-477 -855 0
-481 -857 0
-482 -858 0
-483 -860 0
-484 -861 0
-477 -876 0
-480 -877 0
-481 -878 0
-482 -879 0
-483 -881 0
-484 -882 0
-478 -884 0
-480 -886 0
-482 -887 0
-483 -888 0
-484 -889 0
-478 -891 0
-479 -892 0
-480 -894 0
-481 -895 0
-482 -896 0
-483 -898 0
-484 -899 0
-479 -909 0
-480 -911 0
-483 -912 0
-484 -913 0
-479 -949 0
-480 -950 0
-482 -951 0
-483 -953 0
-484 -954 0
-479 -956 0
-480 -957 0
-481 -958 0
-482 -959 0
-483 -960 0
-484 -961 0
-477 -962 0
-478 -963 0
-479 -964 0
-480 -965 0
-481 -966 0
-482 -967 0
-483 -968 0
-484 -969 0
-477 -970 0
-479 -971 0
-480 -973 0
-483 -975 0
-484 -976 0
-477 -977 0
-479 -978 0
-480 -980 0
-481 -981 0
-483 -982 0
-484 -983 0
-480 -994 0
-482 -995 0
-483 -998 0
-484 -999 0
-477 -1044 0
-480 -1046 0
-482 -1047 0
-483 -1049 0
-484 -1050 0
-477 -1051 0
-479 -1052 0
-480 -1054 0
-481 -1055 0
-482 -1056 0
-483 -1059 0
-484 -1060 0
-478 -1068 0
-480 -1069 0
-483 -1071 0
-484 -1072 0
-478 -1074 0
-479 -1075 0
-481 -1076 0
-483 -1078 0
-484 -1079 0
-479 -1081 0
-482 -1083 0
-483 -1085 0
-484 -1086 0
-477 -1116 0
-479 -1117 0
-480 -1118 0
-482 -1119 0
-483 -1120 0
-484 -1121 0
-477 -1122 0
-479 -1123 0
-481 -1124 0
-482 -1125 0
-483 -1127 0
-484 -1128 0
-483 -1133 0
-484 -1134 0
-477 -1169 0
-480 -1170 0
-483 -1173 0
-484 -1174 0
-478 -1202 0
-479 -1203 0
-480 -1204 0
-483 -1206 0
-484 -1207 0
-478 -1208 0
-479 -1209 0
-480 -1210 0
-481 -1211 0
-483 -1214 0
-484 -1215 0
-479 -1216 0
-480 -1218 0
-482 -1219 0
-483 -1221 0
-484 -1222 0
-479 -1275 0
-480 -1277 0
-483 -1280 0
-484 -1281 0
-478 -1298 0
-481 -1299 0
-482 -1300 0
-483 -1302 0
-484 -1303 0
-483 -1315 0
-484 -1316 0
-479 -1318 0
-480 -1320 0
-481 -1321 0
-483 -1323 0
-484 -1324 0
-477 -1325 0
-478 -1326 0
-481 -1328 0
-483 -1330 0
-484 -1331 0
-477 -1370 0
-479 -1371 0
-481 -1372 0
-483 -1375 0
-484 -1376 0
-477 -1377 0
-480 -1379 0
-481 -1380 0
-483 -1383 0
-484 -1384 0
-478 -1392 0
-480 -1394 0
-481 -1395 0
-482 -1396 0
-483 -1398 0
-484 -1399 0
-478 -1400 0
-480 -1402 0
-483 -1405 0
-484 -1406 0
-478 -1407 0
-479 -1408 0
-481 -1410 0
-483 -1412 0
-484 -1413 0
-478 -1436 0
-479 -1437 0
-480 -1438 0
-481 -1439 0
-482 -1440 0
-483 -1443 0
-484 -1444 0
-479 -1453 0
-480 -1455 0
-483 -1458 0
-484 -1459 0
-479 -1460 0
-481 -1462 0
-483 -1465 0
-484 -1466 0
-478 -1467 0
-481 -1469 0
-482 -1470 0
-483 -1472 0
-484 -1473 0
-480 -1502 0
-482 -1503 0
-483 -1505 0
-484 -1506 0
-478 -1507 0
-481 -1508 0
-483 -1511 0
-484 -1512 0
-478 -1513 0
-482 -1515 0
-483 -1517 0
-484 -1518 0
-478 -1519 0
-479 -1520 0
-480 -1522 0
-481 -1523 0
-482 -1524 0
-483 -1527 0
-484 -1528 0
-479 -1547 0
-482 -1548 0
-483 -1551 0
-484 -1552 0
-480 -1554 0
-482 -1555 0
-483 -1557 0
-484 -1558 0
-477 -1566 0
-482 -1567 0
-483 -1570 0
-484 -1571 0
-478 -1573 0
-480 -1574 0
-483 -1576 0
-484 -1577 0
-480 -1580 0
-481 -1581 0
-482 -1582 0
-483 -1583 0
-484 -1584 0
-477 -1611 0
-480 -1612 0
-481 -1613 0
-482 -1614 0
-483 -1616 0
-484 -1617 0
-477 -1618 0
-479 -1619 0
-480 -1620 0
-482 -1621 0
-483 -1622 0
-484 -1623 0
-477 -1642 0
-480 -1643 0
-483 -1646 0
-484 -1647 0
-481 -1649 0
-482 -1650 0
-483 -1652 0
-484 -1653 0
-479 -1674 0
-480 -1675 0
-481 -1676 0
-482 -1677 0
-483 -1679 0
-484 -1680 0
-480 -1701 0
-481 -1702 0
-482 -1703 0
-483 -1706 0
-484 -1707 0
-480 -1709 0
-482 -1710 0
-483 -1712 0
-484 -1713 0
-478 -1720 0
-482 -1722 0
-483 -1724 0
-484 -1725 0
-480 -1744 0
-481 -1745 0
-482 -1746 0
-483 -1749 0
-484 -1750 0
-479 -1751 0
-482 -1752 0
-483 -1755 0
-484 -1756 0
-478 -1763 0
-480 -1764 0
-482 -1765 0
-483 -1768 0
-484 -1769 0
-477 -1778 0
-480 -1779 0
-483 -1782 0
-484 -1783 0
-478 -1784 0
-480 -1785 0
-482 -1786 0
-483 -1789 0
-484 -1790 0
-480 -1792 0
-481 -1793 0
-483 -1795 0
-484 -1796 0
-479 -1797 0
-480 -1799 0
-483 -1802 0
-484 -1803 0
-480 -1819 0
-482 -1820 0
-483 -1822 0
-484 -1823 0
-480 -1831 0
-481 -1832 0
-482 -1833 0
-483 -1836 0
-484 -1837 0
-479 -1838 0
-482 -1839 0
-483 -1842 0
-484 -1843 0
-485 -534 0
-488 -536 0
-490 -539 0
-491 -540 0
-485 -542 0
-489 -545 0
-490 -546 0
-491 -547 0
-485 -548 0
-486 -549 0
-488 -550 0
-489 -553 0
-490 -554 0
-491 -555 0
-486 -557 0
-488 -559 0
-490 -560 0
-491 -561 0
-486 -563 0
-489 -566 0
-490 -567 0
-491 -568 0
-486 -570 0
-490 -574 0
-491 -575 0
-486 -577 0
-488 -579 0
-489 -581 0
-490 -582 0
-491 -583 0
-485 -593 0
-486 -594 0
-489 -597 0
-490 -598 0
-491 -599 0
-490 -628 0
-491 -629 0
-485 -638 0
-486 -639 0
-488 -642 0
-490 -645 0
-491 -646 0
-485 -647 0
-486 -648 0
-489 -651 0
-490 -652 0
-491 -653 0
-487 -656 0
-488 -657 0
-490 -659 0
-491 -660 0
-485 -661 0
-486 -662 0
-487 -664 0
-490 -665 0
-491 -666 0
-485 -667 0
-486 -668 0
-487 -670 0
-488 -671 0
-489 -674 0
-490 -675 0
-491 -676 0
-486 -691 0
-487 -693 0
-490 -695 0
-491 -696 0
-486 -698 0
-487 -699 0
-488 -700 0
-489 -703 0
-490 -704 0
-491 -705 0
-485 -706 0
-486 -707 0
-487 -708 0
-489 -710 0
-490 -711 0
-491 -712 0
-486 -727 0
-487 -730 0
-490 -732 0
-491 -733 0
-486 -734 0
-487 -736 0
-488 -737 0
-489 -739 0
-490 -740 0
-491 -741 0
-487 -781 0
-488 -782 0
-490 -784 0
-491 -785 0
-487 -787 0
-489 -789 0
-490 -790 0
-491 -791 0
-485 -801 0
-486 -802 0
-487 -803 0
-488 -804 0
-489 -807 0
-490 -808 0
-491 -809 0
-485 -811 0
-487 -813 0
-489 -814 0
-490 -815 0
-491 -816 0
-485 -840 0
-487 -842 0
-488 -843 0
-490 -845 0
-491 -846 0
-485 -847 0
-487 -849 0
-488 -850 0
-489 -851 0
-490 -852 0
-491 -853 0
-485 -855 0
-488 -857 0
-490 -860 0
-491 -861 0
-485 -863 0
-489 -866 0
-490 -867 0
-491 -868 0
-485 -869 0
-489 -873 0
-490 -874 0
-491 -875 0
-486 -891 0
-487 -894 0
-488 -895 0
-490 -898 0
-491 -899 0
-486 -901 0
-487 -903 0
-489 -905 0
-490 -906 0
-491 -907 0
-487 -911 0
-490 -912 0
-491 -913 0
-487 -917 0
-488 -918 0
-489 -921 0
-490 -922 0
-491 -923 0
-485 -931 0
-486 -932 0
-487 -935 0
-489 -937 0
-490 -938 0
-491 -939 0
-487 -957 0
-488 -958 0
-490 -960 0
-491 -961 0
-485 -977 0
-487 -980 0
-488 -981 0
-490 -982 0
-491 -983 0
-485 -984 0
-487 -986 0
-489 -989 0
-490 -990 0
-491 -991 0
-490 -1012 0
-491 -1013 0
-485 -1029 0
-490 -1034 0
-491 -1035 0
-485 -1036 0
-488 -1039 0
-489 -1041 0
-490 -1042 0
-491 -1043 0
-486 -1074 0
-488 -1076 0
-490 -1078 0
-491 -1079 0
-490 -1085 0
-491 -1086 0
-488 -1089 0
-489 -1090 0
-490 -1091 0
-491 -1092 0
-485 -1100 0
-486 -1101 0
-489 -1104 0
-490 -1105 0
-491 -1106 0
-485 -1122 0
-488 -1124 0
-490 -1127 0
-491 -1128 0
-485 -1153 0
-487 -1156 0
-490 -1158 0
-491 -1159 0
-485 -1160 0
-487 -1162 0
-488 -1163 0
-489 -1166 0
-490 -1167 0
-491 -1168 0
-486 -1189 0
-490 -1193 0
-491 -1194 0
-486 -1195 0
-488 -1197 0
-489 -1199 0
-490 -1200 0
-491 -1201 0
-487 -1269 0
-488 -1270 0
-490 -1273 0
-491 -1274 0
-487 -1334 0
-488 -1335 0
-490 -1337 0
-491 -1338 0
-487 -1340 0
-488 -1341 0
-489 -1343 0
-490 -1344 0
-491 -1345 0
-485 -1346 0
-486 -1347 0
-487 -1348 0
-488 -1349 0
-489 -1350 0
-490 -1351 0
-491 -1352 0
-485 -1353 0
-487 -1355 0
-488 -1356 0
-489 -1359 0
-490 -1360 0
-491 -1361 0
-486 -1392 0
-487 -1394 0
-488 -1395 0
-489 -1397 0
-490 -1398 0
-491 -1399 0
-486 -1400 0
-487 -1402 0
-489 -1404 0
-490 -1405 0
-491 -1406 0
-486 -1429 0
-487 -1432 0
-488 -1433 0
-490 -1434 0
-491 -1435 0
-486 -1436 0
-487 -1438 0
-488 -1439 0
-489 -1442 0
-490 -1443 0
-491 -1444 0
-487 -1447 0
-488 -1448 0
-490 -1451 0
-491 -1452 0
-487 -1455 0
-489 -1457 0
-490 -1458 0
-491 -1459 0
-486 -1467 0
-488 -1469 0
-490 -1472 0
-491 -1473 0
-486 -1474 0
-489 -1477 0
-490 -1478 0
-491 -1479 0
-488 -1482 0
-489 -1485 0
-490 -1486 0
-491 -1487 0
-486 -1507 0
-488 -1508 0
-489 -1510 0
-490 -1511 0
-491 -1512 0
-486 -1513 0
-489 -1516 0
-490 -1517 0
-491 -1518 0
-488 -1543 0
-490 -1545 0
-491 -1546 0
-489 -1550 0
-490 -1551 0
-491 -1552 0
-487 -1554 0
-490 -1557 0
-491 -1558 0
-487 -1560 0
-488 -1561 0
-489 -1562 0
-490 -1563 0
-491 -1564 0
-486 -1573 0
-487 -1574 0
-490 -1576 0
-491 -1577 0
-487 -1580 0
-488 -1581 0
-490 -1583 0
-491 -1584 0
-487 -1586 0
-488 -1587 0
-489 -1589 0
-490 -1590 0
-491 -1591 0
-485 -1598 0
-486 -1599 0
-487 -1600 0
-488 -1601 0
-489 -1602 0
-490 -1603 0
-491 -1604 0
-485 -1618 0
-487 -1620 0
-490 -1622 0
-491 -1623 0
-488 -1625 0
-490 -1628 0
-491 -1629 0
-485 -1630 0
-488 -1632 0
-490 -1634 0
-491 -1635 0
-485 -1636 0
-488 -1637 0
-489 -1639 0
-490 -1640 0
-491 -1641 0
-488 -1649 0
-490 -1652 0
-491 -1653 0
-485 -1654 0
-487 -1655 0
-488 -1656 0
-490 -1659 0
-491 -1660 0
-486 -1667 0
-488 -1669 0
-490 -1672 0
-491 -1673 0
-487 -1696 0
-488 -1697 0
-490 -1699 0
-491 -1700 0
-486 -1732 0
-487 -1733 0
-488 -1734 0
-490 -1736 0
-491 -1737 0
-487 -1739 0
-490 -1742 0
-491 -1743 0
-487 -1744 0
-488 -1745 0
-489 -1748 0
-490 -1749 0
-491 -1750 0
-486 -1784 0
-487 -1785 0
-489 -1788 0
-490 -1789 0
-491 -1790 0
-487 -1792 0
-488 -1793 0
-489 -1794 0
-490 -1795 0
-491 -1796 0
-487 -1813 0
-488 -1814 0
-490 -1816 0
-491 -1817 0
-487 -1819 0
-490 -1822 0
-491 -1823 0
-487 -1824 0
-488 -1825 0
-489 -1828 0
-490 -1829 0
-491 -1830 0
-487 -1831 0
-488 -1832 0
-489 -1835 0
-490 -1836 0
-491 -1837 0
-494 -508 0
-496 -510 0
-497 -512 0
-498 -513 0
-499 -514 0
-492 -516 0
-494 -518 0
-495 -520 0
-496 -521 0
-497 -522 0
-498 -523 0
-499 -524 0
-492 -542 0
-496 -543 0
-497 -545 0
-498 -546 0
-499 -547 0
-492 -548 0
-495 -550 0
-496 -551 0
-497 -553 0
-498 -554 0
-499 -555 0
-494 -558 0
-495 -559 0
-498 -560 0
-499 -561 0
-494 -578 0
-495 -579 0
-497 -581 0
-498 -582 0
-499 -583 0
-493 -586 0
-494 -587 0
-497 -590 0
-498 -591 0
-499 -592 0
-492 -593 0
-494 -595 0
-497 -597 0
-498 -598 0
-499 -599 0
-498 -614 0
-499 -615 0
-492 -616 0
-495 -619 0
-498 -621 0
-499 -622 0
-492 -647 0
-493 -649 0
-497 -651 0
-498 -652 0
-499 -653 0
-492 -667 0
-494 -669 0
-495 -671 0
-496 -672 0
-497 -674 0
-498 -675 0
-499 -676 0
-495 -700 0
-496 -701 0
-497 -703 0
-498 -704 0
-499 -705 0
-492 -706 0
-496 -709 0
-497 -710 0
-498 -711 0
-499 -712 0
-493 -735 0
-495 -737 0
-497 -739 0
-498 -740 0
-499 -741 0
-494 -780 0
-495 -782 0
-498 -784 0
-499 -785 0
-492 -811 0
-494 -812 0
-497 -814 0
-498 -815 0
-499 -816 0
-492 -818 0
-493 -819 0
-494 -820 0
-495 -821 0
-497 -823 0
-498 -824 0
-499 -825 0
-492 -834 0
-495 -836 0
-498 -837 0
-499 -838 0
-492 -840 0
-493 -841 0
-495 -843 0
-498 -845 0
-499 -846 0
-492 -847 0
-493 -848 0
-495 -850 0
-497 -851 0
-498 -852 0
-499 -853 0
-492 -855 0
-494 -856 0
-495 -857 0
-496 -858 0
-498 -860 0
-499 -861 0
-492 -869 0
-494 -870 0
-496 -871 0
-497 -873 0
-498 -874 0
-499 -875 0
-492 -876 0
-495 -878 0
-496 -879 0
-498 -881 0
-499 -882 0
-494 -885 0
-496 -887 0
-498 -888 0
-499 -889 0
-493 -892 0
-494 -893 0
-495 -895 0
-496 -896 0
-498 -898 0
-499 -899 0
-493 -915 0
-494 -916 0
-495 -918 0
-496 -919 0
-497 -921 0
-498 -922 0
-499 -923 0
-493 -925 0
-494 -926 0
-496 -927 0
-497 -928 0
-498 -929 0
-499 -930 0
-492 -931 0
-493 -933 0
-494 -934 0
-496 -936 0
-497 -937 0
-498 -938 0
-499 -939 0
-493 -949 0
-496 -951 0
-498 -953 0
-499 -954 0
-493 -956 0
-495 -958 0
-496 -959 0
-498 -960 0
-499 -961 0
-492 -962 0
-493 -964 0
-495 -966 0
-496 -967 0
-498 -968 0
-499 -969 0
-492 -984 0
-493 -985 0
-496 -987 0
-497 -989 0
-498 -990 0
-499 -991 0
-494 -1001 0
-495 -1003 0
-496 -1004 0
-498 -1005 0
-499 -1006 0
-493 -1008 0
-494 -1009 0
-496 -1010 0
-498 -1012 0
-499 -1013 0
-492 -1014 0
-494 -1016 0
-496 -1018 0
-498 -1020 0
-499 -1021 0
-492 -1036 0
-493 -1037 0
-494 -1038 0
-495 -1039 0
-496 -1040 0
-497 -1041 0
-498 -1042 0
-499 -1043 0
-492 -1061 0
-493 -1062 0
-496 -1064 0
-498 -1065 0
-499 -1066 0
-498 -1071 0
-499 -1072 0
-493 -1075 0
-495 -1076 0
-498 -1078 0
-499 -1079 0
-493 -1088 0
-495 -1089 0
-497 -1090 0
-498 -1091 0
-499 -1092 0
-493 -1094 0
-497 -1097 0
-498 -1098 0
-499 -1099 0
-492 -1100 0
-493 -1102 0
-497 -1104 0
-498 -1105 0
-499 -1106 0
-495 -1136 0
-496 -1137 0
-498 -1139 0
-499 -1140 0
-492 -1141 0
-496 -1143 0
-498 -1145 0
-499 -1146 0
-492 -1160 0
-493 -1161 0
-495 -1163 0
-496 -1164 0
-497 -1166 0
-498 -1167 0
-499 -1168 0
-493 -1176 0
-496 -1178 0
-498 -1180 0
-499 -1181 0
-493 -1196 0
-495 -1197 0
-496 -1198 0
-497 -1199 0
-498 -1200 0
-499 -1201 0
-493 -1248 0
-495 -1249 0
-496 -1250 0
-498 -1252 0
-499 -1253 0
-494 -1305 0
-495 -1306 0
-496 -1307 0
-497 -1308 0
-498 -1309 0
-499 -1310 0
-494 -1333 0
-495 -1335 0
-496 -1336 0
-498 -1337 0
-499 -1338 0
-492 -1353 0
-494 -1354 0
-495 -1356 0
-496 -1357 0
-497 -1359 0
-498 -1360 0
-499 -1361 0
-492 -1362 0
-493 -1363 0
-494 -1364 0
-495 -1365 0
-496 -1366 0
-497 -1367 0
-498 -1368 0
-499 -1369 0
-492 -1377 0
-494 -1378 0
-495 -1380 0
-497 -1382 0
-498 -1383 0
-499 -1384 0
-494 -1401 0
-497 -1404 0
-498 -1405 0
-499 -1406 0
-493 -1408 0
-494 -1409 0
-495 -1410 0
-497 -1411 0
-498 -1412 0
-499 -1413 0
-494 -1423 0
-495 -1425 0
-498 -1427 0
-499 -1428 0
-493 -1430 0
-494 -1431 0
-495 -1433 0
-498 -1434 0
-499 -1435 0
-493 -1453 0
-494 -1454 0
-497 -1457 0
-498 -1458 0
-499 -1459 0
-493 -1460 0
-494 -1461 0
-495 -1462 0
-497 -1464 0
-498 -1465 0
-499 -1466 0
-494 -1468 0
-495 -1469 0
-496 -1470 0
-498 -1472 0
-499 -1473 0
-494 -1481 0
-495 -1482 0
-496 -1483 0
-497 -1485 0
-498 -1486 0
-499 -1487 0
-493 -1488 0
-494 -1489 0
-496 -1491 0
-497 -1492 0
-498 -1493 0
-499 -1494 0
-494 -1501 0
-496 -1503 0
-498 -1505 0
-499 -1506 0
-494 -1514 0
-496 -1515 0
-497 -1516 0
-498 -1517 0
-499 -1518 0
-493 -1520 0
-494 -1521 0
-495 -1523 0
-496 -1524 0
-497 -1526 0
-498 -1527 0
-499 -1528 0
-495 -1537 0
-496 -1538 0
-498 -1539 0
-499 -1540 0
-493 -1547 0
-496 -1548 0
-497 -1550 0
-498 -1551 0
-499 -1552 0
-494 -1559 0
-495 -1561 0
-497 -1562 0
-498 -1563 0
-499 -1564 0
-492 -1566 0
-496 -1567 0
-497 -1569 0
-498 -1570 0
-499 -1571 0
-498 -1576 0
-499 -1577 0
-495 -1587 0
-497 -1589 0
-498 -1590 0
-499 -1591 0
-493 -1593 0
-495 -1594 0
-497 -1595 0
-498 -1596 0
-499 -1597 0
-492 -1598 0
-495 -1601 0
-497 -1602 0
-498 -1603 0
-499 -1604 0
-495 -1625 0
-496 -1626 0
-498 -1628 0
-499 -1629 0
-492 -1636 0
-495 -1637 0
-496 -1638 0
-497 -1639 0
-498 -1640 0
-499 -1641 0
-492 -1714 0
-495 -1715 0
-496 -1716 0
-497 -1717 0
-498 -1718 0
-499 -1719 0
-494 -1721 0
-496 -1722 0
-497 -1723 0
-498 -1724 0
-499 -1725 0
-495 -1734 0
-496 -1735 0
-498 -1736 0
-499 -1737 0
-495 -1745 0
-496 -1746 0
-497 -1748 0
-498 -1749 0
-499 -1750 0
-493 -1751 0
-496 -1752 0
-497 -1754 0
-498 -1755 0
-499 -1756 0
-494 -1757 0
-495 -1759 0
-497 -1760 0
-498 -1761 0
-499 -1762 0
-496 -1765 0
-497 -1767 0
-498 -1768 0
-499 -1769 0
-494 -1791 0
-495 -1793 0
-497 -1794 0
-498 -1795 0
-499 -1796 0
-493 -1797 0
-494 -1798 0
-497 -1801 0
-498 -1802 0
-499 -1803 0
-493 -1812 0
-495 -1814 0
-498 -1816 0
-499 -1817 0
-494 -1818 0
-496 -1820 0
-498 -1822 0
-499 -1823 0
-495 -1832 0
-496 -1833 0
-497 -1835 0
-498 -1836 0
-499 -1837 0
-493 -1838 0
-496 -1839 0
-497 -1841 0
-498 -1842 0
-499 -1843 0
-503 -511 0
-504 -512 0
-505 -513 0
-506 -514 0
-500 -526 0
-503 -529 0
-504 -530 0
-505 -531 0
-506 -532 0
-500 -534 0
-502 -536 0
-503 -538 0
-505 -539 0
-506 -540 0
-500 -548 0
-502 -550 0
-503 -552 0
-504 -553 0
-505 -554 0
-506 -555 0
-503 -565 0
-504 -566 0
-505 -567 0
-506 -568 0
-503 -573 0
-505 -574 0
-506 -575 0
-501 -586 0
-503 -589 0
-504 -590 0
-505 -591 0
-506 -592 0
-500 -593 0
-503 -596 0
-504 -597 0
-505 -598 0
-506 -599 0
-502 -604 0
-503 -606 0
-504 -607 0
-505 -608 0
-506 -609 0
-500 -616 0
-502 -619 0
-503 -620 0
-505 -621 0
-506 -622 0
-500 -638 0
-501 -640 0
-502 -642 0
-503 -644 0
-505 -645 0
-506 -646 0
-500 -661 0
-505 -665 0
-506 -666 0
-505 -695 0
-506 -696 0
-500 -706 0
-504 -710 0
-505 -711 0
-506 -712 0
-501 -728 0
-505 -732 0
-506 -733 0
-504 -789 0
-505 -790 0
-506 -791 0
-500 -811 0
-504 -814 0
-505 -815 0
-506 -816 0
-500 -827 0
-501 -828 0
-504 -830 0
-505 -831 0
-506 -832 0
-500 -834 0
-502 -836 0
-505 -837 0
-506 -838 0
-500 -847 0
-501 -848 0
-502 -850 0
-504 -851 0
-505 -852 0
-506 -853 0
-500 -863 0
-503 -865 0
-504 -866 0
-505 -867 0
-506 -868 0
-500 -869 0
-503 -872 0
-504 -873 0
-505 -874 0
-506 -875 0
-500 -876 0
-502 -878 0
-503 -880 0
-505 -881 0
-506 -882 0
-505 -888 0
-506 -889 0
-501 -902 0
-504 -905 0
-505 -906 0
-506 -907 0
-501 -909 0
-505 -912 0
-506 -913 0
-501 -925 0
-504 -928 0
-505 -929 0
-506 -930 0
-500 -931 0
-501 -933 0
-504 -937 0
-505 -938 0
-506 -939 0
-501 -941 0
-502 -944 0
-504 -945 0
-505 -946 0
-506 -947 0
-501 -956 0
-502 -958 0
-505 -960 0
-506 -961 0
-500 -962 0
-501 -964 0
-502 -966 0
-505 -968 0
-506 -969 0
-500 -977 0
-501 -978 0
-502 -981 0
-505 -982 0
-506 -983 0
-503 -996 0
-504 -997 0
-505 -998 0
-506 -999 0
-501 -1008 0
-503 -1011 0
-505 -1012 0
-506 -1013 0
-500 -1014 0
-503 -1019 0
-505 -1020 0
-506 -1021 0
-500 -1029 0
-501 -1030 0
-503 -1033 0
-505 -1034 0
-506 -1035 0
-500 -1051 0
-501 -1052 0
-502 -1055 0
-503 -1057 0
-504 -1058 0
-505 -1059 0
-506 -1060 0
-503 -1070 0
-505 -1071 0
-506 -1072 0
-501 -1081 0
-503 -1084 0
-505 -1085 0
-506 -1086 0
-501 -1094 0
-503 -1096 0
-504 -1097 0
-505 -1098 0
-506 -1099 0
-500 -1100 0
-501 -1102 0
-503 -1103 0
-504 -1104 0
-505 -1105 0
-506 -1106 0
-501 -1108 0
-502 -1110 0
-503 -1112 0
-504 -1113 0
-505 -1114 0
-506 -1115 0
-500 -1122 0
-501 -1123 0
-502 -1124 0
-503 -1126 0
-505 -1127 0
-506 -1128 0
-503 -1131 0
-504 -1132 0
-505 -1133 0
-506 -1134 0
-500 -1141 0
-503 -1144 0
-505 -1145 0
-506 -1146 0
-500 -1153 0
-501 -1154 0
-503 -1157 0
-505 -1158 0
-506 -1159 0
-501 -1176 0
-503 -1179 0
-505 -1180 0
-506 -1181 0
-501 -1190 0
-503 -1192 0
-505 -1193 0
-506 -1194 0
-501 -1209 0
-502 -1211 0
-503 -1212 0
-504 -1213 0
-505 -1214 0
-506 -1215 0
-501 -1240 0
-503 -1243 0
-504 -1244 0
-505 -1245 0
-506 -1246 0
-503 -1313 0
-504 -1314 0
-505 -1315 0
-506 -1316 0
-502 -1341 0
-503 -1342 0
-504 -1343 0
-505 -1344 0
-506 -1345 0
-500 -1353 0
-502 -1356 0
-503 -1358 0
-504 -1359 0
-505 -1360 0
-506 -1361 0
-500 -1370 0
-501 -1371 0
-502 -1372 0
-503 -1373 0
-504 -1374 0
-505 -1375 0
-506 -1376 0
-500 -1385 0
-504 -1389 0
-505 -1390 0
-506 -1391 0
-503 -1403 0
-504 -1404 0
-505 -1405 0
-506 -1406 0
-501 -1415 0
-503 -1418 0
-504 -1419 0
-505 -1420 0
-506 -1421 0
-502 -1425 0
-503 -1426 0
-505 -1427 0
-506 -1428 0
-501 -1437 0
-502 -1439 0
-503 -1441 0
-504 -1442 0
-505 -1443 0
-506 -1444 0
-501 -1445 0
-502 -1448 0
-503 -1450 0
-505 -1451 0
-506 -1452 0
-501 -1460 0
-502 -1462 0
-503 -1463 0
-504 -1464 0
-505 -1465 0
-506 -1466 0
-504 -1477 0
-505 -1478 0
-506 -1479 0
-501 -1488 0
-504 -1492 0
-505 -1493 0
-506 -1494 0
-502 -1497 0
-504 -1498 0
-505 -1499 0
-506 -1500 0
-504 -1516 0
-505 -1517 0
-506 -1518 0
-501 -1530 0
-504 -1532 0
-505 -1533 0
-506 -1534 0
-502 -1537 0
-505 -1539 0
-506 -1540 0
-501 -1541 0
-502 -1543 0
-505 -1545 0
-506 -1546 0
-503 -1556 0
-505 -1557 0
-506 -1558 0
-502 -1581 0
-505 -1583 0
-506 -1584 0
-501 -1593 0
-502 -1594 0
-504 -1595 0
-505 -1596 0
-506 -1597 0
-500 -1598 0
-502 -1601 0
-504 -1602 0
-505 -1603 0
-506 -1604 0
-504 -1608 0
-505 -1609 0
-506 -1610 0
-500 -1618 0
-501 -1619 0
-505 -1622 0
-506 -1623 0
-502 -1625 0
-503 -1627 0
-505 -1628 0
-506 -1629 0
-500 -1630 0
-502 -1632 0
-503 -1633 0
-505 -1634 0
-506 -1635 0
-500 -1642 0
-503 -1644 0
-504 -1645 0
-505 -1646 0
-506 -1647 0
-502 -1649 0
-503 -1651 0
-505 -1652 0
-506 -1653 0
-500 -1654 0
-502 -1656 0
-503 -1658 0
-505 -1659 0
-506 -1660 0
-501 -1668 0
-502 -1669 0
-503 -1671 0
-505 -1672 0
-506 -1673 0
-502 -1682 0
-503 -1683 0
-504 -1684 0
-505 -1685 0
-506 -1686 0
-502 -1727 0
-503 -1728 0
-504 -1729 0
-505 -1730 0
-506 -1731 0
-503 -1741 0
-505 -1742 0
-506 -1743 0
-501 -1751 0
-503 -1753 0
-504 -1754 0
-505 -1755 0
-506 -1756 0
-502 -1759 0
-504 -1760 0
-505 -1761 0
-506 -1762 0
-502 -1793 0
-504 -1794 0
-505 -1795 0
-506 -1796 0
-501 -1804 0
-502 -1806 0
-504 -1808 0
-505 -1809 0
-506 -1810 0
-502 -1825 0
-503 -1827 0
-504 -1828 0
-505 -1829 0
-506 -1830 0
-502 -1832 0
-503 -1834 0
-504 -1835 0
-505 -1836 0
-506 -1837 0
-509 -618 0
-511 -620 0
-513 -621 0
-514 -622 0
-509 -743 0
-510 -744 0
-511 -745 0
-512 -746 0
-513 -747 0
-514 -748 0
-507 -800 0
-509 -803 0
-510 -805 0
-511 -806 0
-512 -807 0
-513 -808 0
-514 -809 0
-507 -833 0
-509 -835 0
-513 -837 0
-514 -838 0
-507 -839 0
-509 -842 0
-511 -844 0
-513 -845 0
-514 -846 0
-509 -849 0
-512 -851 0
-513 -852 0
-514 -853 0
-507 -854 0
-508 -856 0
-510 -858 0
-511 -859 0
-513 -860 0
-514 -861 0
-507 -862 0
-510 -864 0
-511 -865 0
-512 -866 0
-513 -867 0
-514 -868 0
-508 -870 0
-510 -871 0
-511 -872 0
-512 -873 0
-513 -874 0
-514 -875 0
-507 -883 0
-508 -885 0
-509 -886 0
-510 -887 0
-513 -888 0
-514 -889 0
-507 -890 0
-508 -893 0
-509 -894 0
-510 -896 0
-511 -897 0
-513 -898 0
-514 -899 0
-507 -900 0
-509 -903 0
-510 -904 0
-512 -905 0
-513 -906 0
-514 -907 0
-508 -934 0
-509 -935 0
-510 -936 0
-512 -937 0
-513 -938 0
-514 -939 0
-507 -940 0
-508 -942 0
-509 -943 0
-512 -945 0
-513 -946 0
-514 -947 0
-507 -948 0
-509 -950 0
-510 -951 0
-511 -952 0
-513 -953 0
-514 -954 0
-507 -955 0
-509 -957 0
-510 -959 0
-513 -960 0
-514 -961 0
-508 -972 0
-509 -973 0
-511 -974 0
-513 -975 0
-514 -976 0
-508 -979 0
-509 -980 0
-513 -982 0
-514 -983 0
-509 -986 0
-510 -987 0
-511 -988 0
-512 -989 0
-513 -990 0
-514 -991 0
-507 -992 0
-508 -993 0
-509 -994 0
-510 -995 0
-511 -996 0
-512 -997 0
-513 -998 0
-514 -999 0
-507 -1000 0
-508 -1001 0
-509 -1002 0
-510 -1004 0
-513 -1005 0
-514 -1006 0
-507 -1007 0
-508 -1009 0
-510 -1010 0
-511 -1011 0
-513 -1012 0
-514 -1013 0
-508 -1023 0
-509 -1024 0
-510 -1026 0
-513 -1027 0
-514 -1028 0
-508 -1031 0
-510 -1032 0
-511 -1033 0
-513 -1034 0
-514 -1035 0
-508 -1038 0
-510 -1040 0
-512 -1041 0
-513 -1042 0
-514 -1043 0
-507 -1067 0
-509 -1069 0
-511 -1070 0
-513 -1071 0
-514 -1072 0
-507 -1073 0
-511 -1077 0
-513 -1078 0
-514 -1079 0
-511 -1103 0
-512 -1104 0
-513 -1105 0
-514 -1106 0
-507 -1107 0
-509 -1109 0
-510 -1111 0
-511 -1112 0
-512 -1113 0
-513 -1114 0
-514 -1115 0
-509 -1118 0
-510 -1119 0
-513 -1120 0
-514 -1121 0
-510 -1125 0
-511 -1126 0
-513 -1127 0
-514 -1128 0
-507 -1129 0
-508 -1130 0
-511 -1131 0
-512 -1132 0
-513 -1133 0
-514 -1134 0
-507 -1135 0
-510 -1137 0
-511 -1138 0
-513 -1139 0
-514 -1140 0
-508 -1148 0
-511 -1150 0
-513 -1151 0
-514 -1152 0
-508 -1155 0
-509 -1156 0
-511 -1157 0
-513 -1158 0
-514 -1159 0
-509 -1162 0
-510 -1164 0
-511 -1165 0
-512 -1166 0
-513 -1167 0
-514 -1168 0
-508 -1184 0
-509 -1185 0
-513 -1187 0
-514 -1188 0
-508 -1191 0
-511 -1192 0
-513 -1193 0
-514 -1194 0
-510 -1198 0
-512 -1199 0
-513 -1200 0
-514 -1201 0
-508 -1217 0
-509 -1218 0
-510 -1219 0
-512 -1220 0
-513 -1221 0
-514 -1222 0
-509 -1224 0
-511 -1226 0
-513 -1227 0
-514 -1228 0
-508 -1255 0
-511 -1257 0
-512 -1258 0
-513 -1259 0
-514 -1260 0
-508 -1262 0
-510 -1264 0
-513 -1265 0
-514 -1266 0
-508 -1268 0
-509 -1269 0
-510 -1271 0
-511 -1272 0
-513 -1273 0
-514 -1274 0
-509 -1348 0
-512 -1350 0
-513 -1351 0
-514 -1352 0
-508 -1393 0
-509 -1394 0
-510 -1396 0
-512 -1397 0
-513 -1398 0
-514 -1399 0
-508 -1423 0
-509 -1424 0
-511 -1426 0
-513 -1427 0
-514 -1428 0
-508 -1431 0
-509 -1432 0
-513 -1434 0
-514 -1435 0
-509 -1438 0
-510 -1440 0
-511 -1441 0
-512 -1442 0
-513 -1443 0
-514 -1444 0
-508 -1468 0
-510 -1470 0
-511 -1471 0
-513 -1472 0
-514 -1473 0
-508 -1475 0
-510 -1476 0
-512 -1477 0
-513 -1478 0
-514 -1479 0
-508 -1495 0
-509 -1496 0
-512 -1498 0
-513 -1499 0
-514 -1500 0
-508 -1501 0
-509 -1502 0
-510 -1503 0
-511 -1504 0
-513 -1505 0
-514 -1506 0
-511 -1509 0
-512 -1510 0
-513 -1511 0
-514 -1512 0
-509 -1536 0
-510 -1538 0
-513 -1539 0
-514 -1540 0
-507 -1572 0
-509 -1574 0
-511 -1575 0
-513 -1576 0
-514 -1577 0
-509 -1600 0
-512 -1602 0
-513 -1603 0
-514 -1604 0
-507 -1605 0
-509 -1606 0
-510 -1607 0
-512 -1608 0
-513 -1609 0
-514 -1610 0
-509 -1612 0
-510 -1614 0
-511 -1615 0
-513 -1616 0
-514 -1617 0
-509 -1620 0
-510 -1621 0
-513 -1622 0
-514 -1623 0
-507 -1624 0
-510 -1626 0
-511 -1627 0
-513 -1628 0
-514 -1629 0
-508 -1631 0
-511 -1633 0
-513 -1634 0
-514 -1635 0
-510 -1638 0
-512 -1639 0
-513 -1640 0
-514 -1641 0
-509 -1655 0
-510 -1657 0
-511 -1658 0
-513 -1659 0
-514 -1660 0
-509 -1662 0
-510 -1664 0
-513 -1665 0
-514 -1666 0
-510 -1670 0
-511 -1671 0
-513 -1672 0
-514 -1673 0
-509 -1675 0
-510 -1677 0
-512 -1678 0
-513 -1679 0
-514 -1680 0
-508 -1687 0
-510 -1689 0
-511 -1690 0
-512 -1691 0
-513 -1692 0
-514 -1693 0
-509 -1696 0
-511 -1698 0
-513 -1699 0
-514 -1700 0
-509 -1733 0
-510 -1735 0
-513 -1736 0
-514 -1737 0
-507 -1771 0
-509 -1772 0
-511 -1774 0
-512 -1775 0
-513 -1776 0
-514 -1777 0
-509 -1779 0
-511 -1780 0
-512 -1781 0
-513 -1782 0
-514 -1783 0
-508 -1791 0
-509 -1792 0
-512 -1794 0
-513 -1795 0
-514 -1796 0
-508 -1798 0
-509 -1799 0
-511 -1800 0
-512 -1801 0
-513 -1802 0
-514 -1803 0
-509 -1805 0
-510 -1807 0
-512 -1808 0
-513 -1809 0
-514 -1810 0
-509 -1831 0
-510 -1833 0
-511 -1834 0
-512 -1835 0
-513 -1836 0
-514 -1837 0
-510 -1839 0
-511 -1840 0
-512 -1841 0
-513 -1842 0
-514 -1843 0
-509 -1853 0
-510 -1855 0
-511 -1856 0
-512 -1857 0
-513 -1858 0
-514 -1859 0
-515 -610 0
-517 -611 0
-519 -612 0
-523 -614 0
-524 -615 0
-516 -684 0
-518 -685 0
-520 -686 0
-523 -688 0
-524 -689 0
-517 -742 0
-519 -743 0
-521 -744 0
-522 -746 0
-523 -747 0
-524 -748 0
-517 -757 0
-520 -759 0
-521 -760 0
-523 -762 0
-524 -763 0
-517 -772 0
-518 -773 0
-519 -774 0
-520 -775 0
-523 -777 0
-524 -778 0
-515 -786 0
-519 -787 0
-521 -788 0
-522 -789 0
-523 -790 0
-524 -791 0
-515 -833 0
-516 -834 0
-519 -835 0
-520 -836 0
-523 -837 0
-524 -838 0
-515 -862 0
-516 -863 0
-521 -864 0
-522 -866 0
-523 -867 0
-524 -868 0
-516 -876 0
-519 -877 0
-520 -878 0
-521 -879 0
-523 -881 0
-524 -882 0
-515 -883 0
-517 -884 0
-518 -885 0
-519 -886 0
-521 -887 0
-523 -888 0
-524 -889 0
-515 -900 0
-517 -901 0
-519 -903 0
-521 -904 0
-522 -905 0
-523 -906 0
-524 -907 0
-515 -914 0
-518 -916 0
-519 -917 0
-520 -918 0
-521 -919 0
-522 -921 0
-523 -922 0
-524 -923 0
-515 -940 0
-518 -942 0
-519 -943 0
-520 -944 0
-522 -945 0
-523 -946 0
-524 -947 0
-515 -955 0
-519 -957 0
-520 -958 0
-521 -959 0
-523 -960 0
-524 -961 0
-516 -962 0
-517 -963 0
-519 -965 0
-520 -966 0
-521 -967 0
-523 -968 0
-524 -969 0
-516 -970 0
-518 -972 0
-519 -973 0
-523 -975 0
-524 -976 0
-516 -984 0
-519 -986 0
-521 -987 0
-522 -989 0
-523 -990 0
-524 -991 0
-515 -992 0
-518 -993 0
-519 -994 0
-521 -995 0
-522 -997 0
-523 -998 0
-524 -999 0
-515 -1007 0
-518 -1009 0
-521 -1010 0
-523 -1012 0
-524 -1013 0
-516 -1014 0
-517 -1015 0
-518 -1016 0
-519 -1017 0
-521 -1018 0
-523 -1020 0
-524 -1021 0
-516 -1022 0
-518 -1023 0
-519 -1024 0
-520 -1025 0
-521 -1026 0
-523 -1027 0
-524 -1028 0
-516 -1036 0
-518 -1038 0
-520 -1039 0
-521 -1040 0
-522 -1041 0
-523 -1042 0
-524 -1043 0
-516 -1051 0
-518 -1053 0
-519 -1054 0
-520 -1055 0
-521 -1056 0
-522 -1058 0
-523 -1059 0
-524 -1060 0
-515 -1067 0
-517 -1068 0
-519 -1069 0
-523 -1071 0
-524 -1072 0
-515 -1087 0
-520 -1089 0
-522 -1090 0
-523 -1091 0
-524 -1092 0
-515 -1107 0
-519 -1109 0
-520 -1110 0
-521 -1111 0
-522 -1113 0
-523 -1114 0
-524 -1115 0
-516 -1116 0
-519 -1118 0
-521 -1119 0
-523 -1120 0
-524 -1121 0
-515 -1129 0
-518 -1130 0
-522 -1132 0
-523 -1133 0
-524 -1134 0
-516 -1141 0
-517 -1142 0
-521 -1143 0
-523 -1145 0
-524 -1146 0
-516 -1147 0
-518 -1148 0
-520 -1149 0
-523 -1151 0
-524 -1152 0
-516 -1160 0
-519 -1162 0
-520 -1163 0
-521 -1164 0
-522 -1166 0
-523 -1167 0
-524 -1168 0
-517 -1175 0
-519 -1177 0
-521 -1178 0
-523 -1180 0
-524 -1181 0
-517 -1182 0
-518 -1184 0
-519 -1185 0
-520 -1186 0
-523 -1187 0
-524 -1188 0
-517 -1195 0
-520 -1197 0
-521 -1198 0
-522 -1199 0
-523 -1200 0
-524 -1201 0
-517 -1208 0
-519 -1210 0
-520 -1211 0
-522 -1213 0
-523 -1214 0
-524 -1215 0
-518 -1217 0
-519 -1218 0
-521 -1219 0
-522 -1220 0
-523 -1221 0
-524 -1222 0
-517 -1239 0
-518 -1241 0
-521 -1242 0
-522 -1244 0
-523 -1245 0
-524 -1246 0
-518 -1255 0
-520 -1256 0
-522 -1258 0
-523 -1259 0
-524 -1260 0
-518 -1268 0
-519 -1269 0
-520 -1270 0
-521 -1271 0
-523 -1273 0
-524 -1274 0
-515 -1339 0
-519 -1340 0
-520 -1341 0
-522 -1343 0
-523 -1344 0
-524 -1345 0
-517 -1422 0
-518 -1423 0
-519 -1424 0
-520 -1425 0
-523 -1427 0
-524 -1428 0
-517 -1436 0
-519 -1438 0
-520 -1439 0
-521 -1440 0
-522 -1442 0
-523 -1443 0
-524 -1444 0
-518 -1454 0
-519 -1455 0
-522 -1457 0
-523 -1458 0
-524 -1459 0
-517 -1474 0
-518 -1475 0
-521 -1476 0
-522 -1477 0
-523 -1478 0
-524 -1479 0
-518 -1481 0
-520 -1482 0
-521 -1483 0
-522 -1485 0
-523 -1486 0
-524 -1487 0
-518 -1495 0
-519 -1496 0
-520 -1497 0
-522 -1498 0
-523 -1499 0
-524 -1500 0
-517 -1535 0
-519 -1536 0
-520 -1537 0
-521 -1538 0
-523 -1539 0
-524 -1540 0
-521 -1548 0
-522 -1550 0
-523 -1551 0
-524 -1552 0
-518 -1559 0
-519 -1560 0
-520 -1561 0
-522 -1562 0
-523 -1563 0
-524 -1564 0
-515 -1585 0
-519 -1586 0
-520 -1587 0
-522 -1589 0
-523 -1590 0
-524 -1591 0
-515 -1605 0
-519 -1606 0
-521 -1607 0
-522 -1608 0
-523 -1609 0
-524 -1610 0
-516 -1611 0
-519 -1612 0
-520 -1613 0
-521 -1614 0
-523 -1616 0
-524 -1617 0
-515 -1624 0
-520 -1625 0
-521 -1626 0
-523 -1628 0
-524 -1629 0
-516 -1636 0
-520 -1637 0
-521 -1638 0
-522 -1639 0
-523 -1640 0
-524 -1641 0
-516 -1642 0
-519 -1643 0
-522 -1645 0
-523 -1646 0
-524 -1647 0
-517 -1661 0
-519 -1662 0
-520 -1663 0
-521 -1664 0
-523 -1665 0
-524 -1666 0
-519 -1675 0
-520 -1676 0
-521 -1677 0
-522 -1678 0
-523 -1679 0
-524 -1680 0
-517 -1681 0
-520 -1682 0
-522 -1684 0
-523 -1685 0
-524 -1686 0
-518 -1687 0
-520 -1688 0
-521 -1689 0
-522 -1691 0
-523 -1692 0
-524 -1693 0
-519 -1696 0
-520 -1697 0
-523 -1699 0
-524 -1700 0
-519 -1744 0
-520 -1745 0
-521 -1746 0
-522 -1748 0
-523 -1749 0
-524 -1750 0
-517 -1784 0
-519 -1785 0
-521 -1786 0
-522 -1788 0
-523 -1789 0
-524 -1790 0
-518 -1791 0
-519 -1792 0
-520 -1793 0
-522 -1794 0
-523 -1795 0
-524 -1796 0
-519 -1805 0
-520 -1806 0
-521 -1807 0
-522 -1808 0
-523 -1809 0
-524 -1810 0
-519 -1813 0
-520 -1814 0
-523 -1816 0
-524 -1817 0
-518 -1818 0
-519 -1819 0
-521 -1820 0
-523 -1822 0
-524 -1823 0
-519 -1831 0
-520 -1832 0
-521 -1833 0
-522 -1835 0
-523 -1836 0
-524 -1837 0
-525 -600 0
-527 -601 0
-528 -603 0
-529 -606 0
-530 -607 0
-531 -608 0
-532 -609 0
-526 -677 0
-529 -680 0
-530 -681 0
-531 -682 0
-532 -683 0
-527 -742 0
-528 -743 0
-529 -745 0
-530 -746 0
-531 -747 0
-532 -748 0
-527 -749 0
-529 -753 0
-530 -754 0
-531 -755 0
-532 -756 0
-527 -764 0
-528 -766 0
-530 -769 0
-531 -770 0
-532 -771 0
-525 -779 0
-528 -781 0
-529 -783 0
-531 -784 0
-532 -785 0
-525 -833 0
-526 -834 0
-528 -835 0
-531 -837 0
-532 -838 0
-525 -839 0
-526 -840 0
-528 -842 0
-529 -844 0
-531 -845 0
-532 -846 0
-525 -854 0
-526 -855 0
-529 -859 0
-531 -860 0
-532 -861 0
-526 -876 0
-528 -877 0
-529 -880 0
-531 -881 0
-532 -882 0
-525 -883 0
-527 -884 0
-528 -886 0
-531 -888 0
-532 -889 0
-525 -890 0
-527 -891 0
-528 -894 0
-529 -897 0
-531 -898 0
-532 -899 0
-525 -908 0
-528 -911 0
-531 -912 0
-532 -913 0
-525 -948 0
-528 -950 0
-529 -952 0
-531 -953 0
-532 -954 0
-525 -955 0
-528 -957 0
-531 -960 0
-532 -961 0
-526 -962 0
-527 -963 0
-528 -965 0
-531 -968 0
-532 -969 0
-526 -970 0
-528 -973 0
-529 -974 0
-531 -975 0
-532 -976 0
-526 -977 0
-528 -980 0
-531 -982 0
-532 -983 0
-525 -1000 0
-528 -1002 0
-531 -1005 0
-532 -1006 0
-525 -1007 0
-529 -1011 0
-531 -1012 0
-532 -1013 0
-526 -1014 0
-527 -1015 0
-528 -1017 0
-529 -1019 0
-531 -1020 0
-532 -1021 0
-526 -1022 0
-528 -1024 0
-531 -1027 0
-532 -1028 0
-526 -1029 0
-529 -1033 0
-531 -1034 0
-532 -1035 0
-526 -1061 0
-528 -1063 0
-531 -1065 0
-532 -1066 0
-525 -1067 0
-527 -1068 0
-528 -1069 0
-529 -1070 0
-531 -1071 0
-532 -1072 0
-525 -1073 0
-527 -1074 0
-529 -1077 0
-531 -1078 0
-532 -1079 0
-525 -1080 0
-529 -1084 0
-531 -1085 0
-532 -1086 0
-526 -1116 0
-528 -1118 0
-531 -1120 0
-532 -1121 0
-526 -1122 0
-529 -1126 0
-531 -1127 0
-532 -1128 0
-525 -1135 0
-529 -1138 0
-531 -1139 0
-532 -1140 0
-526 -1141 0
-527 -1142 0
-529 -1144 0
-531 -1145 0
-532 -1146 0
-526 -1147 0
-529 -1150 0
-531 -1151 0
-532 -1152 0
-526 -1153 0
-528 -1156 0
-529 -1157 0
-531 -1158 0
-532 -1159 0
-527 -1175 0
-528 -1177 0
-529 -1179 0
-531 -1180 0
-532 -1181 0
-527 -1182 0
-528 -1185 0
-531 -1187 0
-532 -1188 0
-527 -1189 0
-529 -1192 0
-531 -1193 0
-532 -1194 0
-528 -1224 0
-529 -1226 0
-531 -1227 0
-532 -1228 0
-527 -1247 0
-529 -1251 0
-531 -1252 0
-532 -1253 0
-531 -1265 0
-532 -1266 0
-528 -1269 0
-529 -1272 0
-531 -1273 0
-532 -1274 0
-525 -1332 0
-528 -1334 0
-531 -1337 0
-532 -1338 0
-527 -1422 0
-528 -1424 0
-529 -1426 0
-531 -1427 0
-532 -1428 0
-527 -1429 0
-528 -1432 0
-531 -1434 0
-532 -1435 0
-528 -1447 0
-529 -1450 0
-531 -1451 0
-532 -1452 0
-527 -1467 0
-529 -1471 0
-531 -1472 0
-532 -1473 0
-528 -1502 0
-529 -1504 0
-531 -1505 0
-532 -1506 0
-527 -1535 0
-528 -1536 0
-531 -1539 0
-532 -1540 0
-531 -1545 0
-532 -1546 0
-528 -1554 0
-529 -1556 0
-531 -1557 0
-532 -1558 0
-525 -1572 0
-527 -1573 0
-528 -1574 0
-529 -1575 0
-531 -1576 0
-532 -1577 0
-525 -1578 0
-528 -1580 0
-531 -1583 0
-532 -1584 0
-526 -1611 0
-528 -1612 0
-529 -1615 0
-531 -1616 0
-532 -1617 0
-526 -1618 0
-528 -1620 0
-531 -1622 0
-532 -1623 0
-525 -1624 0
-529 -1627 0
-531 -1628 0
-532 -1629 0
-526 -1630 0
-529 -1633 0
-531 -1634 0
-532 -1635 0
-525 -1648 0
-529 -1651 0
-531 -1652 0
-532 -1653 0
-526 -1654 0
-528 -1655 0
-529 -1658 0
-531 -1659 0
-532 -1660 0
-527 -1661 0
-528 -1662 0
-531 -1665 0
-532 -1666 0
-527 -1667 0
-529 -1671 0
-531 -1672 0
-532 -1673 0
-528 -1696 0
-529 -1698 0
-531 -1699 0
-532 -1700 0
-527 -1732 0
-528 -1733 0
-531 -1736 0
-532 -1737 0
-528 -1739 0
-529 -1741 0
-531 -1742 0
-532 -1743 0
-525 -1771 0
-528 -1772 0
-529 -1774 0
-530 -1775 0
-531 -1776 0
-532 -1777 0
-527 -1784 0
-528 -1785 0
-529 -1787 0
-530 -1788 0
-531 -1789 0
-532 -1790 0
-528 -1792 0
-530 -1794 0
-531 -1795 0
-532 -1796 0
-528 -1799 0
-529 -1800 0
-530 -1801 0
-531 -1802 0
-532 -1803 0
-528 -1824 0
-529 -1827 0
-530 -1828 0
-531 -1829 0
-532 -1830 0
-528 -1831 0
-529 -1834 0
-530 -1835 0
-531 -1836 0
-532 -1837 0
-529 -1840 0
-530 -1841 0
-531 -1842 0
-532 -1843 0
-528 -1853 0
-529 -1856 0
-530 -1857 0
-531 -1858 0
-532 -1859 0
-533 -562 0
-537 -564 0
-538 -565 0
-539 -567 0
-540 -568 0
-534 -667 0
-535 -669 0
-536 -671 0
-537 -672 0
-538 -673 0
-539 -675 0
-540 -676 0
-536 -737 0
-538 -738 0
-539 -740 0
-540 -741 0
-535 -773 0
-536 -775 0
-538 -776 0
-539 -777 0
-540 -778 0
-533 -786 0
-537 -788 0
-539 -790 0
-540 -791 0
-533 -792 0
-536 -794 0
-537 -795 0
-538 -796 0
-539 -798 0
-540 -799 0
-533 -800 0
-534 -801 0
-536 -804 0
-537 -805 0
-538 -806 0
-539 -808 0
-540 -809 0
-533 -826 0
-534 -827 0
-537 -829 0
-539 -831 0
-540 -832 0
-533 -854 0
-534 -855 0
-535 -856 0
-536 -857 0
-537 -858 0
-538 -859 0
-539 -860 0
-540 -861 0
-534 -869 0
-535 -870 0
-537 -871 0
-538 -872 0
-539 -874 0
-540 -875 0
-534 -876 0
-536 -878 0
-537 -879 0
-538 -880 0
-539 -881 0
-540 -882 0
-533 -883 0
-535 -885 0
-537 -887 0
-539 -888 0
-540 -889 0
-533 -890 0
-535 -893 0
-536 -895 0
-537 -896 0
-538 -897 0
-539 -898 0
-540 -899 0
-533 -914 0
-535 -916 0
-536 -918 0
-537 -919 0
-538 -920 0
-539 -922 0
-540 -923 0
-533 -924 0
-535 -926 0
-537 -927 0
-539 -929 0
-540 -930 0
-534 -931 0
-535 -934 0
-537 -936 0
-539 -938 0
-540 -939 0
-533 -948 0
-537 -951 0
-538 -952 0
-539 -953 0
-540 -954 0
-533 -955 0
-536 -958 0
-537 -959 0
-539 -960 0
-540 -961 0
-534 -962 0
-536 -966 0
-537 -967 0
-539 -968 0
-540 -969 0
-534 -984 0
-537 -987 0
-538 -988 0
-539 -990 0
-540 -991 0
-533 -992 0
-535 -993 0
-537 -995 0
-538 -996 0
-539 -998 0
-540 -999 0
-534 -1022 0
-535 -1023 0
-536 -1025 0
-537 -1026 0
-539 -1027 0
-540 -1028 0
-534 -1029 0
-535 -1031 0
-537 -1032 0
-538 -1033 0
-539 -1034 0
-540 -1035 0
-534 -1044 0
-535 -1045 0
-537 -1047 0
-539 -1049 0
-540 -1050 0
-534 -1051 0
-535 -1053 0
-536 -1055 0
-537 -1056 0
-538 -1057 0
-539 -1059 0
-540 -1060 0
-533 -1067 0
-538 -1070 0
-539 -1071 0
-540 -1072 0
-533 -1073 0
-536 -1076 0
-538 -1077 0
-539 -1078 0
-540 -1079 0
-533 -1087 0
-536 -1089 0
-539 -1091 0
-540 -1092 0
-533 -1093 0
-538 -1096 0
-539 -1098 0
-540 -1099 0
-534 -1100 0
-538 -1103 0
-539 -1105 0
-540 -1106 0
-533 -1129 0
-535 -1130 0
-538 -1131 0
-539 -1133 0
-540 -1134 0
-534 -1147 0
-535 -1148 0
-536 -1149 0
-538 -1150 0
-539 -1151 0
-540 -1152 0
-534 -1153 0
-535 -1155 0
-538 -1157 0
-539 -1158 0
-540 -1159 0
-534 -1169 0
-538 -1171 0
-539 -1173 0
-540 -1174 0
-535 -1184 0
-536 -1186 0
-539 -1187 0
-540 -1188 0
-535 -1191 0
-538 -1192 0
-539 -1193 0
-540 -1194 0
-539 -1206 0
-540 -1207 0
-536 -1211 0
-538 -1212 0
-539 -1214 0
-540 -1215 0
-536 -1225 0
-538 -1226 0
-539 -1227 0
-540 -1228 0
-535 -1255 0
-536 -1256 0
-538 -1257 0
-539 -1259 0
-540 -1260 0
-535 -1276 0
-538 -1278 0
-539 -1280 0
-540 -1281 0
-533 -1297 0
-536 -1299 0
-537 -1300 0
-539 -1302 0
-540 -1303 0
-534 -1385 0
-535 -1386 0
-537 -1388 0
-539 -1390 0
-540 -1391 0
-535 -1393 0
-536 -1395 0
-537 -1396 0
-539 -1398 0
-540 -1399 0
-535 -1416 0
-537 -1417 0
-538 -1418 0
-539 -1420 0
-540 -1421 0
-536 -1439 0
-537 -1440 0
-538 -1441 0
-539 -1443 0
-540 -1444 0
-535 -1468 0
-536 -1469 0
-537 -1470 0
-538 -1471 0
-539 -1472 0
-540 -1473 0
-535 -1481 0
-536 -1482 0
-537 -1483 0
-538 -1484 0
-539 -1486 0
-540 -1487 0
-535 -1489 0
-537 -1491 0
-539 -1493 0
-540 -1494 0
-535 -1501 0
-537 -1503 0
-538 -1504 0
-539 -1505 0
-540 -1506 0
-536 -1508 0
-538 -1509 0
-539 -1511 0
-540 -1512 0
-539 -1533 0
-540 -1534 0
-535 -1559 0
-536 -1561 0
-539 -1563 0
-540 -1564 0
-533 -1572 0
-538 -1575 0
-539 -1576 0
-540 -1577 0
-533 -1585 0
-536 -1587 0
-538 -1588 0
-539 -1590 0
-540 -1591 0
-533 -1592 0
-536 -1594 0
-539 -1596 0
-540 -1597 0
-534 -1598 0
-536 -1601 0
-539 -1603 0
-540 -1604 0
-534 -1630 0
-535 -1631 0
-536 -1632 0
-538 -1633 0
-539 -1634 0
-540 -1635 0
-534 -1642 0
-538 -1644 0
-539 -1646 0
-540 -1647 0
-534 -1654 0
-536 -1656 0
-537 -1657 0
-538 -1658 0
-539 -1659 0
-540 -1660 0
-536 -1663 0
-537 -1664 0
-539 -1665 0
-540 -1666 0
-536 -1669 0
-537 -1670 0
-538 -1671 0
-539 -1672 0
-540 -1673 0
-535 -1687 0
-536 -1688 0
-537 -1689 0
-538 -1690 0
-539 -1692 0
-540 -1693 0
-536 -1702 0
-537 -1703 0
-538 -1704 0
-539 -1706 0
-540 -1707 0
-536 -1727 0
-538 -1728 0
-539 -1730 0
-540 -1731 0
-535 -1757 0
-536 -1759 0
-539 -1761 0
-540 -1762 0
-533 -1771 0
-536 -1773 0
-538 -1774 0
-539 -1776 0
-540 -1777 0
-534 -1778 0
-538 -1780 0
-539 -1782 0
-540 -1783 0
-535 -1791 0
-536 -1793 0
-539 -1795 0
-540 -1796 0
-535 -1798 0
-538 -1800 0
-539 -1802 0
-540 -1803 0
-536 -1814 0
-538 -1815 0
-539 -1816 0
-540 -1817 0
-536 -1832 0
-537 -1833 0
-538 -1834 0
-539 -1836 0
-540 -1837 0
-537 -1839 0
-538 -1840 0
-539 -1842 0
-540 -1843 0
-541 -556 0
-546 -560 0
-547 -561 0
-542 -661 0
-546 -665 0
-547 -666 0
-543 -731 0
-546 -732 0
-547 -733 0
-543 -768 0
-545 -769 0
-546 -770 0
-547 -771 0
-541 -779 0
-544 -783 0
-546 -784 0
-547 -785 0
-541 -792 0
-543 -795 0
-544 -796 0
-545 -797 0
-546 -798 0
-547 -799 0
-541 -800 0
-542 -801 0
-543 -805 0
-544 -806 0
-545 -807 0
-546 -808 0
-547 -809 0
-541 -817 0
-542 -818 0
-544 -822 0
-545 -823 0
-546 -824 0
-547 -825 0
-541 -839 0
-542 -840 0
-544 -844 0
-546 -845 0
-547 -846 0
-541 -862 0
-542 -863 0
-543 -864 0
-544 -865 0
-545 -866 0
-546 -867 0
-547 -868 0
-542 -869 0
-543 -871 0
-544 -872 0
-545 -873 0
-546 -874 0
-547 -875 0
-542 -876 0
-543 -879 0
-544 -880 0
-546 -881 0
-547 -882 0
-541 -883 0
-543 -887 0
-546 -888 0
-547 -889 0
-541 -900 0
-543 -904 0
-545 -905 0
-546 -906 0
-547 -907 0
-541 -908 0
-546 -912 0
-547 -913 0
-541 -924 0
-543 -927 0
-545 -928 0
-546 -929 0
-547 -930 0
-542 -931 0
-543 -936 0
-545 -937 0
-546 -938 0
-547 -939 0
-541 -940 0
-545 -945 0
-546 -946 0
-547 -947 0
-541 -955 0
-543 -959 0
-546 -960 0
-547 -961 0
-542 -962 0
-543 -967 0
-546 -968 0
-547 -969 0
-542 -977 0
-546 -982 0
-547 -983 0
-541 -1000 0
-543 -1004 0
-546 -1005 0
-547 -1006 0
-542 -1022 0
-543 -1026 0
-546 -1027 0
-547 -1028 0
-542 -1036 0
-543 -1040 0
-545 -1041 0
-546 -1042 0
-547 -1043 0
-542 -1044 0
-543 -1047 0
-545 -1048 0
-546 -1049 0
-547 -1050 0
-542 -1061 0
-543 -1064 0
-546 -1065 0
-547 -1066 0
-541 -1067 0
-544 -1070 0
-546 -1071 0
-547 -1072 0
-541 -1080 0
-543 -1083 0
-544 -1084 0
-546 -1085 0
-547 -1086 0
-541 -1093 0
-544 -1096 0
-545 -1097 0
-546 -1098 0
-547 -1099 0
-542 -1100 0
-544 -1103 0
-545 -1104 0
-546 -1105 0
-547 -1106 0
-541 -1107 0
-543 -1111 0
-544 -1112 0
-545 -1113 0
-546 -1114 0
-547 -1115 0
-542 -1122 0
-543 -1125 0
-544 -1126 0
-546 -1127 0
-547 -1128 0
-541 -1135 0
-543 -1137 0
-544 -1138 0
-546 -1139 0
-547 -1140 0
-542 -1147 0
-544 -1150 0
-546 -1151 0
-547 -1152 0
-542 -1160 0
-543 -1164 0
-544 -1165 0
-545 -1166 0
-546 -1167 0
-547 -1168 0
-542 -1169 0
-544 -1171 0
-545 -1172 0
-546 -1173 0
-547 -1174 0
-546 -1187 0
-547 -1188 0
-543 -1198 0
-545 -1199 0
-546 -1200 0
-547 -1201 0
-545 -1205 0
-546 -1206 0
-547 -1207 0
-543 -1219 0
-545 -1220 0
-546 -1221 0
-547 -1222 0
-543 -1264 0
-546 -1265 0
-547 -1266 0
-543 -1285 0
-545 -1286 0
-546 -1287 0
-547 -1288 0
-541 -1289 0
-544 -1293 0
-545 -1294 0
-546 -1295 0
-547 -1296 0
-542 -1377 0
-544 -1381 0
-545 -1382 0
-546 -1383 0
-547 -1384 0
-543 -1396 0
-545 -1397 0
-546 -1398 0
-547 -1399 0
-545 -1411 0
-546 -1412 0
-547 -1413 0
-546 -1434 0
-547 -1435 0
-543 -1476 0
-545 -1477 0
-546 -1478 0
-547 -1479 0
-543 -1491 0
-545 -1492 0
-546 -1493 0
-547 -1494 0
-545 -1498 0
-546 -1499 0
-547 -1500 0
-544 -1509 0
-545 -1510 0
-546 -1511 0
-547 -1512 0
-543 -1524 0
-544 -1525 0
-545 -1526 0
-546 -1527 0
-547 -1528 0
-543 -1555 0
-544 -1556 0
-546 -1557 0
-547 -1558 0
-541 -1565 0
-542 -1566 0
-543 -1567 0
-544 -1568 0
-545 -1569 0
-546 -1570 0
-547 -1571 0
-541 -1578 0
-543 -1582 0
-546 -1583 0
-547 -1584 0
-541 -1592 0
-545 -1595 0
-546 -1596 0
-547 -1597 0
-542 -1598 0
-545 -1602 0
-546 -1603 0
-547 -1604 0
-541 -1605 0
-543 -1607 0
-545 -1608 0
-546 -1609 0
-547 -1610 0
-542 -1618 0
-543 -1621 0
-546 -1622 0
-547 -1623 0
-542 -1636 0
-543 -1638 0
-545 -1639 0
-546 -1640 0
-547 -1641 0
-541 -1648 0
-543 -1650 0
-544 -1651 0
-546 -1652 0
-547 -1653 0
-543 -1664 0
-546 -1665 0
-547 -1666 0
-543 -1677 0
-545 -1678 0
-546 -1679 0
-547 -1680 0
-543 -1722 0
-545 -1723 0
-546 -1724 0
-547 -1725 0
-543 -1735 0
-546 -1736 0
-547 -1737 0
-545 -1760 0
-546 -1761 0
-547 -1762 0
-543 -1765 0
-544 -1766 0
-545 -1767 0
-546 -1768 0
-547 -1769 0
-542 -1778 0
-544 -1780 0
-545 -1781 0
-546 -1782 0
-547 -1783 0
-545 -1794 0
-546 -1795 0
-547 -1796 0
-543 -1807 0
-545 -1808 0
-546 -1809 0
-547 -1810 0
-543 -1833 0
-544 -1834 0
-545 -1835 0
-546 -1836 0
-547 -1837 0
-543 -1847 0
-544 -1848 0
-545 -1849 0
-546 -1850 0
-547 -1851 0
-543 -1855 0
-544 -1856 0
-545 -1857 0
-546 -1858 0
-547 -1859 0
-550 -657 0
-552 -658 0
-554 -659 0
-555 -660 0
-549 -764 0
-550 -767 0
-551 -768 0
-553 -769 0
-554 -770 0
-555 -771 0
-549 -772 0
-550 -775 0
-552 -776 0
-554 -777 0
-555 -778 0
-550 -782 0
-552 -783 0
-554 -784 0
-555 -785 0
-551 -788 0
-553 -789 0
-554 -790 0
-555 -791 0
-550 -794 0
-551 -795 0
-552 -796 0
-553 -797 0
-554 -798 0
-555 -799 0
-548 -855 0
-550 -857 0
-551 -858 0
-552 -859 0
-554 -860 0
-555 -861 0
-548 -863 0
-551 -864 0
-552 -865 0
-553 -866 0
-554 -867 0
-555 -868 0
-549 -884 0
-551 -887 0
-554 -888 0
-555 -889 0
-549 -891 0
-550 -895 0
-551 -896 0
-552 -897 0
-554 -898 0
-555 -899 0
-549 -901 0
-551 -904 0
-553 -905 0
-554 -906 0
-555 -907 0
-554 -912 0
-555 -913 0
-550 -918 0
-551 -919 0
-552 -920 0
-553 -921 0
-554 -922 0
-555 -923 0
-551 -927 0
-553 -928 0
-554 -929 0
-555 -930 0
-550 -944 0
-553 -945 0
-554 -946 0
-555 -947 0
-551 -951 0
-552 -952 0
-554 -953 0
-555 -954 0
-550 -958 0
-551 -959 0
-554 -960 0
-555 -961 0
-548 -1014 0
-549 -1015 0
-551 -1018 0
-552 -1019 0
-554 -1020 0
-555 -1021 0
-548 -1022 0
-550 -1025 0
-551 -1026 0
-554 -1027 0
-555 -1028 0
-548 -1029 0
-551 -1032 0
-552 -1033 0
-554 -1034 0
-555 -1035 0
-548 -1036 0
-550 -1039 0
-551 -1040 0
-553 -1041 0
-554 -1042 0
-555 -1043 0
-548 -1044 0
-551 -1047 0
-553 -1048 0
-554 -1049 0
-555 -1050 0
-548 -1051 0
-550 -1055 0
-551 -1056 0
-552 -1057 0
-553 -1058 0
-554 -1059 0
-555 -1060 0
-548 -1061 0
-551 -1064 0
-554 -1065 0
-555 -1066 0
-549 -1068 0
-552 -1070 0
-554 -1071 0
-555 -1072 0
-549 -1074 0
-550 -1076 0
-552 -1077 0
-554 -1078 0
-555 -1079 0
-551 -1083 0
-552 -1084 0
-554 -1085 0
-555 -1086 0
-550 -1089 0
-553 -1090 0
-554 -1091 0
-555 -1092 0
-552 -1096 0
-553 -1097 0
-554 -1098 0
-555 -1099 0
-550 -1110 0
-551 -1111 0
-552 -1112 0
-553 -1113 0
-554 -1114 0
-555 -1115 0
-548 -1141 0
-549 -1142 0
-551 -1143 0
-552 -1144 0
-554 -1145 0
-555 -1146 0
-548 -1147 0
-550 -1149 0
-552 -1150 0
-554 -1151 0
-555 -1152 0
-548 -1153 0
-552 -1157 0
-554 -1158 0
-555 -1159 0
-548 -1160 0
-550 -1163 0
-551 -1164 0
-552 -1165 0
-553 -1166 0
-554 -1167 0
-555 -1168 0
-548 -1169 0
-552 -1171 0
-553 -1172 0
-554 -1173 0
-555 -1174 0
-549 -1175 0
-551 -1178 0
-552 -1179 0
-554 -1180 0
-555 -1181 0
-549 -1182 0
-550 -1186 0
-554 -1187 0
-555 -1188 0
-549 -1189 0
-552 -1192 0
-554 -1193 0
-555 -1194 0
-549 -1195 0
-550 -1197 0
-551 -1198 0
-553 -1199 0
-554 -1200 0
-555 -1201 0
-549 -1202 0
-553 -1205 0
-554 -1206 0
-555 -1207 0
-549 -1208 0
-550 -1211 0
-552 -1212 0
-553 -1213 0
-554 -1214 0
-555 -1215 0
-551 -1219 0
-553 -1220 0
-554 -1221 0
-555 -1222 0
-550 -1225 0
-552 -1226 0
-554 -1227 0
-555 -1228 0
-549 -1467 0
-550 -1469 0
-551 -1470 0
-552 -1471 0
-554 -1472 0
-555 -1473 0
-549 -1474 0
-551 -1476 0
-553 -1477 0
-554 -1478 0
-555 -1479 0
-550 -1482 0
-551 -1483 0
-552 -1484 0
-553 -1485 0
-554 -1486 0
-555 -1487 0
-551 -1491 0
-553 -1492 0
-554 -1493 0
-555 -1494 0
-550 -1497 0
-553 -1498 0
-554 -1499 0
-555 -1500 0
-551 -1503 0
-552 -1504 0
-554 -1505 0
-555 -1506 0
-551 -1555 0
-552 -1556 0
-554 -1557 0
-555 -1558 0
-550 -1561 0
-553 -1562 0
-554 -1563 0
-555 -1564 0
-549 -1573 0
-552 -1575 0
-554 -1576 0
-555 -1577 0
-550 -1581 0
-551 -1582 0
-554 -1583 0
-555 -1584 0
-550 -1587 0
-552 -1588 0
-553 -1589 0
-554 -1590 0
-555 -1591 0
-550 -1594 0
-553 -1595 0
-554 -1596 0
-555 -1597 0
-551 -1607 0
-553 -1608 0
-554 -1609 0
-555 -1610 0
-548 -1630 0
-550 -1632 0
-552 -1633 0
-554 -1634 0
-555 -1635 0
-548 -1636 0
-550 -1637 0
-551 -1638 0
-553 -1639 0
-554 -1640 0
-555 -1641 0
-548 -1642 0
-552 -1644 0
-553 -1645 0
-554 -1646 0
-555 -1647 0
-550 -1649 0
-551 -1650 0
-552 -1651 0
-554 -1652 0
-555 -1653 0
-548 -1654 0
-550 -1656 0
-551 -1657 0
-552 -1658 0
-554 -1659 0
-555 -1660 0
-549 -1661 0
-550 -1663 0
-551 -1664 0
-554 -1665 0
-555 -1666 0
-549 -1667 0
-550 -1669 0
-551 -1670 0
-552 -1671 0
-554 -1672 0
-555 -1673 0
-550 -1676 0
-551 -1677 0
-553 -1678 0
-554 -1679 0
-555 -1680 0
-550 -1759 0
-553 -1760 0
-554 -1761 0
-555 -1762 0
-550 -1773 0
-552 -1774 0
-553 -1775 0
-554 -1776 0
-555 -1777 0
-549 -1784 0
-551 -1786 0
-552 -1787 0
-553 -1788 0
-554 -1789 0
-555 -1790 0
-550 -1793 0
-553 -1794 0
-554 -1795 0
-555 -1796 0
-552 -1800 0
-553 -1801 0
-554 -1802 0
-555 -1803 0
-550 -1806 0
-551 -1807 0
-553 -1808 0
-554 -1809 0
-555 -1810 0
-550 -1814 0
-552 -1815 0
-554 -1816 0
-555 -1817 0
-550 -1832 0
-551 -1833 0
-552 -1834 0
-553 -1835 0
-554 -1836 0
-555 -1837 0
-551 -1839 0
-552 -1840 0
-553 -1841 0
-554 -1842 0
-555 -1843 0
-558 -685 0
-559 -686 0
-560 -688 0
-561 -689 0
-556 -697 0
-557 -698 0
-559 -700 0
-560 -704 0
-561 -705 0
-557 -714 0
-560 -717 0
-561 -718 0
-557 -757 0
-559 -759 0
-560 -762 0
-561 -763 0
-557 -772 0
-558 -773 0
-559 -775 0
-560 -777 0
-561 -778 0
-556 -786 0
-560 -790 0
-561 -791 0
-556 -810 0
-558 -812 0
-560 -815 0
-561 -816 0
-556 -826 0
-560 -831 0
-561 -832 0
-556 -833 0
-559 -836 0
-560 -837 0
-561 -838 0
-559 -850 0
-560 -852 0
-561 -853 0
-556 -862 0
-560 -867 0
-561 -868 0
-558 -870 0
-560 -874 0
-561 -875 0
-559 -878 0
-560 -881 0
-561 -882 0
-556 -914 0
-558 -916 0
-559 -918 0
-560 -922 0
-561 -923 0
-556 -948 0
-560 -953 0
-561 -954 0
-558 -972 0
-560 -975 0
-561 -976 0
-560 -990 0
-561 -991 0
-556 -1000 0
-558 -1001 0
-559 -1003 0
-560 -1005 0
-561 -1006 0
-558 -1023 0
-559 -1025 0
-560 -1027 0
-561 -1028 0
-558 -1038 0
-559 -1039 0
-560 -1042 0
-561 -1043 0
-558 -1045 0
-560 -1049 0
-561 -1050 0
-560 -1065 0
-561 -1066 0
-556 -1067 0
-557 -1068 0
-560 -1071 0
-561 -1072 0
-556 -1080 0
-558 -1082 0
-560 -1085 0
-561 -1086 0
-556 -1093 0
-560 -1098 0
-561 -1099 0
-557 -1101 0
-560 -1105 0
-561 -1106 0
-556 -1107 0
-559 -1110 0
-560 -1114 0
-561 -1115 0
-559 -1124 0
-560 -1127 0
-561 -1128 0
-556 -1129 0
-558 -1130 0
-560 -1133 0
-561 -1134 0
-557 -1142 0
-560 -1145 0
-561 -1146 0
-558 -1155 0
-560 -1158 0
-561 -1159 0
-557 -1182 0
-558 -1184 0
-559 -1186 0
-560 -1187 0
-561 -1188 0
-557 -1195 0
-559 -1197 0
-560 -1200 0
-561 -1201 0
-557 -1202 0
-560 -1206 0
-561 -1207 0
-558 -1217 0
-560 -1221 0
-561 -1222 0
-557 -1230 0
-558 -1231 0
-559 -1233 0
-560 -1237 0
-561 -1238 0
-557 -1247 0
-559 -1249 0
-560 -1252 0
-561 -1253 0
-558 -1255 0
-559 -1256 0
-560 -1259 0
-561 -1260 0
-558 -1268 0
-559 -1270 0
-560 -1273 0
-561 -1274 0
-558 -1276 0
-560 -1280 0
-561 -1281 0
-556 -1311 0
-558 -1312 0
-560 -1315 0
-561 -1316 0
-556 -1339 0
-559 -1341 0
-560 -1344 0
-561 -1345 0
-558 -1354 0
-559 -1356 0
-560 -1360 0
-561 -1361 0
-559 -1372 0
-560 -1375 0
-561 -1376 0
-558 -1386 0
-560 -1390 0
-561 -1391 0
-558 -1454 0
-560 -1458 0
-561 -1459 0
-558 -1481 0
-559 -1482 0
-560 -1486 0
-561 -1487 0
-558 -1501 0
-560 -1505 0
-561 -1506 0
-557 -1513 0
-558 -1514 0
-560 -1517 0
-561 -1518 0
-557 -1529 0
-560 -1533 0
-561 -1534 0
-557 -1535 0
-559 -1537 0
-560 -1539 0
-561 -1540 0
-558 -1542 0
-559 -1543 0
-560 -1545 0
-561 -1546 0
-558 -1553 0
-560 -1557 0
-561 -1558 0
-556 -1585 0
-559 -1587 0
-560 -1590 0
-561 -1591 0
-559 -1613 0
-560 -1616 0
-561 -1617 0
-559 -1637 0
-560 -1640 0
-561 -1641 0
-556 -1648 0
-559 -1649 0
-560 -1652 0
-561 -1653 0
-559 -1656 0
-560 -1659 0
-561 -1660 0
-557 -1661 0
-559 -1663 0
-560 -1665 0
-561 -1666 0
-559 -1676 0
-560 -1679 0
-561 -1680 0
-558 -1687 0
-559 -1688 0
-560 -1692 0
-561 -1693 0
-559 -1697 0
-560 -1699 0
-561 -1700 0
-559 -1702 0
-560 -1706 0
-561 -1707 0
-559 -1745 0
-560 -1749 0
-561 -1750 0
-560 -1782 0
-561 -1783 0
-558 -1791 0
-559 -1793 0
-560 -1795 0
-561 -1796 0
-559 -1806 0
-560 -1809 0
-561 -1810 0
-559 -1825 0
-560 -1829 0
-561 -1830 0
-560 -1842 0
-561 -1843 0
-564 -679 0
-565 -680 0
-566 -681 0
-567 -682 0
-568 -683 0
-562 -690 0
-563 -691 0
-564 -694 0
-567 -695 0
-568 -696 0
-563 -714 0
-564 -715 0
-565 -716 0
-567 -717 0
-568 -718 0
-563 -749 0
-564 -752 0
-565 -753 0
-566 -754 0
-567 -755 0
-568 -756 0
-563 -764 0
-564 -768 0
-566 -769 0
-567 -770 0
-568 -771 0
-562 -779 0
-565 -783 0
-567 -784 0
-568 -785 0
-562 -810 0
-566 -814 0
-567 -815 0
-568 -816 0
-562 -817 0
-565 -822 0
-566 -823 0
-567 -824 0
-568 -825 0
-562 -833 0
-567 -837 0
-568 -838 0
-562 -839 0
-565 -844 0
-567 -845 0
-568 -846 0
-566 -851 0
-567 -852 0
-568 -853 0
-562 -854 0
-564 -858 0
-565 -859 0
-567 -860 0
-568 -861 0
-564 -871 0
-565 -872 0
-566 -873 0
-567 -874 0
-568 -875 0
-564 -879 0
-565 -880 0
-567 -881 0
-568 -882 0
-562 -908 0
-567 -912 0
-568 -913 0
-562 -940 0
-566 -945 0
-567 -946 0
-568 -947 0
-565 -974 0
-567 -975 0
-568 -976 0
-567 -982 0
-568 -983 0
-562 -992 0
-564 -995 0
-565 -996 0
-566 -997 0
-567 -998 0
-568 -999 0
-564 -1026 0
-567 -1027 0
-568 -1028 0
-564 -1032 0
-565 -1033 0
-567 -1034 0
-568 -1035 0
-564 -1047 0
-566 -1048 0
-567 -1049 0
-568 -1050 0
-564 -1056 0
-565 -1057 0
-566 -1058 0
-567 -1059 0
-568 -1060 0
-562 -1067 0
-563 -1068 0
-565 -1070 0
-567 -1071 0
-568 -1072 0
-562 -1073 0
-563 -1074 0
-565 -1077 0
-567 -1078 0
-568 -1079 0
-562 -1087 0
-566 -1090 0
-567 -1091 0
-568 -1092 0
-562 -1093 0
-565 -1096 0
-566 -1097 0
-567 -1098 0
-568 -1099 0
-563 -1101 0
-565 -1103 0
-566 -1104 0
-567 -1105 0
-568 -1106 0
-562 -1135 0
-564 -1137 0
-565 -1138 0
-567 -1139 0
-568 -1140 0
-563 -1142 0
-564 -1143 0
-565 -1144 0
-567 -1145 0
-568 -1146 0
-564 -1164 0
-565 -1165 0
-566 -1166 0
-567 -1167 0
-568 -1168 0
-563 -1182 0
-567 -1187 0
-568 -1188 0
-563 -1189 0
-565 -1192 0
-567 -1193 0
-568 -1194 0
-563 -1202 0
-566 -1205 0
-567 -1206 0
-568 -1207 0
-563 -1208 0
-565 -1212 0
-566 -1213 0
-567 -1214 0
-568 -1215 0
-565 -1226 0
-567 -1227 0
-568 -1228 0
-563 -1230 0
-564 -1234 0
-565 -1235 0
-566 -1236 0
-567 -1237 0
-568 -1238 0
-563 -1239 0
-564 -1242 0
-565 -1243 0
-566 -1244 0
-567 -1245 0
-568 -1246 0
-564 -1264 0
-567 -1265 0
-568 -1266 0
-564 -1271 0
-565 -1272 0
-567 -1273 0
-568 -1274 0
-564 -1285 0
-566 -1286 0
-567 -1287 0
-568 -1288 0
-562 -1304 0
-564 -1307 0
-566 -1308 0
-567 -1309 0
-568 -1310 0
-562 -1332 0
-564 -1336 0
-567 -1337 0
-568 -1338 0
-564 -1357 0
-565 -1358 0
-566 -1359 0
-567 -1360 0
-568 -1361 0
-564 -1366 0
-566 -1367 0
-567 -1368 0
-568 -1369 0
-565 -1381 0
-566 -1382 0
-567 -1383 0
-568 -1384 0
-564 -1449 0
-565 -1450 0
-567 -1451 0
-568 -1452 0
-566 -1498 0
-567 -1499 0
-568 -1500 0
-563 -1513 0
-564 -1515 0
-566 -1516 0
-567 -1517 0
-568 -1518 0
-563 -1519 0
-564 -1524 0
-565 -1525 0
-566 -1526 0
-567 -1527 0
-568 -1528 0
-563 -1535 0
-564 -1538 0
-567 -1539 0
-568 -1540 0
-564 -1548 0
-565 -1549 0
-566 -1550 0
-567 -1551 0
-568 -1552 0
-566 -1562 0
-567 -1563 0
-568 -1564 0
-562 -1565 0
-564 -1567 0
-565 -1568 0
-566 -1569 0
-567 -1570 0
-568 -1571 0
-562 -1578 0
-564 -1582 0
-567 -1583 0
-568 -1584 0
-562 -1605 0
-564 -1607 0
-566 -1608 0
-567 -1609 0
-568 -1610 0
-564 -1614 0
-565 -1615 0
-567 -1616 0
-568 -1617 0
-564 -1621 0
-567 -1622 0
-568 -1623 0
-565 -1633 0
-567 -1634 0
-568 -1635 0
-565 -1644 0
-566 -1645 0
-567 -1646 0
-568 -1647 0
-563 -1661 0
-564 -1664 0
-567 -1665 0
-568 -1666 0
-563 -1667 0
-564 -1670 0
-565 -1671 0
-567 -1672 0
-568 -1673 0
-563 -1681 0
-565 -1683 0
-566 -1684 0
-567 -1685 0
-568 -1686 0
-565 -1698 0
-567 -1699 0
-568 -1700 0
-564 -1716 0
-566 -1717 0
-567 -1718 0
-568 -1719 0
-564 -1740 0
-565 -1741 0
-567 -1742 0
-568 -1743 0
-563 -1763 0
-564 -1765 0
-565 -1766 0
-566 -1767 0
-567 -1768 0
-568 -1769 0
-562 -1771 0
-565 -1774 0
-566 -1775 0
-567 -1776 0
-568 -1777 0
-565 -1780 0
-566 -1781 0
-567 -1782 0
-568 -1783 0
-566 -1794 0
-567 -1795 0
-568 -1796 0
-565 -1800 0
-566 -1801 0
-567 -1802 0
-568 -1803 0
-565 -1815 0
-567 -1816 0
-568 -1817 0
-564 -1820 0
-565 -1821 0
-567 -1822 0
-568 -1823 0
-564 -1847 0
-565 -1848 0
-566 -1849 0
-567 -1850 0
-568 -1851 0
-564 -1855 0
-565 -1856 0
-566 -1857 0
-567 -1858 0
-568 -1859 0
-569 -786 0
-572 -788 0
-574 -790 0
-575 -791 0
-569 -792 0
-572 -795 0
-573 -796 0
-574 -798 0
-575 -799 0
-569 -800 0
-570 -802 0
-572 -805 0
-573 -806 0
-574 -808 0
-575 -809 0
-569 -826 0
-572 -829 0
-574 -831 0
-575 -832 0
-569 -833 0
-574 -837 0
-575 -838 0
-569 -839 0
-573 -844 0
-574 -845 0
-575 -846 0
-574 -852 0
-575 -853 0
-569 -854 0
-571 -856 0
-572 -858 0
-573 -859 0
-574 -860 0
-575 -861 0
-571 -870 0
-572 -871 0
-573 -872 0
-574 -874 0
-575 -875 0
-569 -900 0
-570 -901 0
-572 -904 0
-574 -906 0
-575 -907 0
-569 -948 0
-572 -951 0
-573 -952 0
-574 -953 0
-575 -954 0
-569 -955 0
-572 -959 0
-574 -960 0
-575 -961 0
-570 -963 0
-572 -967 0
-574 -968 0
-575 -969 0
-572 -987 0
-573 -988 0
-574 -990 0
-575 -991 0
-569 -1000 0
-571 -1001 0
-572 -1004 0
-574 -1005 0
-575 -1006 0
-569 -1007 0
-571 -1009 0
-572 -1010 0
-573 -1011 0
-574 -1012 0
-575 -1013 0
-570 -1015 0
-571 -1016 0
-572 -1018 0
-573 -1019 0
-574 -1020 0
-575 -1021 0
-571 -1038 0
-572 -1040 0
-574 -1042 0
-575 -1043 0
-571 -1045 0
-572 -1047 0
-574 -1049 0
-575 -1050 0
-571 -1053 0
-572 -1056 0
-573 -1057 0
-574 -1059 0
-575 -1060 0
-569 -1067 0
-570 -1068 0
-573 -1070 0
-574 -1071 0
-575 -1072 0
-569 -1073 0
-570 -1074 0
-573 -1077 0
-574 -1078 0
-575 -1079 0
-569 -1087 0
-574 -1091 0
-575 -1092 0
-569 -1093 0
-573 -1096 0
-574 -1098 0
-575 -1099 0
-570 -1101 0
-573 -1103 0
-574 -1105 0
-575 -1106 0
-569 -1107 0
-572 -1111 0
-573 -1112 0
-574 -1114 0
-575 -1115 0
-572 -1119 0
-574 -1120 0
-575 -1121 0
-572 -1125 0
-573 -1126 0
-574 -1127 0
-575 -1128 0
-569 -1129 0
-571 -1130 0
-573 -1131 0
-574 -1133 0
-575 -1134 0
-571 -1148 0
-573 -1150 0
-574 -1151 0
-575 -1152 0
-571 -1155 0
-573 -1157 0
-574 -1158 0
-575 -1159 0
-570 -1175 0
-572 -1178 0
-573 -1179 0
-574 -1180 0
-575 -1181 0
-570 -1195 0
-572 -1198 0
-574 -1200 0
-575 -1201 0
-570 -1202 0
-574 -1206 0
-575 -1207 0
-570 -1208 0
-573 -1212 0
-574 -1214 0
-575 -1215 0
-573 -1226 0
-574 -1227 0
-575 -1228 0
-570 -1230 0
-571 -1231 0
-572 -1234 0
-573 -1235 0
-574 -1237 0
-575 -1238 0
-570 -1239 0
-571 -1241 0
-572 -1242 0
-573 -1243 0
-574 -1245 0
-575 -1246 0
-571 -1262 0
-572 -1264 0
-574 -1265 0
-575 -1266 0
-571 -1268 0
-572 -1271 0
-573 -1272 0
-574 -1273 0
-575 -1274 0
-571 -1276 0
-573 -1278 0
-574 -1280 0
-575 -1281 0
-569 -1297 0
-570 -1298 0
-572 -1300 0
-574 -1302 0
-575 -1303 0
-569 -1339 0
-573 -1342 0
-574 -1344 0
-575 -1345 0
-570 -1347 0
-574 -1351 0
-575 -1352 0
-573 -1373 0
-574 -1375 0
-575 -1376 0
-571 -1386 0
-572 -1388 0
-574 -1390 0
-575 -1391 0
-570 -1436 0
-572 -1440 0
-573 -1441 0
-574 -1443 0
-575 -1444 0
-570 -1474 0
-571 -1475 0
-572 -1476 0
-574 -1478 0
-575 -1479 0
-571 -1501 0
-572 -1503 0
-573 -1504 0
-574 -1505 0
-575 -1506 0
-570 -1507 0
-573 -1509 0
-574 -1511 0
-575 -1512 0
-570 -1529 0
-574 -1533 0
-575 -1534 0
-570 -1535 0
-572 -1538 0
-574 -1539 0
-575 -1540 0
-572 -1548 0
-573 -1549 0
-574 -1551 0
-575 -1552 0
-571 -1559 0
-574 -1563 0
-575 -1564 0
-569 -1624 0
-572 -1626 0
-573 -1627 0
-574 -1628 0
-575 -1629 0
-572 -1638 0
-574 -1640 0
-575 -1641 0
-573 -1644 0
-574 -1646 0
-575 -1647 0
-572 -1657 0
-573 -1658 0
-574 -1659 0
-575 -1660 0
-570 -1681 0
-573 -1683 0
-574 -1685 0
-575 -1686 0
-573 -1698 0
-574 -1699 0
-575 -1700 0
-572 -1703 0
-573 -1704 0
-574 -1706 0
-575 -1707 0
-569 -1771 0
-573 -1774 0
-574 -1776 0
-575 -1777 0
-573 -1780 0
-574 -1782 0
-575 -1783 0
-570 -1784 0
-572 -1786 0
-573 -1787 0
-574 -1789 0
-575 -1790 0
-572 -1807 0
-574 -1809 0
-575 -1810 0
-573 -1815 0
-574 -1816 0
-575 -1817 0
-571 -1818 0
-572 -1820 0
-573 -1821 0
-574 -1822 0
-575 -1823 0
-572 -1833 0
-573 -1834 0
-574 -1836 0
-575 -1837 0
-572 -1839 0
-573 -1840 0
-574 -1842 0
-575 -1843 0
-572 -1855 0
-573 -1856 0
-574 -1858 0
-575 -1859 0
-576 -779 0
-578 -780 0
-579 -782 0
-580 -783 0
-582 -784 0
-583 -785 0
-576 -792 0
-579 -794 0
-580 -796 0
-581 -797 0
-582 -798 0
-583 -799 0
-576 -800 0
-577 -802 0
-579 -804 0
-580 -806 0
-581 -807 0
-582 -808 0
-583 -809 0
-576 -817 0
-578 -820 0
-579 -821 0
-580 -822 0
-581 -823 0
-582 -824 0
-583 -825 0
-576 -833 0
-579 -836 0
-582 -837 0
-583 -838 0
-579 -850 0
-581 -851 0
-582 -852 0
-583 -853 0
-576 -862 0
-580 -865 0
-581 -866 0
-582 -867 0
-583 -868 0
-578 -870 0
-580 -872 0
-581 -873 0
-582 -874 0
-583 -875 0
-576 -890 0
-577 -891 0
-578 -893 0
-579 -895 0
-580 -897 0
-582 -898 0
-583 -899 0
-576 -940 0
-578 -942 0
-579 -944 0
-581 -945 0
-582 -946 0
-583 -947 0
-576 -955 0
-579 -958 0
-582 -960 0
-583 -961 0
-577 -963 0
-579 -966 0
-582 -968 0
-583 -969 0
-578 -979 0
-579 -981 0
-582 -982 0
-583 -983 0
-576 -992 0
-578 -993 0
-580 -996 0
-581 -997 0
-582 -998 0
-583 -999 0
-576 -1007 0
-578 -1009 0
-580 -1011 0
-582 -1012 0
-583 -1013 0
-577 -1015 0
-578 -1016 0
-580 -1019 0
-582 -1020 0
-583 -1021 0
-578 -1031 0
-580 -1033 0
-582 -1034 0
-583 -1035 0
-578 -1045 0
-581 -1048 0
-582 -1049 0
-583 -1050 0
-582 -1065 0
-583 -1066 0
-576 -1067 0
-577 -1068 0
-580 -1070 0
-582 -1071 0
-583 -1072 0
-576 -1080 0
-578 -1082 0
-580 -1084 0
-582 -1085 0
-583 -1086 0
-576 -1093 0
-580 -1096 0
-581 -1097 0
-582 -1098 0
-583 -1099 0
-577 -1101 0
-580 -1103 0
-581 -1104 0
-582 -1105 0
-583 -1106 0
-582 -1120 0
-583 -1121 0
-576 -1135 0
-579 -1136 0
-580 -1138 0
-582 -1139 0
-583 -1140 0
-578 -1148 0
-579 -1149 0
-580 -1150 0
-582 -1151 0
-583 -1152 0
-579 -1163 0
-580 -1165 0
-581 -1166 0
-582 -1167 0
-583 -1168 0
-577 -1175 0
-580 -1179 0
-582 -1180 0
-583 -1181 0
-577 -1189 0
-578 -1191 0
-580 -1192 0
-582 -1193 0
-583 -1194 0
-577 -1202 0
-581 -1205 0
-582 -1206 0
-583 -1207 0
-578 -1217 0
-581 -1220 0
-582 -1221 0
-583 -1222 0
-577 -1230 0
-578 -1231 0
-579 -1233 0
-580 -1235 0
-581 -1236 0
-582 -1237 0
-583 -1238 0
-577 -1247 0
-579 -1249 0
-580 -1251 0
-582 -1252 0
-583 -1253 0
-578 -1255 0
-579 -1256 0
-580 -1257 0
-581 -1258 0
-582 -1259 0
-583 -1260 0
-578 -1268 0
-579 -1270 0
-580 -1272 0
-582 -1273 0
-583 -1274 0
-579 -1284 0
-581 -1286 0
-582 -1287 0
-583 -1288 0
-576 -1289 0
-577 -1290 0
-578 -1291 0
-579 -1292 0
-580 -1293 0
-581 -1294 0
-582 -1295 0
-583 -1296 0
-576 -1332 0
-578 -1333 0
-579 -1335 0
-582 -1337 0
-583 -1338 0
-577 -1347 0
-579 -1349 0
-581 -1350 0
-582 -1351 0
-583 -1352 0
-578 -1364 0
-579 -1365 0
-581 -1367 0
-582 -1368 0
-583 -1369 0
-578 -1378 0
-579 -1380 0
-580 -1381 0
-581 -1382 0
-582 -1383 0
-583 -1384 0
-577 -1429 0
-578 -1431 0
-579 -1433 0
-582 -1434 0
-583 -1435 0
-577 -1467 0
-578 -1468 0
-579 -1469 0
-580 -1471 0
-582 -1472 0
-583 -1473 0
-578 -1495 0
-579 -1497 0
-581 -1498 0
-582 -1499 0
-583 -1500 0
-577 -1507 0
-579 -1508 0
-580 -1509 0
-581 -1510 0
-582 -1511 0
-583 -1512 0
-577 -1519 0
-578 -1521 0
-579 -1523 0
-580 -1525 0
-581 -1526 0
-582 -1527 0
-583 -1528 0
-577 -1535 0
-579 -1537 0
-582 -1539 0
-583 -1540 0
-578 -1542 0
-579 -1543 0
-582 -1545 0
-583 -1546 0
-578 -1553 0
-580 -1556 0
-582 -1557 0
-583 -1558 0
-576 -1565 0
-580 -1568 0
-581 -1569 0
-582 -1570 0
-583 -1571 0
-576 -1572 0
-577 -1573 0
-580 -1575 0
-582 -1576 0
-583 -1577 0
-576 -1605 0
-581 -1608 0
-582 -1609 0
-583 -1610 0
-582 -1622 0
-583 -1623 0
-576 -1624 0
-579 -1625 0
-580 -1627 0
-582 -1628 0
-583 -1629 0
-578 -1631 0
-579 -1632 0
-580 -1633 0
-582 -1634 0
-583 -1635 0
-576 -1648 0
-579 -1649 0
-580 -1651 0
-582 -1652 0
-583 -1653 0
-577 -1667 0
-579 -1669 0
-580 -1671 0
-582 -1672 0
-583 -1673 0
-579 -1676 0
-581 -1678 0
-582 -1679 0
-583 -1680 0
-578 -1687 0
-579 -1688 0
-580 -1690 0
-581 -1691 0
-582 -1692 0
-583 -1693 0
-579 -1697 0
-580 -1698 0
-582 -1699 0
-583 -1700 0
-579 -1715 0
-581 -1717 0
-582 -1718 0
-583 -1719 0
-577 -1732 0
-579 -1734 0
-582 -1736 0
-583 -1737 0
-577 -1763 0
-580 -1766 0
-581 -1767 0
-582 -1768 0
-583 -1769 0
-580 -1780 0
-581 -1781 0
-582 -1782 0
-583 -1783 0
-577 -1784 0
-580 -1787 0
-581 -1788 0
-582 -1789 0
-583 -1790 0
-578 -1798 0
-580 -1800 0
-581 -1801 0
-582 -1802 0
-583 -1803 0
-579 -1825 0
-580 -1827 0
-581 -1828 0
-582 -1829 0
-583 -1830 0
-579 -1832 0
-580 -1834 0
-581 -1835 0
-582 -1836 0
-583 -1837 0
-578 -1845 0
-579 -1846 0
-580 -1848 0
-581 -1849 0
-582 -1850 0
-583 -1851 0
-585 -714 0
-589 -716 0
-591 -717 0
-592 -718 0
-585 -742 0
-588 -743 0
-589 -745 0
-590 -746 0
-591 -747 0
-592 -748 0
-584 -779 0
-587 -780 0
-588 -781 0
-589 -783 0
-591 -784 0
-592 -785 0
-584 -786 0
-588 -787 0
-590 -789 0
-591 -790 0
-592 -791 0
-584 -800 0
-585 -802 0
-588 -803 0
-589 -806 0
-590 -807 0
-591 -808 0
-592 -809 0
-584 -810 0
-587 -812 0
-588 -813 0
-590 -814 0
-591 -815 0
-592 -816 0
-584 -839 0
-586 -841 0
-588 -842 0
-589 -844 0
-591 -845 0
-592 -846 0
-586 -848 0
-588 -849 0
-590 -851 0
-591 -852 0
-592 -853 0
-584 -854 0
-587 -856 0
-589 -859 0
-591 -860 0
-592 -861 0
-584 -862 0
-589 -865 0
-590 -866 0
-591 -867 0
-592 -868 0
-587 -870 0
-589 -872 0
-590 -873 0
-591 -874 0
-592 -875 0
-584 -883 0
-585 -884 0
-587 -885 0
-588 -886 0
-591 -888 0
-592 -889 0
-584 -940 0
-586 -941 0
-587 -942 0
-588 -943 0
-590 -945 0
-591 -946 0
-592 -947 0
-584 -948 0
-586 -949 0
-588 -950 0
-589 -952 0
-591 -953 0
-592 -954 0
-585 -963 0
-586 -964 0
-588 -965 0
-591 -968 0
-592 -969 0
-586 -971 0
-587 -972 0
-588 -973 0
-589 -974 0
-591 -975 0
-592 -976 0
-584 -992 0
-587 -993 0
-588 -994 0
-589 -996 0
-590 -997 0
-591 -998 0
-592 -999 0
-584 -1000 0
-587 -1001 0
-588 -1002 0
-591 -1005 0
-592 -1006 0
-585 -1015 0
-587 -1016 0
-588 -1017 0
-589 -1019 0
-591 -1020 0
-592 -1021 0
-587 -1023 0
-588 -1024 0
-591 -1027 0
-592 -1028 0
-586 -1052 0
-587 -1053 0
-588 -1054 0
-589 -1057 0
-590 -1058 0
-591 -1059 0
-592 -1060 0
-586 -1062 0
-588 -1063 0
-591 -1065 0
-592 -1066 0
-584 -1073 0
-585 -1074 0
-586 -1075 0
-589 -1077 0
-591 -1078 0
-592 -1079 0
-584 -1080 0
-586 -1081 0
-587 -1082 0
-589 -1084 0
-591 -1085 0
-592 -1086 0
-584 -1087 0
-586 -1088 0
-590 -1090 0
-591 -1091 0
-592 -1092 0
-585 -1101 0
-586 -1102 0
-589 -1103 0
-590 -1104 0
-591 -1105 0
-592 -1106 0
-586 -1123 0
-589 -1126 0
-591 -1127 0
-592 -1128 0
-586 -1154 0
-587 -1155 0
-588 -1156 0
-589 -1157 0
-591 -1158 0
-592 -1159 0
-586 -1161 0
-588 -1162 0
-589 -1165 0
-590 -1166 0
-591 -1167 0
-592 -1168 0
-585 -1175 0
-586 -1176 0
-588 -1177 0
-589 -1179 0
-591 -1180 0
-592 -1181 0
-585 -1182 0
-586 -1183 0
-587 -1184 0
-588 -1185 0
-591 -1187 0
-592 -1188 0
-585 -1208 0
-586 -1209 0
-588 -1210 0
-589 -1212 0
-590 -1213 0
-591 -1214 0
-592 -1215 0
-586 -1216 0
-587 -1217 0
-588 -1218 0
-590 -1220 0
-591 -1221 0
-592 -1222 0
-586 -1223 0
-588 -1224 0
-589 -1226 0
-591 -1227 0
-592 -1228 0
-585 -1239 0
-586 -1240 0
-587 -1241 0
-589 -1243 0
-590 -1244 0
-591 -1245 0
-592 -1246 0
-585 -1247 0
-586 -1248 0
-589 -1251 0
-591 -1252 0
-592 -1253 0
-586 -1254 0
-587 -1255 0
-589 -1257 0
-590 -1258 0
-591 -1259 0
-592 -1260 0
-586 -1261 0
-587 -1262 0
-591 -1265 0
-592 -1266 0
-584 -1332 0
-587 -1333 0
-588 -1334 0
-591 -1337 0
-592 -1338 0
-584 -1339 0
-588 -1340 0
-589 -1342 0
-590 -1343 0
-591 -1344 0
-592 -1345 0
-585 -1347 0
-588 -1348 0
-590 -1350 0
-591 -1351 0
-592 -1352 0
-587 -1354 0
-588 -1355 0
-589 -1358 0
-590 -1359 0
-591 -1360 0
-592 -1361 0
-585 -1422 0
-587 -1423 0
-588 -1424 0
-589 -1426 0
-591 -1427 0
-592 -1428 0
-587 -1495 0
-588 -1496 0
-590 -1498 0
-591 -1499 0
-592 -1500 0
-587 -1501 0
-588 -1502 0
-589 -1504 0
-591 -1505 0
-592 -1506 0
-585 -1507 0
-589 -1509 0
-590 -1510 0
-591 -1511 0
-592 -1512 0
-585 -1513 0
-587 -1514 0
-590 -1516 0
-591 -1517 0
-592 -1518 0
-586 -1541 0
-587 -1542 0
-591 -1545 0
-592 -1546 0
-586 -1547 0
-589 -1549 0
-590 -1550 0
-591 -1551 0
-592 -1552 0
-587 -1553 0
-588 -1554 0
-589 -1556 0
-591 -1557 0
-592 -1558 0
-587 -1559 0
-588 -1560 0
-590 -1562 0
-591 -1563 0
-592 -1564 0
-584 -1605 0
-588 -1606 0
-590 -1608 0
-591 -1609 0
-592 -1610 0
-588 -1612 0
-589 -1615 0
-591 -1616 0
-592 -1617 0
-588 -1643 0
-589 -1644 0
-590 -1645 0
-591 -1646 0
-592 -1647 0
-584 -1648 0
-589 -1651 0
-591 -1652 0
-592 -1653 0
-588 -1655 0
-589 -1658 0
-591 -1659 0
-592 -1660 0
-585 -1661 0
-588 -1662 0
-591 -1665 0
-592 -1666 0
-586 -1674 0
-588 -1675 0
-590 -1678 0
-591 -1679 0
-592 -1680 0
-585 -1681 0
-589 -1683 0
-590 -1684 0
-591 -1685 0
-592 -1686 0
-587 -1687 0
-589 -1690 0
-590 -1691 0
-591 -1692 0
-592 -1693 0
-584 -1771 0
-588 -1772 0
-589 -1774 0
-590 -1775 0
-591 -1776 0
-592 -1777 0
-588 -1779 0
-589 -1780 0
-590 -1781 0
-591 -1782 0
-592 -1783 0
-585 -1784 0
-588 -1785 0
-589 -1787 0
-590 -1788 0
-591 -1789 0
-592 -1790 0
-587 -1791 0
-588 -1792 0
-590 -1794 0
-591 -1795 0
-592 -1796 0
-586 -1812 0
-588 -1813 0
-589 -1815 0
-591 -1816 0
-592 -1817 0
-587 -1818 0
-588 -1819 0
-589 -1821 0
-591 -1822 0
-592 -1823 0
-588 -1824 0
-589 -1827 0
-590 -1828 0
-591 -1829 0
-592 -1830 0
-586 -1838 0
-589 -1840 0
-590 -1841 0
-591 -1842 0
-592 -1843 0
-588 -1853 0
-589 -1856 0
-590 -1857 0
-591 -1858 0
-592 -1859 0
-595 -780 0
-596 -783 0
-598 -784 0
-599 -785 0
-597 -789 0
-598 -790 0
-599 -791 0
-596 -796 0
-597 -797 0
-598 -798 0
-599 -799 0
-593 -834 0
-598 -837 0
-599 -838 0
-593 -840 0
-596 -844 0
-598 -845 0
-599 -846 0
-593 -855 0
-595 -856 0
-596 -859 0
-598 -860 0
-599 -861 0
-593 -863 0
-596 -865 0
-597 -866 0
-598 -867 0
-599 -868 0
-593 -876 0
-596 -880 0
-598 -881 0
-599 -882 0
-595 -942 0
-597 -945 0
-598 -946 0
-599 -947 0
-596 -952 0
-598 -953 0
-599 -954 0
-598 -960 0
-599 -961 0
-595 -993 0
-596 -996 0
-597 -997 0
-598 -998 0
-599 -999 0
-595 -1001 0
-598 -1005 0
-599 -1006 0
-595 -1009 0
-596 -1011 0
-598 -1012 0
-599 -1013 0
-593 -1044 0
-595 -1045 0
-597 -1048 0
-598 -1049 0
-599 -1050 0
-593 -1051 0
-595 -1053 0
-596 -1057 0
-597 -1058 0
-598 -1059 0
-599 -1060 0
-593 -1061 0
-598 -1065 0
-599 -1066 0
-594 -1068 0
-596 -1070 0
-598 -1071 0
-599 -1072 0
-594 -1074 0
-596 -1077 0
-598 -1078 0
-599 -1079 0
-595 -1082 0
-596 -1084 0
-598 -1085 0
-599 -1086 0
-597 -1090 0
-598 -1091 0
-599 -1092 0
-596 -1096 0
-597 -1097 0
-598 -1098 0
-599 -1099 0
-593 -1116 0
-598 -1120 0
-599 -1121 0
-593 -1122 0
-596 -1126 0
-598 -1127 0
-599 -1128 0
-593 -1141 0
-594 -1142 0
-596 -1144 0
-598 -1145 0
-599 -1146 0
-593 -1147 0
-595 -1148 0
-596 -1150 0
-598 -1151 0
-599 -1152 0
-593 -1153 0
-595 -1155 0
-596 -1157 0
-598 -1158 0
-599 -1159 0
-593 -1160 0
-596 -1165 0
-597 -1166 0
-598 -1167 0
-599 -1168 0
-594 -1202 0
-597 -1205 0
-598 -1206 0
-599 -1207 0
-594 -1208 0
-596 -1212 0
-597 -1213 0
-598 -1214 0
-599 -1215 0
-595 -1217 0
-597 -1220 0
-598 -1221 0
-599 -1222 0
-596 -1226 0
-598 -1227 0
-599 -1228 0
-594 -1230 0
-595 -1231 0
-596 -1235 0
-597 -1236 0
-598 -1237 0
-599 -1238 0
-594 -1239 0
-595 -1241 0
-596 -1243 0
-597 -1244 0
-598 -1245 0
-599 -1246 0
-594 -1247 0
-596 -1251 0
-598 -1252 0
-599 -1253 0
-595 -1255 0
-596 -1257 0
-597 -1258 0
-598 -1259 0
-599 -1260 0
-595 -1262 0
-598 -1265 0
-599 -1266 0
-595 -1268 0
-596 -1272 0
-598 -1273 0
-599 -1274 0
-595 -1333 0
-598 -1337 0
-599 -1338 0
-596 -1342 0
-597 -1343 0
-598 -1344 0
-599 -1345 0
-595 -1495 0
-597 -1498 0
-598 -1499 0
-599 -1500 0
-595 -1501 0
-596 -1504 0
-598 -1505 0
-599 -1506 0
-594 -1535 0
-598 -1539 0
-599 -1540 0
-595 -1542 0
-598 -1545 0
-599 -1546 0
-596 -1549 0
-597 -1550 0
-598 -1551 0
-599 -1552 0
-595 -1553 0
-596 -1556 0
-598 -1557 0
-599 -1558 0
-595 -1559 0
-597 -1562 0
-598 -1563 0
-599 -1564 0
-597 -1608 0
-598 -1609 0
-599 -1610 0
-596 -1627 0
-598 -1628 0
-599 -1629 0
-593 -1642 0
-596 -1644 0
-597 -1645 0
-598 -1646 0
-599 -1647 0
-596 -1651 0
-598 -1652 0
-599 -1653 0
-593 -1654 0
-596 -1658 0
-598 -1659 0
-599 -1660 0
-597 -1678 0
-598 -1679 0
-599 -1680 0
-594 -1681 0
-596 -1683 0
-597 -1684 0
-598 -1685 0
-599 -1686 0
-595 -1687 0
-596 -1690 0
-597 -1691 0
-598 -1692 0
-599 -1693 0
-596 -1698 0
-598 -1699 0
-599 -1700 0
-596 -1774 0
-597 -1775 0
-598 -1776 0
-599 -1777 0
-596 -1815 0
-598 -1816 0
-599 -1817 0
-595 -1818 0
-596 -1821 0
-598 -1822 0
-599 -1823 0
-596 -1827 0
-597 -1828 0
-598 -1829 0
-599 -1830 0
-596 -1834 0
-597 -1835 0
-598 -1836 0
-599 -1837 0
-596 -1840 0
-597 -1841 0
-598 -1842 0
-599 -1843 0
-596 -1856 0
-597 -1857 0
-598 -1858 0
-599 -1859 0
-601 -668 0
-602 -669 0
-603 -670 0
-604 -671 0
-605 -672 0
-606 -673 0
-607 -674 0
-608 -675 0
-609 -676 0
-600 -697 0
-601 -698 0
-603 -699 0
-604 -700 0
-605 -701 0
-606 -702 0
-607 -703 0
-608 -704 0
-609 -705 0
-601 -707 0
-603 -708 0
-605 -709 0
-607 -710 0
-608 -711 0
-609 -712 0
-601 -734 0
-603 -736 0
-604 -737 0
-606 -738 0
-607 -739 0
-608 -740 0
-609 -741 0
-601 -772 0
-602 -773 0
-603 -774 0
-604 -775 0
-606 -776 0
-608 -777 0
-609 -778 0
-600 -786 0
-603 -787 0
-605 -788 0
-607 -789 0
-608 -790 0
-609 -791 0
-600 -792 0
-604 -794 0
-605 -795 0
-606 -796 0
-607 -797 0
-608 -798 0
-609 -799 0
-600 -800 0
-601 -802 0
-603 -803 0
-604 -804 0
-605 -805 0
-606 -806 0
-607 -807 0
-608 -808 0
-609 -809 0
-600 -810 0
-602 -812 0
-603 -813 0
-607 -814 0
-608 -815 0
-609 -816 0
-600 -817 0
-602 -820 0
-604 -821 0
-606 -822 0
-607 -823 0
-608 -824 0
-609 -825 0
-603 -849 0
-604 -850 0
-607 -851 0
-608 -852 0
-609 -853 0
-600 -854 0
-602 -856 0
-604 -857 0
-605 -858 0
-606 -859 0
-608 -860 0
-609 -861 0
-603 -877 0
-604 -878 0
-605 -879 0
-606 -880 0
-608 -881 0
-609 -882 0
-600 -900 0
-601 -901 0
-603 -903 0
-605 -904 0
-607 -905 0
-608 -906 0
-609 -907 0
-600 -914 0
-602 -916 0
-603 -917 0
-604 -918 0
-605 -919 0
-606 -920 0
-607 -921 0
-608 -922 0
-609 -923 0
-600 -924 0
-602 -926 0
-605 -927 0
-607 -928 0
-608 -929 0
-609 -930 0
-601 -932 0
-602 -934 0
-603 -935 0
-605 -936 0
-607 -937 0
-608 -938 0
-609 -939 0
-603 -986 0
-605 -987 0
-606 -988 0
-607 -989 0
-608 -990 0
-609 -991 0
-600 -1000 0
-602 -1001 0
-603 -1002 0
-604 -1003 0
-605 -1004 0
-608 -1005 0
-609 -1006 0
-600 -1007 0
-602 -1009 0
-605 -1010 0
-606 -1011 0
-608 -1012 0
-609 -1013 0
-601 -1015 0
-602 -1016 0
-603 -1017 0
-605 -1018 0
-606 -1019 0
-608 -1020 0
-609 -1021 0
-602 -1023 0
-603 -1024 0
-604 -1025 0
-605 -1026 0
-608 -1027 0
-609 -1028 0
-602 -1031 0
-605 -1032 0
-606 -1033 0
-608 -1034 0
-609 -1035 0
-603 -1063 0
-605 -1064 0
-608 -1065 0
-609 -1066 0
-600 -1067 0
-601 -1068 0
-603 -1069 0
-606 -1070 0
-608 -1071 0
-609 -1072 0
-600 -1073 0
-601 -1074 0
-604 -1076 0
-606 -1077 0
-608 -1078 0
-609 -1079 0
-600 -1080 0
-602 -1082 0
-605 -1083 0
-606 -1084 0
-608 -1085 0
-609 -1086 0
-603 -1118 0
-605 -1119 0
-608 -1120 0
-609 -1121 0
-604 -1124 0
-605 -1125 0
-606 -1126 0
-608 -1127 0
-609 -1128 0
-600 -1129 0
-602 -1130 0
-606 -1131 0
-607 -1132 0
-608 -1133 0
-609 -1134 0
-603 -1170 0
-606 -1171 0
-607 -1172 0
-608 -1173 0
-609 -1174 0
-601 -1175 0
-603 -1177 0
-605 -1178 0
-606 -1179 0
-608 -1180 0
-609 -1181 0
-601 -1182 0
-602 -1184 0
-603 -1185 0
-604 -1186 0
-608 -1187 0
-609 -1188 0
-601 -1189 0
-602 -1191 0
-606 -1192 0
-608 -1193 0
-609 -1194 0
-603 -1224 0
-604 -1225 0
-606 -1226 0
-608 -1227 0
-609 -1228 0
-601 -1230 0
-602 -1231 0
-603 -1232 0
-604 -1233 0
-605 -1234 0
-606 -1235 0
-607 -1236 0
-608 -1237 0
-609 -1238 0
-601 -1239 0
-602 -1241 0
-605 -1242 0
-606 -1243 0
-607 -1244 0
-608 -1245 0
-609 -1246 0
-602 -1255 0
-604 -1256 0
-606 -1257 0
-607 -1258 0
-608 -1259 0
-609 -1260 0
-603 -1283 0
-604 -1284 0
-605 -1285 0
-607 -1286 0
-608 -1287 0
-609 -1288 0
-600 -1297 0
-601 -1298 0
-604 -1299 0
-605 -1300 0
-607 -1301 0
-608 -1302 0
-609 -1303 0
-600 -1311 0
-602 -1312 0
-606 -1313 0
-607 -1314 0
-608 -1315 0
-609 -1316 0
-600 -1317 0
-602 -1319 0
-603 -1320 0
-604 -1321 0
-607 -1322 0
-608 -1323 0
-609 -1324 0
-601 -1326 0
-602 -1327 0
-604 -1328 0
-607 -1329 0
-608 -1330 0
-609 -1331 0
-604 -1372 0
-606 -1373 0
-607 -1374 0
-608 -1375 0
-609 -1376 0
-602 -1378 0
-603 -1379 0
-604 -1380 0
-606 -1381 0
-607 -1382 0
-608 -1383 0
-609 -1384 0
-601 -1414 0
-602 -1416 0
-605 -1417 0
-606 -1418 0
-607 -1419 0
-608 -1420 0
-609 -1421 0
-601 -1474 0
-602 -1475 0
-605 -1476 0
-607 -1477 0
-608 -1478 0
-609 -1479 0
-602 -1481 0
-604 -1482 0
-605 -1483 0
-606 -1484 0
-607 -1485 0
-608 -1486 0
-609 -1487 0
-602 -1489 0
-603 -1490 0
-605 -1491 0
-607 -1492 0
-608 -1493 0
-609 -1494 0
-601 -1507 0
-604 -1508 0
-606 -1509 0
-607 -1510 0
-608 -1511 0
-609 -1512 0
-601 -1513 0
-602 -1514 0
-605 -1515 0
-607 -1516 0
-608 -1517 0
-609 -1518 0
-601 -1519 0
-602 -1521 0
-603 -1522 0
-604 -1523 0
-605 -1524 0
-606 -1525 0
-607 -1526 0
-608 -1527 0
-609 -1528 0
-605 -1548 0
-606 -1549 0
-607 -1550 0
-608 -1551 0
-609 -1552 0
-602 -1553 0
-603 -1554 0
-605 -1555 0
-606 -1556 0
-608 -1557 0
-609 -1558 0
-600 -1565 0
-605 -1567 0
-606 -1568 0
-607 -1569 0
-608 -1570 0
-609 -1571 0
-600 -1585 0
-603 -1586 0
-604 -1587 0
-606 -1588 0
-607 -1589 0
-608 -1590 0
-609 -1591 0
-600 -1592 0
-604 -1594 0
-607 -1595 0
-608 -1596 0
-609 -1597 0
-601 -1599 0
-603 -1600 0
-604 -1601 0
-607 -1602 0
-608 -1603 0
-609 -1604 0
-600 -1624 0
-604 -1625 0
-605 -1626 0
-606 -1627 0
-608 -1628 0
-609 -1629 0
-602 -1631 0
-604 -1632 0
-606 -1633 0
-608 -1634 0
-609 -1635 0
-600 -1648 0
-604 -1649 0
-605 -1650 0
-606 -1651 0
-608 -1652 0
-609 -1653 0
-601 -1661 0
-603 -1662 0
-604 -1663 0
-605 -1664 0
-608 -1665 0
-609 -1666 0
-601 -1667 0
-604 -1669 0
-605 -1670 0
-606 -1671 0
-608 -1672 0
-609 -1673 0
-601 -1681 0
-604 -1682 0
-606 -1683 0
-607 -1684 0
-608 -1685 0
-609 -1686 0
-602 -1687 0
-604 -1688 0
-605 -1689 0
-606 -1690 0
-607 -1691 0
-608 -1692 0
-609 -1693 0
-600 -1708 0
-603 -1709 0
-605 -1710 0
-607 -1711 0
-608 -1712 0
-609 -1713 0
-601 -1726 0
-604 -1727 0
-606 -1728 0
-607 -1729 0
-608 -1730 0
-609 -1731 0
-602 -1757 0
-603 -1758 0
-604 -1759 0
-607 -1760 0
-608 -1761 0
-609 -1762 0
-601 -1763 0
-603 -1764 0
-605 -1765 0
-606 -1766 0
-607 -1767 0
-608 -1768 0
-609 -1769 0
-600 -1771 0
-603 -1772 0
-604 -1773 0
-606 -1774 0
-607 -1775 0
-608 -1776 0
-609 -1777 0
-601 -1784 0
-603 -1785 0
-605 -1786 0
-606 -1787 0
-607 -1788 0
-608 -1789 0
-609 -1790 0
-602 -1791 0
-603 -1792 0
-604 -1793 0
-607 -1794 0
-608 -1795 0
-609 -1796 0
-602 -1798 0
-603 -1799 0
-606 -1800 0
-607 -1801 0
-608 -1802 0
-609 -1803 0
-602 -1818 0
-603 -1819 0
-605 -1820 0
-606 -1821 0
-608 -1822 0
-609 -1823 0
-602 -1845 0
-604 -1846 0
-605 -1847 0
-606 -1848 0
-607 -1849 0
-608 -1850 0
-609 -1851 0
-611 -662 0
-612 -664 0
-614 -665 0
-615 -666 0
-610 -690 0
-611 -691 0
-612 -693 0
-614 -695 0
-615 -696 0
-611 -707 0
-612 -708 0
-614 -711 0
-615 -712 0
-611 -727 0
-612 -730 0
-614 -732 0
-615 -733 0
-611 -764 0
-612 -766 0
-614 -770 0
-615 -771 0
-610 -779 0
-612 -781 0
-613 -783 0
-614 -784 0
-615 -785 0
-610 -792 0
-613 -796 0
-614 -798 0
-615 -799 0
-610 -800 0
-611 -802 0
-612 -803 0
-613 -806 0
-614 -808 0
-615 -809 0
-610 -810 0
-612 -813 0
-614 -815 0
-615 -816 0
-610 -826 0
-614 -831 0
-615 -832 0
-610 -839 0
-612 -842 0
-613 -844 0
-614 -845 0
-615 -846 0
-612 -849 0
-614 -852 0
-615 -853 0
-610 -862 0
-613 -865 0
-614 -867 0
-615 -868 0
-612 -877 0
-613 -880 0
-614 -881 0
-615 -882 0
-610 -890 0
-611 -891 0
-612 -894 0
-613 -897 0
-614 -898 0
-615 -899 0
-610 -908 0
-612 -911 0
-614 -912 0
-615 -913 0
-610 -924 0
-614 -929 0
-615 -930 0
-611 -932 0
-612 -935 0
-614 -938 0
-615 -939 0
-612 -980 0
-614 -982 0
-615 -983 0
-610 -992 0
-612 -994 0
-613 -996 0
-614 -998 0
-615 -999 0
-610 -1007 0
-613 -1011 0
-614 -1012 0
-615 -1013 0
-611 -1015 0
-612 -1017 0
-613 -1019 0
-614 -1020 0
-615 -1021 0
-612 -1024 0
-614 -1027 0
-615 -1028 0
-614 -1042 0
-615 -1043 0
-612 -1054 0
-613 -1057 0
-614 -1059 0
-615 -1060 0
-610 -1067 0
-611 -1068 0
-612 -1069 0
-613 -1070 0
-614 -1071 0
-615 -1072 0
-610 -1087 0
-614 -1091 0
-615 -1092 0
-610 -1107 0
-612 -1109 0
-613 -1112 0
-614 -1114 0
-615 -1115 0
-612 -1118 0
-614 -1120 0
-615 -1121 0
-610 -1135 0
-613 -1138 0
-614 -1139 0
-615 -1140 0
-612 -1170 0
-613 -1171 0
-614 -1173 0
-615 -1174 0
-611 -1175 0
-612 -1177 0
-613 -1179 0
-614 -1180 0
-615 -1181 0
-611 -1182 0
-612 -1185 0
-614 -1187 0
-615 -1188 0
-611 -1195 0
-614 -1200 0
-615 -1201 0
-611 -1208 0
-612 -1210 0
-613 -1212 0
-614 -1214 0
-615 -1215 0
-612 -1218 0
-614 -1221 0
-615 -1222 0
-611 -1230 0
-612 -1232 0
-613 -1235 0
-614 -1237 0
-615 -1238 0
-611 -1247 0
-613 -1251 0
-614 -1252 0
-615 -1253 0
-614 -1265 0
-615 -1266 0
-612 -1277 0
-613 -1278 0
-614 -1280 0
-615 -1281 0
-610 -1289 0
-611 -1290 0
-613 -1293 0
-614 -1295 0
-615 -1296 0
-610 -1304 0
-614 -1309 0
-615 -1310 0
-610 -1317 0
-612 -1320 0
-614 -1323 0
-615 -1324 0
-611 -1326 0
-614 -1330 0
-615 -1331 0
-614 -1368 0
-615 -1369 0
-612 -1387 0
-614 -1390 0
-615 -1391 0
-611 -1407 0
-614 -1412 0
-615 -1413 0
-611 -1467 0
-613 -1471 0
-614 -1472 0
-615 -1473 0
-612 -1490 0
-614 -1493 0
-615 -1494 0
-611 -1507 0
-613 -1509 0
-614 -1511 0
-615 -1512 0
-611 -1513 0
-614 -1517 0
-615 -1518 0
-611 -1529 0
-612 -1531 0
-614 -1533 0
-615 -1534 0
-614 -1545 0
-615 -1546 0
-612 -1560 0
-614 -1563 0
-615 -1564 0
-610 -1572 0
-611 -1573 0
-612 -1574 0
-613 -1575 0
-614 -1576 0
-615 -1577 0
-610 -1578 0
-612 -1580 0
-614 -1583 0
-615 -1584 0
-610 -1592 0
-614 -1596 0
-615 -1597 0
-611 -1599 0
-612 -1600 0
-614 -1603 0
-615 -1604 0
-612 -1620 0
-614 -1622 0
-615 -1623 0
-610 -1624 0
-613 -1627 0
-614 -1628 0
-615 -1629 0
-614 -1640 0
-615 -1641 0
-612 -1643 0
-613 -1644 0
-614 -1646 0
-615 -1647 0
-611 -1661 0
-612 -1662 0
-614 -1665 0
-615 -1666 0
-612 -1675 0
-614 -1679 0
-615 -1680 0
-612 -1701 0
-613 -1704 0
-614 -1706 0
-615 -1707 0
-610 -1708 0
-612 -1709 0
-614 -1712 0
-615 -1713 0
-614 -1718 0
-615 -1719 0
-611 -1720 0
-614 -1724 0
-615 -1725 0
-612 -1758 0
-614 -1761 0
-615 -1762 0
-611 -1784 0
-612 -1785 0
-613 -1787 0
-614 -1789 0
-615 -1790 0
-612 -1792 0
-614 -1795 0
-615 -1796 0
-612 -1805 0
-614 -1809 0
-615 -1810 0
-612 -1813 0
-613 -1815 0
-614 -1816 0
-615 -1817 0
-612 -1824 0
-613 -1827 0
-614 -1829 0
-615 -1830 0
-612 -1853 0
-613 -1856 0
-614 -1858 0
-615 -1859 0
-618 -656 0
-619 -657 0
-620 -658 0
-621 -659 0
-622 -660 0
-617 -691 0
-618 -693 0
-621 -695 0
-622 -696 0
-617 -698 0
-618 -699 0
-619 -700 0
-620 -702 0
-621 -704 0
-622 -705 0
-617 -764 0
-618 -766 0
-619 -767 0
-621 -770 0
-622 -771 0
-617 -772 0
-618 -774 0
-619 -775 0
-620 -776 0
-621 -777 0
-622 -778 0
-618 -781 0
-619 -782 0
-620 -783 0
-621 -784 0
-622 -785 0
-618 -787 0
-621 -790 0
-622 -791 0
-619 -794 0
-620 -796 0
-621 -798 0
-622 -799 0
-616 -811 0
-618 -813 0
-621 -815 0
-622 -816 0
-616 -818 0
-619 -821 0
-620 -822 0
-621 -824 0
-622 -825 0
-616 -827 0
-621 -831 0
-622 -832 0
-616 -855 0
-619 -857 0
-620 -859 0
-621 -860 0
-622 -861 0
-616 -863 0
-620 -865 0
-621 -867 0
-622 -868 0
-616 -869 0
-620 -872 0
-621 -874 0
-622 -875 0
-618 -911 0
-621 -912 0
-622 -913 0
-618 -917 0
-619 -918 0
-620 -920 0
-621 -922 0
-622 -923 0
-621 -929 0
-622 -930 0
-618 -994 0
-620 -996 0
-621 -998 0
-622 -999 0
-618 -1002 0
-619 -1003 0
-621 -1005 0
-622 -1006 0
-620 -1011 0
-621 -1012 0
-622 -1013 0
-616 -1022 0
-618 -1024 0
-619 -1025 0
-621 -1027 0
-622 -1028 0
-616 -1029 0
-620 -1033 0
-621 -1034 0
-622 -1035 0
-616 -1036 0
-619 -1039 0
-621 -1042 0
-622 -1043 0
-617 -1068 0
-618 -1069 0
-620 -1070 0
-621 -1071 0
-622 -1072 0
-617 -1074 0
-619 -1076 0
-620 -1077 0
-621 -1078 0
-622 -1079 0
-616 -1100 0
-617 -1101 0
-620 -1103 0
-621 -1105 0
-622 -1106 0
-618 -1109 0
-619 -1110 0
-620 -1112 0
-621 -1114 0
-622 -1115 0
-616 -1116 0
-618 -1118 0
-621 -1120 0
-622 -1121 0
-616 -1122 0
-619 -1124 0
-620 -1126 0
-621 -1127 0
-622 -1128 0
-616 -1141 0
-617 -1142 0
-620 -1144 0
-621 -1145 0
-622 -1146 0
-616 -1169 0
-618 -1170 0
-620 -1171 0
-621 -1173 0
-622 -1174 0
-617 -1182 0
-618 -1185 0
-619 -1186 0
-621 -1187 0
-622 -1188 0
-617 -1189 0
-620 -1192 0
-621 -1193 0
-622 -1194 0
-617 -1195 0
-619 -1197 0
-621 -1200 0
-622 -1201 0
-618 -1218 0
-621 -1221 0
-622 -1222 0
-618 -1224 0
-619 -1225 0
-620 -1226 0
-621 -1227 0
-622 -1228 0
-617 -1230 0
-618 -1232 0
-619 -1233 0
-620 -1235 0
-621 -1237 0
-622 -1238 0
-617 -1239 0
-620 -1243 0
-621 -1245 0
-622 -1246 0
-617 -1247 0
-619 -1249 0
-620 -1251 0
-621 -1252 0
-622 -1253 0
-618 -1277 0
-620 -1278 0
-621 -1280 0
-622 -1281 0
-618 -1283 0
-619 -1284 0
-621 -1287 0
-622 -1288 0
-619 -1306 0
-621 -1309 0
-622 -1310 0
-620 -1313 0
-621 -1315 0
-622 -1316 0
-618 -1320 0
-619 -1321 0
-621 -1323 0
-622 -1324 0
-616 -1377 0
-618 -1379 0
-619 -1380 0
-620 -1381 0
-621 -1383 0
-622 -1384 0
-616 -1385 0
-618 -1387 0
-621 -1390 0
-622 -1391 0
-619 -1482 0
-620 -1484 0
-621 -1486 0
-622 -1487 0
-618 -1490 0
-621 -1493 0
-622 -1494 0
-617 -1513 0
-621 -1517 0
-622 -1518 0
-617 -1519 0
-618 -1522 0
-619 -1523 0
-620 -1525 0
-621 -1527 0
-622 -1528 0
-617 -1529 0
-618 -1531 0
-621 -1533 0
-622 -1534 0
-619 -1543 0
-621 -1545 0
-622 -1546 0
-620 -1549 0
-621 -1551 0
-622 -1552 0
-616 -1566 0
-620 -1568 0
-621 -1570 0
-622 -1571 0
-618 -1580 0
-619 -1581 0
-621 -1583 0
-622 -1584 0
-618 -1586 0
-619 -1587 0
-620 -1588 0
-621 -1590 0
-622 -1591 0
-619 -1594 0
-621 -1596 0
-622 -1597 0
-619 -1625 0
-620 -1627 0
-621 -1628 0
-622 -1629 0
-616 -1630 0
-619 -1632 0
-620 -1633 0
-621 -1634 0
-622 -1635 0
-616 -1636 0
-619 -1637 0
-621 -1640 0
-622 -1641 0
-617 -1661 0
-618 -1662 0
-619 -1663 0
-621 -1665 0
-622 -1666 0
-617 -1667 0
-619 -1669 0
-620 -1671 0
-621 -1672 0
-622 -1673 0
-618 -1675 0
-619 -1676 0
-621 -1679 0
-622 -1680 0
-617 -1681 0
-619 -1682 0
-620 -1683 0
-621 -1685 0
-622 -1686 0
-618 -1701 0
-619 -1702 0
-620 -1704 0
-621 -1706 0
-622 -1707 0
-618 -1709 0
-621 -1712 0
-622 -1713 0
-618 -1758 0
-619 -1759 0
-621 -1761 0
-622 -1762 0
-617 -1763 0
-618 -1764 0
-620 -1766 0
-621 -1768 0
-622 -1769 0
-618 -1772 0
-619 -1773 0
-620 -1774 0
-621 -1776 0
-622 -1777 0
-616 -1778 0
-618 -1779 0
-620 -1780 0
-621 -1782 0
-622 -1783 0
-618 -1792 0
-619 -1793 0
-621 -1795 0
-622 -1796 0
-618 -1799 0
-620 -1800 0
-621 -1802 0
-622 -1803 0
-618 -1805 0
-619 -1806 0
-621 -1809 0
-622 -1810 0
-618 -1819 0
-620 -1821 0
-621 -1822 0
-622 -1823 0
-618 -1824 0
-619 -1825 0
-620 -1827 0
-621 -1829 0
-622 -1830 0
-619 -1846 0
-620 -1848 0
-621 -1850 0
-622 -1851 0
-626 -709 0
-628 -711 0
-629 -712 0
-623 -779 0
-625 -780 0
-627 -783 0
-628 -784 0
-629 -785 0
-623 -786 0
-626 -788 0
-628 -790 0
-629 -791 0
-623 -792 0
-624 -793 0
-626 -795 0
-627 -796 0
-628 -798 0
-629 -799 0
-623 -810 0
-625 -812 0
-628 -815 0
-629 -816 0
-623 -817 0
-624 -819 0
-625 -820 0
-627 -822 0
-628 -824 0
-629 -825 0
-623 -826 0
-624 -828 0
-626 -829 0
-628 -831 0
-629 -832 0
-623 -833 0
-628 -837 0
-629 -838 0
-623 -839 0
-624 -841 0
-627 -844 0
-628 -845 0
-629 -846 0
-624 -848 0
-628 -852 0
-629 -853 0
-623 -883 0
-625 -885 0
-626 -887 0
-628 -888 0
-629 -889 0
-623 -890 0
-624 -892 0
-625 -893 0
-626 -896 0
-627 -897 0
-628 -898 0
-629 -899 0
-623 -900 0
-624 -902 0
-626 -904 0
-628 -906 0
-629 -907 0
-624 -933 0
-625 -934 0
-626 -936 0
-628 -938 0
-629 -939 0
-624 -964 0
-626 -967 0
-628 -968 0
-629 -969 0
-623 -992 0
-625 -993 0
-626 -995 0
-627 -996 0
-628 -998 0
-629 -999 0
-623 -1000 0
-625 -1001 0
-626 -1004 0
-628 -1005 0
-629 -1006 0
-623 -1007 0
-624 -1008 0
-625 -1009 0
-626 -1010 0
-627 -1011 0
-628 -1012 0
-629 -1013 0
-625 -1023 0
-626 -1026 0
-628 -1027 0
-629 -1028 0
-624 -1030 0
-625 -1031 0
-626 -1032 0
-627 -1033 0
-628 -1034 0
-629 -1035 0
-624 -1037 0
-625 -1038 0
-626 -1040 0
-628 -1042 0
-629 -1043 0
-625 -1045 0
-626 -1047 0
-628 -1049 0
-629 -1050 0
-624 -1052 0
-625 -1053 0
-626 -1056 0
-627 -1057 0
-628 -1059 0
-629 -1060 0
-624 -1062 0
-626 -1064 0
-628 -1065 0
-629 -1066 0
-623 -1080 0
-624 -1081 0
-625 -1082 0
-626 -1083 0
-627 -1084 0
-628 -1085 0
-629 -1086 0
-623 -1087 0
-624 -1088 0
-628 -1091 0
-629 -1092 0
-623 -1093 0
-624 -1094 0
-627 -1096 0
-628 -1098 0
-629 -1099 0
-623 -1107 0
-624 -1108 0
-626 -1111 0
-627 -1112 0
-628 -1114 0
-629 -1115 0
-624 -1117 0
-626 -1119 0
-628 -1120 0
-629 -1121 0
-624 -1123 0
-626 -1125 0
-627 -1126 0
-628 -1127 0
-629 -1128 0
-624 -1183 0
-625 -1184 0
-628 -1187 0
-629 -1188 0
-624 -1190 0
-625 -1191 0
-627 -1192 0
-628 -1193 0
-629 -1194 0
-624 -1196 0
-626 -1198 0
-628 -1200 0
-629 -1201 0
-624 -1203 0
-628 -1206 0
-629 -1207 0
-624 -1209 0
-627 -1212 0
-628 -1214 0
-629 -1215 0
-624 -1254 0
-625 -1255 0
-627 -1257 0
-628 -1259 0
-629 -1260 0
-624 -1261 0
-625 -1262 0
-626 -1264 0
-628 -1265 0
-629 -1266 0
-624 -1267 0
-625 -1268 0
-626 -1271 0
-627 -1272 0
-628 -1273 0
-629 -1274 0
-624 -1275 0
-625 -1276 0
-627 -1278 0
-628 -1280 0
-629 -1281 0
-624 -1282 0
-626 -1285 0
-628 -1287 0
-629 -1288 0
-623 -1289 0
-625 -1291 0
-627 -1293 0
-628 -1295 0
-629 -1296 0
-623 -1297 0
-626 -1300 0
-628 -1302 0
-629 -1303 0
-625 -1327 0
-628 -1330 0
-629 -1331 0
-628 -1351 0
-629 -1352 0
-625 -1378 0
-627 -1381 0
-628 -1383 0
-629 -1384 0
-625 -1386 0
-626 -1388 0
-628 -1390 0
-629 -1391 0
-625 -1393 0
-626 -1396 0
-628 -1398 0
-629 -1399 0
-625 -1468 0
-626 -1470 0
-627 -1471 0
-628 -1472 0
-629 -1473 0
-625 -1475 0
-626 -1476 0
-628 -1478 0
-629 -1479 0
-625 -1514 0
-626 -1515 0
-628 -1517 0
-629 -1518 0
-624 -1520 0
-625 -1521 0
-626 -1524 0
-627 -1525 0
-628 -1527 0
-629 -1528 0
-624 -1530 0
-628 -1533 0
-629 -1534 0
-626 -1538 0
-628 -1539 0
-629 -1540 0
-625 -1553 0
-626 -1555 0
-627 -1556 0
-628 -1557 0
-629 -1558 0
-625 -1559 0
-628 -1563 0
-629 -1564 0
-623 -1565 0
-626 -1567 0
-627 -1568 0
-628 -1570 0
-629 -1571 0
-623 -1572 0
-627 -1575 0
-628 -1576 0
-629 -1577 0
-628 -1603 0
-629 -1604 0
-623 -1624 0
-626 -1626 0
-627 -1627 0
-628 -1628 0
-629 -1629 0
-625 -1631 0
-627 -1633 0
-628 -1634 0
-629 -1635 0
-626 -1638 0
-628 -1640 0
-629 -1641 0
-627 -1644 0
-628 -1646 0
-629 -1647 0
-623 -1648 0
-626 -1650 0
-627 -1651 0
-628 -1652 0
-629 -1653 0
-626 -1664 0
-628 -1665 0
-629 -1666 0
-624 -1668 0
-626 -1670 0
-627 -1671 0
-628 -1672 0
-629 -1673 0
-625 -1687 0
-626 -1689 0
-627 -1690 0
-628 -1692 0
-629 -1693 0
-624 -1695 0
-627 -1698 0
-628 -1699 0
-629 -1700 0
-626 -1703 0
-627 -1704 0
-628 -1706 0
-629 -1707 0
-626 -1765 0
-627 -1766 0
-628 -1768 0
-629 -1769 0
-625 -1791 0
-628 -1795 0
-629 -1796 0
-624 -1797 0
-625 -1798 0
-627 -1800 0
-628 -1802 0
-629 -1803 0
-624 -1804 0
-626 -1807 0
-628 -1809 0
-629 -1810 0
-624 -1812 0
-627 -1815 0
-628 -1816 0
-629 -1817 0
-625 -1845 0
-626 -1847 0
-627 -1848 0
-628 -1850 0
-629 -1851 0
-626 -1855 0
-627 -1856 0
-628 -1858 0
-629 -1859 0
-632 -780 0
-633 -781 0
-635 -783 0
-636 -784 0
-637 -785 0
-633 -787 0
-634 -788 0
-636 -790 0
-637 -791 0
-630 -801 0
-631 -802 0
-633 -803 0
-634 -805 0
-635 -806 0
-636 -808 0
-637 -809 0
-630 -818 0
-632 -820 0
-635 -822 0
-636 -824 0
-637 -825 0
-630 -827 0
-634 -829 0
-636 -831 0
-637 -832 0
-630 -840 0
-633 -842 0
-635 -844 0
-636 -845 0
-637 -846 0
-630 -869 0
-632 -870 0
-634 -871 0
-635 -872 0
-636 -874 0
-637 -875 0
-630 -876 0
-633 -877 0
-634 -879 0
-635 -880 0
-636 -881 0
-637 -882 0
-631 -891 0
-632 -893 0
-633 -894 0
-634 -896 0
-635 -897 0
-636 -898 0
-637 -899 0
-631 -901 0
-633 -903 0
-634 -904 0
-636 -906 0
-637 -907 0
-632 -926 0
-634 -927 0
-636 -929 0
-637 -930 0
-633 -957 0
-634 -959 0
-636 -960 0
-637 -961 0
-632 -993 0
-633 -994 0
-634 -995 0
-635 -996 0
-636 -998 0
-637 -999 0
-632 -1001 0
-633 -1002 0
-634 -1004 0
-636 -1005 0
-637 -1006 0
-630 -1014 0
-631 -1015 0
-632 -1016 0
-633 -1017 0
-634 -1018 0
-635 -1019 0
-636 -1020 0
-637 -1021 0
-630 -1029 0
-632 -1031 0
-634 -1032 0
-635 -1033 0
-636 -1034 0
-637 -1035 0
-630 -1036 0
-632 -1038 0
-634 -1040 0
-636 -1042 0
-637 -1043 0
-630 -1051 0
-632 -1053 0
-633 -1054 0
-634 -1056 0
-635 -1057 0
-636 -1059 0
-637 -1060 0
-630 -1061 0
-633 -1063 0
-634 -1064 0
-636 -1065 0
-637 -1066 0
-631 -1068 0
-633 -1069 0
-635 -1070 0
-636 -1071 0
-637 -1072 0
-632 -1082 0
-634 -1083 0
-635 -1084 0
-636 -1085 0
-637 -1086 0
-636 -1091 0
-637 -1092 0
-630 -1100 0
-631 -1101 0
-635 -1103 0
-636 -1105 0
-637 -1106 0
-633 -1109 0
-634 -1111 0
-635 -1112 0
-636 -1114 0
-637 -1115 0
-630 -1122 0
-634 -1125 0
-635 -1126 0
-636 -1127 0
-637 -1128 0
-630 -1147 0
-632 -1148 0
-635 -1150 0
-636 -1151 0
-637 -1152 0
-630 -1169 0
-633 -1170 0
-635 -1171 0
-636 -1173 0
-637 -1174 0
-631 -1175 0
-633 -1177 0
-634 -1178 0
-635 -1179 0
-636 -1180 0
-637 -1181 0
-631 -1189 0
-632 -1191 0
-635 -1192 0
-636 -1193 0
-637 -1194 0
-631 -1195 0
-634 -1198 0
-636 -1200 0
-637 -1201 0
-631 -1208 0
-633 -1210 0
-635 -1212 0
-636 -1214 0
-637 -1215 0
-631 -1230 0
-632 -1231 0
-633 -1232 0
-634 -1234 0
-635 -1235 0
-636 -1237 0
-637 -1238 0
-632 -1255 0
-635 -1257 0
-636 -1259 0
-637 -1260 0
-632 -1262 0
-634 -1264 0
-636 -1265 0
-637 -1266 0
-632 -1276 0
-633 -1277 0
-635 -1278 0
-636 -1280 0
-637 -1281 0
-633 -1283 0
-634 -1285 0
-636 -1287 0
-637 -1288 0
-631 -1290 0
-632 -1291 0
-635 -1293 0
-636 -1295 0
-637 -1296 0
-631 -1298 0
-634 -1300 0
-636 -1302 0
-637 -1303 0
-632 -1319 0
-633 -1320 0
-636 -1323 0
-637 -1324 0
-630 -1377 0
-632 -1378 0
-633 -1379 0
-635 -1381 0
-636 -1383 0
-637 -1384 0
-630 -1385 0
-632 -1386 0
-633 -1387 0
-634 -1388 0
-636 -1390 0
-637 -1391 0
-631 -1467 0
-632 -1468 0
-634 -1470 0
-635 -1471 0
-636 -1472 0
-637 -1473 0
-631 -1474 0
-632 -1475 0
-634 -1476 0
-636 -1478 0
-637 -1479 0
-632 -1489 0
-633 -1490 0
-634 -1491 0
-636 -1493 0
-637 -1494 0
-631 -1507 0
-635 -1509 0
-636 -1511 0
-637 -1512 0
-631 -1519 0
-632 -1521 0
-633 -1522 0
-634 -1524 0
-635 -1525 0
-636 -1527 0
-637 -1528 0
-631 -1529 0
-633 -1531 0
-636 -1533 0
-637 -1534 0
-632 -1553 0
-633 -1554 0
-634 -1555 0
-635 -1556 0
-636 -1557 0
-637 -1558 0
-632 -1559 0
-633 -1560 0
-636 -1563 0
-637 -1564 0
-630 -1566 0
-634 -1567 0
-635 -1568 0
-636 -1570 0
-637 -1571 0
-631 -1573 0
-633 -1574 0
-635 -1575 0
-636 -1576 0
-637 -1577 0
-636 -1596 0
-637 -1597 0
-630 -1630 0
-632 -1631 0
-635 -1633 0
-636 -1634 0
-637 -1635 0
-630 -1636 0
-634 -1638 0
-636 -1640 0
-637 -1641 0
-630 -1642 0
-633 -1643 0
-635 -1644 0
-636 -1646 0
-637 -1647 0
-634 -1650 0
-635 -1651 0
-636 -1652 0
-637 -1653 0
-631 -1667 0
-634 -1670 0
-635 -1671 0
-636 -1672 0
-637 -1673 0
-632 -1687 0
-634 -1689 0
-635 -1690 0
-636 -1692 0
-637 -1693 0
-633 -1701 0
-634 -1703 0
-635 -1704 0
-636 -1706 0
-637 -1707 0
-633 -1709 0
-634 -1710 0
-636 -1712 0
-637 -1713 0
-632 -1757 0
-633 -1758 0
-636 -1761 0
-637 -1762 0
-631 -1763 0
-633 -1764 0
-634 -1765 0
-635 -1766 0
-636 -1768 0
-637 -1769 0
-630 -1778 0
-633 -1779 0
-635 -1780 0
-636 -1782 0
-637 -1783 0
-631 -1784 0
-633 -1785 0
-634 -1786 0
-635 -1787 0
-636 -1789 0
-637 -1790 0
-632 -1798 0
-633 -1799 0
-635 -1800 0
-636 -1802 0
-637 -1803 0
-633 -1805 0
-634 -1807 0
-636 -1809 0
-637 -1810 0
-633 -1813 0
-635 -1815 0
-636 -1816 0
-637 -1817 0
-633 -1831 0
-634 -1833 0
-635 -1834 0
-636 -1836 0
-637 -1837 0
-632 -1845 0
-634 -1847 0
-635 -1848 0
-636 -1850 0
-637 -1851 0
-633 -1853 0
-634 -1855 0
-635 -1856 0
-636 -1858 0
-637 -1859 0
-639 -698 0
-642 -700 0
-643 -701 0
-644 -702 0
-645 -704 0
-646 -705 0
-639 -772 0
-641 -773 0
-642 -775 0
-644 -776 0
-645 -777 0
-646 -778 0
-641 -780 0
-642 -782 0
-644 -783 0
-645 -784 0
-646 -785 0
-640 -793 0
-642 -794 0
-643 -795 0
-644 -796 0
-645 -798 0
-646 -799 0
-638 -801 0
-639 -802 0
-642 -804 0
-643 -805 0
-644 -806 0
-645 -808 0
-646 -809 0
-638 -811 0
-641 -812 0
-645 -815 0
-646 -816 0
-638 -827 0
-640 -828 0
-643 -829 0
-645 -831 0
-646 -832 0
-638 -834 0
-642 -836 0
-645 -837 0
-646 -838 0
-638 -855 0
-641 -856 0
-642 -857 0
-643 -858 0
-644 -859 0
-645 -860 0
-646 -861 0
-638 -869 0
-641 -870 0
-643 -871 0
-644 -872 0
-645 -874 0
-646 -875 0
-638 -876 0
-642 -878 0
-643 -879 0
-644 -880 0
-645 -881 0
-646 -882 0
-639 -884 0
-641 -885 0
-643 -887 0
-645 -888 0
-646 -889 0
-639 -901 0
-640 -902 0
-643 -904 0
-645 -906 0
-646 -907 0
-640 -915 0
-641 -916 0
-642 -918 0
-643 -919 0
-644 -920 0
-645 -922 0
-646 -923 0
-640 -949 0
-643 -951 0
-644 -952 0
-645 -953 0
-646 -954 0
-641 -993 0
-643 -995 0
-644 -996 0
-645 -998 0
-646 -999 0
-640 -1008 0
-641 -1009 0
-643 -1010 0
-644 -1011 0
-645 -1012 0
-646 -1013 0
-638 -1014 0
-639 -1015 0
-641 -1016 0
-643 -1018 0
-644 -1019 0
-645 -1020 0
-646 -1021 0
-638 -1022 0
-641 -1023 0
-642 -1025 0
-643 -1026 0
-645 -1027 0
-646 -1028 0
-638 -1036 0
-640 -1037 0
-641 -1038 0
-642 -1039 0
-643 -1040 0
-645 -1042 0
-646 -1043 0
-638 -1044 0
-641 -1045 0
-643 -1047 0
-645 -1049 0
-646 -1050 0
-638 -1061 0
-640 -1062 0
-643 -1064 0
-645 -1065 0
-646 -1066 0
-639 -1074 0
-640 -1075 0
-642 -1076 0
-644 -1077 0
-645 -1078 0
-646 -1079 0
-640 -1081 0
-641 -1082 0
-643 -1083 0
-644 -1084 0
-645 -1085 0
-646 -1086 0
-640 -1094 0
-644 -1096 0
-645 -1098 0
-646 -1099 0
-638 -1100 0
-639 -1101 0
-640 -1102 0
-644 -1103 0
-645 -1105 0
-646 -1106 0
-640 -1108 0
-642 -1110 0
-643 -1111 0
-644 -1112 0
-645 -1114 0
-646 -1115 0
-638 -1116 0
-640 -1117 0
-643 -1119 0
-645 -1120 0
-646 -1121 0
-638 -1153 0
-640 -1154 0
-641 -1155 0
-644 -1157 0
-645 -1158 0
-646 -1159 0
-639 -1175 0
-640 -1176 0
-643 -1178 0
-644 -1179 0
-645 -1180 0
-646 -1181 0
-639 -1182 0
-640 -1183 0
-641 -1184 0
-642 -1186 0
-645 -1187 0
-646 -1188 0
-639 -1195 0
-640 -1196 0
-642 -1197 0
-643 -1198 0
-645 -1200 0
-646 -1201 0
-639 -1202 0
-640 -1203 0
-645 -1206 0
-646 -1207 0
-640 -1223 0
-642 -1225 0
-644 -1226 0
-645 -1227 0
-646 -1228 0
-639 -1239 0
-640 -1240 0
-641 -1241 0
-643 -1242 0
-644 -1243 0
-645 -1245 0
-646 -1246 0
-640 -1254 0
-641 -1255 0
-642 -1256 0
-644 -1257 0
-645 -1259 0
-646 -1260 0
-640 -1267 0
-641 -1268 0
-642 -1270 0
-643 -1271 0
-644 -1272 0
-645 -1273 0
-646 -1274 0
-640 -1275 0
-641 -1276 0
-644 -1278 0
-645 -1280 0
-646 -1281 0
-639 -1298 0
-642 -1299 0
-643 -1300 0
-645 -1302 0
-646 -1303 0
-641 -1312 0
-644 -1313 0
-645 -1315 0
-646 -1316 0
-642 -1341 0
-644 -1342 0
-645 -1344 0
-646 -1345 0
-638 -1385 0
-641 -1386 0
-643 -1388 0
-645 -1390 0
-646 -1391 0
-639 -1474 0
-641 -1475 0
-643 -1476 0
-645 -1478 0
-646 -1479 0
-641 -1481 0
-642 -1482 0
-643 -1483 0
-644 -1484 0
-645 -1486 0
-646 -1487 0
-641 -1501 0
-643 -1503 0
-644 -1504 0
-645 -1505 0
-646 -1506 0
-639 -1507 0
-642 -1508 0
-644 -1509 0
-645 -1511 0
-646 -1512 0
-639 -1513 0
-641 -1514 0
-643 -1515 0
-645 -1517 0
-646 -1518 0
-639 -1529 0
-640 -1530 0
-645 -1533 0
-646 -1534 0
-639 -1535 0
-642 -1537 0
-643 -1538 0
-645 -1539 0
-646 -1540 0
-640 -1547 0
-643 -1548 0
-644 -1549 0
-645 -1551 0
-646 -1552 0
-641 -1553 0
-643 -1555 0
-644 -1556 0
-645 -1557 0
-646 -1558 0
-642 -1587 0
-644 -1588 0
-645 -1590 0
-646 -1591 0
-642 -1625 0
-643 -1626 0
-644 -1627 0
-645 -1628 0
-646 -1629 0
-638 -1636 0
-642 -1637 0
-643 -1638 0
-645 -1640 0
-646 -1641 0
-642 -1649 0
-643 -1650 0
-644 -1651 0
-645 -1652 0
-646 -1653 0
-638 -1654 0
-642 -1656 0
-643 -1657 0
-644 -1658 0
-645 -1659 0
-646 -1660 0
-639 -1661 0
-642 -1663 0
-643 -1664 0
-645 -1665 0
-646 -1666 0
-639 -1681 0
-642 -1682 0
-644 -1683 0
-645 -1685 0
-646 -1686 0
-641 -1687 0
-642 -1688 0
-643 -1689 0
-644 -1690 0
-645 -1692 0
-646 -1693 0
-640 -1695 0
-642 -1697 0
-644 -1698 0
-645 -1699 0
-646 -1700 0
-642 -1702 0
-643 -1703 0
-644 -1704 0
-645 -1706 0
-646 -1707 0
-642 -1773 0
-644 -1774 0
-645 -1776 0
-646 -1777 0
-638 -1778 0
-644 -1780 0
-645 -1782 0
-646 -1783 0
-639 -1784 0
-643 -1786 0
-644 -1787 0
-645 -1789 0
-646 -1790 0
-641 -1791 0
-642 -1793 0
-645 -1795 0
-646 -1796 0
-640 -1804 0
-642 -1806 0
-643 -1807 0
-645 -1809 0
-646 -1810 0
-641 -1818 0
-643 -1820 0
-644 -1821 0
-645 -1822 0
-646 -1823 0
-640 -1838 0
-643 -1839 0
-644 -1840 0
-645 -1842 0
-646 -1843 0
-648 -691 0
-652 -695 0
-653 -696 0
-648 -764 0
-651 -769 0
-652 -770 0
-653 -771 0
-651 -789 0
-652 -790 0
-653 -791 0
-649 -793 0
-650 -796 0
-651 -797 0
-652 -798 0
-653 -799 0
-647 -801 0
-648 -802 0
-650 -806 0
-651 -807 0
-652 -808 0
-653 -809 0
-647 -811 0
-651 -814 0
-652 -815 0
-653 -816 0
-647 -818 0
-649 -819 0
-650 -822 0
-651 -823 0
-652 -824 0
-653 -825 0
-647 -834 0
-652 -837 0
-653 -838 0
-647 -840 0
-649 -841 0
-650 -844 0
-652 -845 0
-653 -846 0
-647 -863 0
-650 -865 0
-651 -866 0
-652 -867 0
-653 -868 0
-647 -869 0
-650 -872 0
-651 -873 0
-652 -874 0
-653 -875 0
-647 -876 0
-650 -880 0
-652 -881 0
-653 -882 0
-648 -884 0
-652 -888 0
-653 -889 0
-648 -891 0
-649 -892 0
-650 -897 0
-652 -898 0
-653 -899 0
-649 -909 0
-652 -912 0
-653 -913 0
-649 -941 0
-651 -945 0
-652 -946 0
-653 -947 0
-652 -1005 0
-653 -1006 0
-649 -1008 0
-650 -1011 0
-652 -1012 0
-653 -1013 0
-647 -1014 0
-648 -1015 0
-650 -1019 0
-652 -1020 0
-653 -1021 0
-647 -1022 0
-652 -1027 0
-653 -1028 0
-647 -1029 0
-649 -1030 0
-650 -1033 0
-652 -1034 0
-653 -1035 0
-647 -1044 0
-651 -1048 0
-652 -1049 0
-653 -1050 0
-647 -1051 0
-649 -1052 0
-650 -1057 0
-651 -1058 0
-652 -1059 0
-653 -1060 0
-649 -1088 0
-651 -1090 0
-652 -1091 0
-653 -1092 0
-649 -1094 0
-650 -1096 0
-651 -1097 0
-652 -1098 0
-653 -1099 0
-647 -1100 0
-648 -1101 0
-649 -1102 0
-650 -1103 0
-651 -1104 0
-652 -1105 0
-653 -1106 0
-647 -1116 0
-649 -1117 0
-652 -1120 0
-653 -1121 0
-647 -1122 0
-649 -1123 0
-650 -1126 0
-652 -1127 0
-653 -1128 0
-647 -1160 0
-649 -1161 0
-650 -1165 0
-651 -1166 0
-652 -1167 0
-653 -1168 0
-648 -1175 0
-649 -1176 0
-650 -1179 0
-652 -1180 0
-653 -1181 0
-648 -1182 0
-649 -1183 0
-652 -1187 0
-653 -1188 0
-648 -1189 0
-649 -1190 0
-650 -1192 0
-652 -1193 0
-653 -1194 0
-648 -1202 0
-649 -1203 0
-651 -1205 0
-652 -1206 0
-653 -1207 0
-648 -1208 0
-649 -1209 0
-650 -1212 0
-651 -1213 0
-652 -1214 0
-653 -1215 0
-649 -1216 0
-651 -1220 0
-652 -1221 0
-653 -1222 0
-648 -1247 0
-649 -1248 0
-650 -1251 0
-652 -1252 0
-653 -1253 0
-649 -1261 0
-652 -1265 0
-653 -1266 0
-649 -1267 0
-650 -1272 0
-652 -1273 0
-653 -1274 0
-649 -1282 0
-651 -1286 0
-652 -1287 0
-653 -1288 0
-648 -1290 0
-650 -1293 0
-651 -1294 0
-652 -1295 0
-653 -1296 0
-651 -1308 0
-652 -1309 0
-653 -1310 0
-652 -1337 0
-653 -1338 0
-647 -1377 0
-650 -1381 0
-651 -1382 0
-652 -1383 0
-653 -1384 0
-648 -1467 0
-650 -1471 0
-652 -1472 0
-653 -1473 0
-651 -1498 0
-652 -1499 0
-653 -1500 0
-648 -1507 0
-650 -1509 0
-651 -1510 0
-652 -1511 0
-653 -1512 0
-648 -1513 0
-651 -1516 0
-652 -1517 0
-653 -1518 0
-648 -1519 0
-649 -1520 0
-650 -1525 0
-651 -1526 0
-652 -1527 0
-653 -1528 0
-648 -1535 0
-652 -1539 0
-653 -1540 0
-649 -1541 0
-652 -1545 0
-653 -1546 0
-651 -1562 0
-652 -1563 0
-653 -1564 0
-647 -1566 0
-650 -1568 0
-651 -1569 0
-652 -1570 0
-653 -1571 0
-648 -1573 0
-650 -1575 0
-652 -1576 0
-653 -1577 0
-652 -1583 0
-653 -1584 0
-651 -1608 0
-652 -1609 0
-653 -1610 0
-650 -1627 0
-652 -1628 0
-653 -1629 0
-647 -1630 0
-650 -1633 0
-652 -1634 0
-653 -1635 0
-647 -1642 0
-650 -1644 0
-651 -1645 0
-652 -1646 0
-653 -1647 0
-648 -1661 0
-652 -1665 0
-653 -1666 0
-648 -1667 0
-649 -1668 0
-650 -1671 0
-652 -1672 0
-653 -1673 0
-649 -1674 0
-651 -1678 0
-652 -1679 0
-653 -1680 0
-649 -1695 0
-650 -1698 0
-652 -1699 0
-653 -1700 0
-648 -1763 0
-650 -1766 0
-651 -1767 0
-652 -1768 0
-653 -1769 0
-647 -1778 0
-650 -1780 0
-651 -1781 0
-652 -1782 0
-653 -1783 0
-648 -1784 0
-650 -1787 0
-651 -1788 0
-652 -1789 0
-653 -1790 0
-651 -1794 0
-652 -1795 0
-653 -1796 0
-649 -1797 0
-650 -1800 0
-651 -1801 0
-652 -1802 0
-653 -1803 0
-649 -1812 0
-650 -1815 0
-652 -1816 0
-653 -1817 0
-650 -1827 0
-651 -1828 0
-652 -1829 0
-653 -1830 0
-650 -1848 0
-651 -1849 0
-652 -1850 0
-653 -1851 0
-650 -1856 0
-651 -1857 0
-652 -1858 0
-653 -1859 0
-656 -708 0
-659 -711 0
-660 -712 0
-658 -716 0
-659 -717 0
-660 -718 0
-656 -743 0
-658 -745 0
-659 -747 0
-660 -748 0
-654 -779 0
-655 -780 0
-656 -781 0
-657 -782 0
-658 -783 0
-659 -784 0
-660 -785 0
-654 -786 0
-656 -787 0
-659 -790 0
-660 -791 0
-654 -792 0
-657 -794 0
-658 -796 0
-659 -798 0
-660 -799 0
-654 -810 0
-655 -812 0
-656 -813 0
-659 -815 0
-660 -816 0
-654 -817 0
-655 -820 0
-657 -821 0
-658 -822 0
-659 -824 0
-660 -825 0
-654 -826 0
-659 -831 0
-660 -832 0
-654 -854 0
-655 -856 0
-657 -857 0
-658 -859 0
-659 -860 0
-660 -861 0
-654 -862 0
-658 -865 0
-659 -867 0
-660 -868 0
-655 -870 0
-658 -872 0
-659 -874 0
-660 -875 0
-654 -883 0
-655 -885 0
-656 -886 0
-659 -888 0
-660 -889 0
-654 -890 0
-655 -893 0
-656 -894 0
-657 -895 0
-658 -897 0
-659 -898 0
-660 -899 0
-654 -900 0
-656 -903 0
-659 -906 0
-660 -907 0
-655 -934 0
-656 -935 0
-659 -938 0
-660 -939 0
-654 -940 0
-655 -942 0
-656 -943 0
-657 -944 0
-659 -946 0
-660 -947 0
-654 -948 0
-656 -950 0
-658 -952 0
-659 -953 0
-660 -954 0
-654 -955 0
-656 -957 0
-657 -958 0
-659 -960 0
-660 -961 0
-655 -972 0
-656 -973 0
-658 -974 0
-659 -975 0
-660 -976 0
-655 -979 0
-656 -980 0
-657 -981 0
-659 -982 0
-660 -983 0
-656 -986 0
-658 -988 0
-659 -990 0
-660 -991 0
-655 -1016 0
-656 -1017 0
-658 -1019 0
-659 -1020 0
-660 -1021 0
-655 -1045 0
-656 -1046 0
-659 -1049 0
-660 -1050 0
-655 -1053 0
-656 -1054 0
-657 -1055 0
-658 -1057 0
-659 -1059 0
-660 -1060 0
-656 -1063 0
-659 -1065 0
-660 -1066 0
-654 -1080 0
-655 -1082 0
-658 -1084 0
-659 -1085 0
-660 -1086 0
-654 -1087 0
-657 -1089 0
-659 -1091 0
-660 -1092 0
-654 -1093 0
-656 -1095 0
-658 -1096 0
-659 -1098 0
-660 -1099 0
-654 -1129 0
-655 -1130 0
-658 -1131 0
-659 -1133 0
-660 -1134 0
-654 -1135 0
-657 -1136 0
-658 -1138 0
-659 -1139 0
-660 -1140 0
-655 -1148 0
-657 -1149 0
-658 -1150 0
-659 -1151 0
-660 -1152 0
-655 -1155 0
-656 -1156 0
-658 -1157 0
-659 -1158 0
-660 -1159 0
-656 -1162 0
-657 -1163 0
-658 -1165 0
-659 -1167 0
-660 -1168 0
-655 -1184 0
-656 -1185 0
-657 -1186 0
-659 -1187 0
-660 -1188 0
-655 -1191 0
-658 -1192 0
-659 -1193 0
-660 -1194 0
-657 -1197 0
-659 -1200 0
-660 -1201 0
-655 -1217 0
-656 -1218 0
-659 -1221 0
-660 -1222 0
-656 -1224 0
-657 -1225 0
-658 -1226 0
-659 -1227 0
-660 -1228 0
-655 -1231 0
-656 -1232 0
-657 -1233 0
-658 -1235 0
-659 -1237 0
-660 -1238 0
-655 -1241 0
-658 -1243 0
-659 -1245 0
-660 -1246 0
-657 -1249 0
-658 -1251 0
-659 -1252 0
-660 -1253 0
-655 -1276 0
-656 -1277 0
-658 -1278 0
-659 -1280 0
-660 -1281 0
-656 -1283 0
-657 -1284 0
-659 -1287 0
-660 -1288 0
-654 -1289 0
-655 -1291 0
-657 -1292 0
-658 -1293 0
-659 -1295 0
-660 -1296 0
-654 -1297 0
-657 -1299 0
-659 -1302 0
-660 -1303 0
-655 -1327 0
-657 -1328 0
-659 -1330 0
-660 -1331 0
-654 -1332 0
-655 -1333 0
-656 -1334 0
-657 -1335 0
-659 -1337 0
-660 -1338 0
-654 -1339 0
-656 -1340 0
-657 -1341 0
-658 -1342 0
-659 -1344 0
-660 -1345 0
-655 -1354 0
-656 -1355 0
-657 -1356 0
-658 -1358 0
-659 -1360 0
-660 -1361 0
-655 -1364 0
-657 -1365 0
-659 -1368 0
-660 -1369 0
-657 -1372 0
-658 -1373 0
-659 -1375 0
-660 -1376 0
-655 -1393 0
-656 -1394 0
-657 -1395 0
-659 -1398 0
-660 -1399 0
-655 -1423 0
-656 -1424 0
-657 -1425 0
-658 -1426 0
-659 -1427 0
-660 -1428 0
-655 -1431 0
-656 -1432 0
-657 -1433 0
-659 -1434 0
-660 -1435 0
-656 -1438 0
-657 -1439 0
-658 -1441 0
-659 -1443 0
-660 -1444 0
-655 -1514 0
-659 -1517 0
-660 -1518 0
-655 -1521 0
-656 -1522 0
-657 -1523 0
-658 -1525 0
-659 -1527 0
-660 -1528 0
-656 -1531 0
-659 -1533 0
-660 -1534 0
-655 -1542 0
-657 -1543 0
-659 -1545 0
-660 -1546 0
-658 -1549 0
-659 -1551 0
-660 -1552 0
-654 -1565 0
-658 -1568 0
-659 -1570 0
-660 -1571 0
-654 -1572 0
-656 -1574 0
-658 -1575 0
-659 -1576 0
-660 -1577 0
-656 -1600 0
-657 -1601 0
-659 -1603 0
-660 -1604 0
-654 -1605 0
-656 -1606 0
-659 -1609 0
-660 -1610 0
-656 -1612 0
-657 -1613 0
-658 -1615 0
-659 -1616 0
-660 -1617 0
-656 -1620 0
-659 -1622 0
-660 -1623 0
-656 -1643 0
-658 -1644 0
-659 -1646 0
-660 -1647 0
-654 -1648 0
-657 -1649 0
-658 -1651 0
-659 -1652 0
-660 -1653 0
-656 -1655 0
-657 -1656 0
-658 -1658 0
-659 -1659 0
-660 -1660 0
-656 -1662 0
-657 -1663 0
-659 -1665 0
-660 -1666 0
-657 -1669 0
-658 -1671 0
-659 -1672 0
-660 -1673 0
-656 -1675 0
-657 -1676 0
-659 -1679 0
-660 -1680 0
-657 -1682 0
-658 -1683 0
-659 -1685 0
-660 -1686 0
-656 -1701 0
-657 -1702 0
-658 -1704 0
-659 -1706 0
-660 -1707 0
-657 -1715 0
-659 -1718 0
-660 -1719 0
-656 -1733 0
-657 -1734 0
-659 -1736 0
-660 -1737 0
-656 -1764 0
-658 -1766 0
-659 -1768 0
-660 -1769 0
-655 -1791 0
-656 -1792 0
-657 -1793 0
-659 -1795 0
-660 -1796 0
-655 -1798 0
-656 -1799 0
-658 -1800 0
-659 -1802 0
-660 -1803 0
-656 -1805 0
-657 -1806 0
-659 -1809 0
-660 -1810 0
-655 -1818 0
-656 -1819 0
-658 -1821 0
-659 -1822 0
-660 -1823 0
-656 -1824 0
-657 -1825 0
-658 -1827 0
-659 -1829 0
-660 -1830 0
-655 -1845 0
-657 -1846 0
-658 -1848 0
-659 -1850 0
-660 -1851 0
-662 -698 0
-664 -699 0
-665 -704 0
-666 -705 0
-661 -713 0
-662 -714 0
-665 -717 0
-666 -718 0
-662 -742 0
-664 -743 0
-665 -747 0
-666 -748 0
-662 -757 0
-665 -762 0
-666 -763 0
-663 -780 0
-664 -781 0
-665 -784 0
-666 -785 0
-665 -798 0
-666 -799 0
-661 -801 0
-662 -802 0
-664 -803 0
-665 -808 0
-666 -809 0
-661 -811 0
-663 -812 0
-664 -813 0
-665 -815 0
-666 -816 0
-661 -827 0
-665 -831 0
-666 -832 0
-661 -840 0
-664 -842 0
-665 -845 0
-666 -846 0
-661 -847 0
-664 -849 0
-665 -852 0
-666 -853 0
-661 -863 0
-665 -867 0
-666 -868 0
-661 -876 0
-664 -877 0
-665 -881 0
-666 -882 0
-662 -884 0
-663 -885 0
-664 -886 0
-665 -888 0
-666 -889 0
-662 -901 0
-664 -903 0
-665 -906 0
-666 -907 0
-663 -916 0
-664 -917 0
-665 -922 0
-666 -923 0
-663 -942 0
-664 -943 0
-665 -946 0
-666 -947 0
-664 -957 0
-665 -960 0
-666 -961 0
-661 -962 0
-662 -963 0
-664 -965 0
-665 -968 0
-666 -969 0
-661 -970 0
-663 -972 0
-664 -973 0
-665 -975 0
-666 -976 0
-661 -984 0
-664 -986 0
-665 -990 0
-666 -991 0
-663 -1001 0
-664 -1002 0
-665 -1005 0
-666 -1006 0
-661 -1044 0
-663 -1045 0
-664 -1046 0
-665 -1049 0
-666 -1050 0
-661 -1061 0
-664 -1063 0
-665 -1065 0
-666 -1066 0
-662 -1074 0
-665 -1078 0
-666 -1079 0
-663 -1082 0
-665 -1085 0
-666 -1086 0
-664 -1095 0
-665 -1098 0
-666 -1099 0
-661 -1100 0
-662 -1101 0
-665 -1105 0
-666 -1106 0
-661 -1122 0
-665 -1127 0
-666 -1128 0
-663 -1130 0
-665 -1133 0
-666 -1134 0
-661 -1141 0
-662 -1142 0
-665 -1145 0
-666 -1146 0
-661 -1147 0
-663 -1148 0
-665 -1151 0
-666 -1152 0
-661 -1160 0
-664 -1162 0
-665 -1167 0
-666 -1168 0
-662 -1175 0
-664 -1177 0
-665 -1180 0
-666 -1181 0
-662 -1182 0
-663 -1184 0
-664 -1185 0
-665 -1187 0
-666 -1188 0
-662 -1195 0
-665 -1200 0
-666 -1201 0
-662 -1208 0
-664 -1210 0
-665 -1214 0
-666 -1215 0
-663 -1217 0
-664 -1218 0
-665 -1221 0
-666 -1222 0
-662 -1230 0
-663 -1231 0
-664 -1232 0
-665 -1237 0
-666 -1238 0
-662 -1247 0
-665 -1252 0
-666 -1253 0
-663 -1262 0
-665 -1265 0
-666 -1266 0
-663 -1276 0
-664 -1277 0
-665 -1280 0
-666 -1281 0
-662 -1298 0
-665 -1302 0
-666 -1303 0
-663 -1312 0
-665 -1315 0
-666 -1316 0
-663 -1333 0
-664 -1334 0
-665 -1337 0
-666 -1338 0
-661 -1346 0
-662 -1347 0
-664 -1348 0
-665 -1351 0
-666 -1352 0
-661 -1353 0
-663 -1354 0
-664 -1355 0
-665 -1360 0
-666 -1361 0
-661 -1370 0
-665 -1375 0
-666 -1376 0
-662 -1422 0
-663 -1423 0
-664 -1424 0
-665 -1427 0
-666 -1428 0
-662 -1436 0
-664 -1438 0
-665 -1443 0
-666 -1444 0
-663 -1454 0
-664 -1455 0
-665 -1458 0
-666 -1459 0
-663 -1501 0
-664 -1502 0
-665 -1505 0
-666 -1506 0
-662 -1507 0
-665 -1511 0
-666 -1512 0
-662 -1513 0
-663 -1514 0
-665 -1517 0
-666 -1518 0
-662 -1529 0
-664 -1531 0
-665 -1533 0
-666 -1534 0
-663 -1542 0
-665 -1545 0
-666 -1546 0
-663 -1559 0
-664 -1560 0
-665 -1563 0
-666 -1564 0
-664 -1586 0
-665 -1590 0
-666 -1591 0
-664 -1606 0
-665 -1609 0
-666 -1610 0
-661 -1611 0
-664 -1612 0
-665 -1616 0
-666 -1617 0
-665 -1652 0
-666 -1653 0
-662 -1661 0
-664 -1662 0
-665 -1665 0
-666 -1666 0
-664 -1675 0
-665 -1679 0
-666 -1680 0
-664 -1701 0
-665 -1706 0
-666 -1707 0
-664 -1744 0
-665 -1749 0
-666 -1750 0
-664 -1772 0
-665 -1776 0
-666 -1777 0
-661 -1778 0
-664 -1779 0
-665 -1782 0
-666 -1783 0
-662 -1784 0
-664 -1785 0
-665 -1789 0
-666 -1790 0
-663 -1791 0
-664 -1792 0
-665 -1795 0
-666 -1796 0
-664 -1805 0
-665 -1809 0
-666 -1810 0
-664 -1813 0
-665 -1816 0
-666 -1817 0
-664 -1824 0
-665 -1829 0
-666 -1830 0
-665 -1842 0
-666 -1843 0
-664 -1853 0
-665 -1858 0
-666 -1859 0
-668 -691 0
-669 -692 0
-670 -693 0
-672 -694 0
-675 -695 0
-676 -696 0
-667 -713 0
-668 -714 0
-672 -715 0
-673 -716 0
-675 -717 0
-676 -718 0
-668 -742 0
-670 -743 0
-672 -744 0
-673 -745 0
-674 -746 0
-675 -747 0
-676 -748 0
-668 -749 0
-669 -751 0
-672 -752 0
-673 -753 0
-674 -754 0
-675 -755 0
-676 -756 0
-670 -787 0
-672 -788 0
-674 -789 0
-675 -790 0
-676 -791 0
-671 -794 0
-672 -795 0
-673 -796 0
-674 -797 0
-675 -798 0
-676 -799 0
-667 -801 0
-668 -802 0
-670 -803 0
-671 -804 0
-672 -805 0
-673 -806 0
-674 -807 0
-675 -808 0
-676 -809 0
-667 -811 0
-669 -812 0
-670 -813 0
-674 -814 0
-675 -815 0
-676 -816 0
-667 -818 0
-669 -820 0
-671 -821 0
-673 -822 0
-674 -823 0
-675 -824 0
-676 -825 0
-667 -847 0
-670 -849 0
-671 -850 0
-674 -851 0
-675 -852 0
-676 -853 0
-667 -855 0
-669 -856 0
-671 -857 0
-672 -858 0
-673 -859 0
-675 -860 0
-676 -861 0
-667 -876 0
-670 -877 0
-671 -878 0
-672 -879 0
-673 -880 0
-675 -881 0
-676 -882 0
-668 -884 0
-669 -885 0
-670 -886 0
-672 -887 0
-675 -888 0
-676 -889 0
-668 -891 0
-669 -893 0
-670 -894 0
-671 -895 0
-672 -896 0
-673 -897 0
-675 -898 0
-676 -899 0
-669 -910 0
-670 -911 0
-675 -912 0
-676 -913 0
-670 -950 0
-672 -951 0
-673 -952 0
-675 -953 0
-676 -954 0
-670 -957 0
-671 -958 0
-672 -959 0
-675 -960 0
-676 -961 0
-667 -962 0
-668 -963 0
-670 -965 0
-671 -966 0
-672 -967 0
-675 -968 0
-676 -969 0
-667 -970 0
-669 -972 0
-670 -973 0
-673 -974 0
-675 -975 0
-676 -976 0
-667 -977 0
-669 -979 0
-670 -980 0
-671 -981 0
-675 -982 0
-676 -983 0
-669 -993 0
-670 -994 0
-672 -995 0
-673 -996 0
-674 -997 0
-675 -998 0
-676 -999 0
-667 -1044 0
-669 -1045 0
-670 -1046 0
-672 -1047 0
-674 -1048 0
-675 -1049 0
-676 -1050 0
-667 -1051 0
-669 -1053 0
-670 -1054 0
-671 -1055 0
-672 -1056 0
-673 -1057 0
-674 -1058 0
-675 -1059 0
-676 -1060 0
-671 -1089 0
-674 -1090 0
-675 -1091 0
-676 -1092 0
-670 -1095 0
-673 -1096 0
-674 -1097 0
-675 -1098 0
-676 -1099 0
-667 -1100 0
-668 -1101 0
-673 -1103 0
-674 -1104 0
-675 -1105 0
-676 -1106 0
-671 -1136 0
-672 -1137 0
-673 -1138 0
-675 -1139 0
-676 -1140 0
-667 -1141 0
-668 -1142 0
-672 -1143 0
-673 -1144 0
-675 -1145 0
-676 -1146 0
-667 -1147 0
-669 -1148 0
-671 -1149 0
-673 -1150 0
-675 -1151 0
-676 -1152 0
-667 -1153 0
-669 -1155 0
-670 -1156 0
-673 -1157 0
-675 -1158 0
-676 -1159 0
-668 -1175 0
-670 -1177 0
-672 -1178 0
-673 -1179 0
-675 -1180 0
-676 -1181 0
-668 -1182 0
-669 -1184 0
-670 -1185 0
-671 -1186 0
-675 -1187 0
-676 -1188 0
-668 -1189 0
-669 -1191 0
-673 -1192 0
-675 -1193 0
-676 -1194 0
-670 -1224 0
-671 -1225 0
-673 -1226 0
-675 -1227 0
-676 -1228 0
-668 -1230 0
-669 -1231 0
-670 -1232 0
-671 -1233 0
-672 -1234 0
-673 -1235 0
-674 -1236 0
-675 -1237 0
-676 -1238 0
-668 -1239 0
-669 -1241 0
-672 -1242 0
-673 -1243 0
-674 -1244 0
-675 -1245 0
-676 -1246 0
-669 -1255 0
-671 -1256 0
-673 -1257 0
-674 -1258 0
-675 -1259 0
-676 -1260 0
-670 -1283 0
-671 -1284 0
-672 -1285 0
-674 -1286 0
-675 -1287 0
-676 -1288 0
-668 -1290 0
-669 -1291 0
-671 -1292 0
-673 -1293 0
-674 -1294 0
-675 -1295 0
-676 -1296 0
-669 -1305 0
-671 -1306 0
-672 -1307 0
-674 -1308 0
-675 -1309 0
-676 -1310 0
-670 -1340 0
-671 -1341 0
-673 -1342 0
-674 -1343 0
-675 -1344 0
-676 -1345 0
-667 -1346 0
-668 -1347 0
-670 -1348 0
-671 -1349 0
-674 -1350 0
-675 -1351 0
-676 -1352 0
-667 -1353 0
-669 -1354 0
-670 -1355 0
-671 -1356 0
-672 -1357 0
-673 -1358 0
-674 -1359 0
-675 -1360 0
-676 -1361 0
-667 -1362 0
-669 -1364 0
-671 -1365 0
-672 -1366 0
-674 -1367 0
-675 -1368 0
-676 -1369 0
-668 -1422 0
-669 -1423 0
-670 -1424 0
-671 -1425 0
-673 -1426 0
-675 -1427 0
-676 -1428 0
-668 -1429 0
-669 -1431 0
-670 -1432 0
-671 -1433 0
-675 -1434 0
-676 -1435 0
-669 -1446 0
-670 -1447 0
-671 -1448 0
-672 -1449 0
-673 -1450 0
-675 -1451 0
-676 -1452 0
-669 -1495 0
-670 -1496 0
-671 -1497 0
-674 -1498 0
-675 -1499 0
-676 -1500 0
-668 -1507 0
-671 -1508 0
-673 -1509 0
-674 -1510 0
-675 -1511 0
-676 -1512 0
-668 -1513 0
-669 -1514 0
-672 -1515 0
-674 -1516 0
-675 -1517 0
-676 -1518 0
-668 -1519 0
-669 -1521 0
-670 -1522 0
-671 -1523 0
-672 -1524 0
-673 -1525 0
-674 -1526 0
-675 -1527 0
-676 -1528 0
-672 -1548 0
-673 -1549 0
-674 -1550 0
-675 -1551 0
-676 -1552 0
-669 -1553 0
-670 -1554 0
-672 -1555 0
-673 -1556 0
-675 -1557 0
-676 -1558 0
-667 -1566 0
-672 -1567 0
-673 -1568 0
-674 -1569 0
-675 -1570 0
-676 -1571 0
-668 -1573 0
-670 -1574 0
-673 -1575 0
-675 -1576 0
-676 -1577 0
-669 -1579 0
-670 -1580 0
-671 -1581 0
-672 -1582 0
-675 -1583 0
-676 -1584 0
-667 -1611 0
-670 -1612 0
-671 -1613 0
-672 -1614 0
-673 -1615 0
-675 -1616 0
-676 -1617 0
-667 -1618 0
-670 -1620 0
-672 -1621 0
-675 -1622 0
-676 -1623 0
-667 -1642 0
-670 -1643 0
-673 -1644 0
-674 -1645 0
-675 -1646 0
-676 -1647 0
-667 -1654 0
-670 -1655 0
-671 -1656 0
-672 -1657 0
-673 -1658 0
-675 -1659 0
-676 -1660 0
-668 -1661 0
-670 -1662 0
-671 -1663 0
-672 -1664 0
-675 -1665 0
-676 -1666 0
-668 -1667 0
-671 -1669 0
-672 -1670 0
-673 -1671 0
-675 -1672 0
-676 -1673 0
-668 -1681 0
-671 -1682 0
-673 -1683 0
-674 -1684 0
-675 -1685 0
-676 -1686 0
-669 -1687 0
-671 -1688 0
-672 -1689 0
-673 -1690 0
-674 -1691 0
-675 -1692 0
-676 -1693 0
-667 -1714 0
-671 -1715 0
-672 -1716 0
-674 -1717 0
-675 -1718 0
-676 -1719 0
-668 -1732 0
-670 -1733 0
-671 -1734 0
-672 -1735 0
-675 -1736 0
-676 -1737 0
-669 -1738 0
-670 -1739 0
-672 -1740 0
-673 -1741 0
-675 -1742 0
-676 -1743 0
-668 -1763 0
-670 -1764 0
-672 -1765 0
-673 -1766 0
-674 -1767 0
-675 -1768 0
-676 -1769 0
-667 -1778 0
-670 -1779 0
-673 -1780 0
-674 -1781 0
-675 -1782 0
-676 -1783 0
-668 -1784 0
-670 -1785 0
-672 -1786 0
-673 -1787 0
-674 -1788 0
-675 -1789 0
-676 -1790 0
-669 -1791 0
-670 -1792 0
-671 -1793 0
-674 -1794 0
-675 -1795 0
-676 -1796 0
-669 -1798 0
-670 -1799 0
-673 -1800 0
-674 -1801 0
-675 -1802 0
-676 -1803 0
-669 -1818 0
-670 -1819 0
-672 -1820 0
-673 -1821 0
-675 -1822 0
-676 -1823 0
-669 -1845 0
-671 -1846 0
-672 -1847 0
-673 -1848 0
-674 -1849 0
-675 -1850 0
-676 -1851 0
-679 -701 0
-680 -702 0
-681 -703 0
-682 -704 0
-683 -705 0
-677 -706 0
-679 -709 0
-681 -710 0
-682 -711 0
-683 -712 0
-680 -738 0
-681 -739 0
-682 -740 0
-683 -741 0
-678 -780 0
-680 -783 0
-682 -784 0
-683 -785 0
-677 -811 0
-678 -812 0
-681 -814 0
-682 -815 0
-683 -816 0
-677 -818 0
-678 -820 0
-680 -822 0
-681 -823 0
-682 -824 0
-683 -825 0
-677 -834 0
-682 -837 0
-683 -838 0
-677 -840 0
-680 -844 0
-682 -845 0
-683 -846 0
-677 -847 0
-681 -851 0
-682 -852 0
-683 -853 0
-677 -855 0
-678 -856 0
-679 -858 0
-680 -859 0
-682 -860 0
-683 -861 0
-677 -869 0
-678 -870 0
-679 -871 0
-680 -872 0
-681 -873 0
-682 -874 0
-683 -875 0
-677 -876 0
-679 -879 0
-680 -880 0
-682 -881 0
-683 -882 0
-678 -885 0
-679 -887 0
-682 -888 0
-683 -889 0
-678 -893 0
-679 -896 0
-680 -897 0
-682 -898 0
-683 -899 0
-678 -916 0
-679 -919 0
-680 -920 0
-681 -921 0
-682 -922 0
-683 -923 0
-678 -926 0
-679 -927 0
-681 -928 0
-682 -929 0
-683 -930 0
-677 -931 0
-678 -934 0
-679 -936 0
-681 -937 0
-682 -938 0
-683 -939 0
-679 -951 0
-680 -952 0
-682 -953 0
-683 -954 0
-679 -959 0
-682 -960 0
-683 -961 0
-677 -962 0
-679 -967 0
-682 -968 0
-683 -969 0
-677 -984 0
-679 -987 0
-680 -988 0
-681 -989 0
-682 -990 0
-683 -991 0
-678 -1001 0
-679 -1004 0
-682 -1005 0
-683 -1006 0
-678 -1009 0
-679 -1010 0
-680 -1011 0
-682 -1012 0
-683 -1013 0
-677 -1014 0
-678 -1016 0
-679 -1018 0
-680 -1019 0
-682 -1020 0
-683 -1021 0
-677 -1036 0
-678 -1038 0
-679 -1040 0
-681 -1041 0
-682 -1042 0
-683 -1043 0
-677 -1061 0
-679 -1064 0
-682 -1065 0
-683 -1066 0
-678 -1082 0
-679 -1083 0
-680 -1084 0
-682 -1085 0
-683 -1086 0
-679 -1111 0
-680 -1112 0
-681 -1113 0
-682 -1114 0
-683 -1115 0
-677 -1116 0
-679 -1119 0
-682 -1120 0
-683 -1121 0
-677 -1122 0
-679 -1125 0
-680 -1126 0
-682 -1127 0
-683 -1128 0
-678 -1130 0
-680 -1131 0
-681 -1132 0
-682 -1133 0
-683 -1134 0
-677 -1147 0
-678 -1148 0
-680 -1150 0
-682 -1151 0
-683 -1152 0
-677 -1153 0
-678 -1155 0
-680 -1157 0
-682 -1158 0
-683 -1159 0
-677 -1169 0
-680 -1171 0
-681 -1172 0
-682 -1173 0
-683 -1174 0
-678 -1184 0
-682 -1187 0
-683 -1188 0
-678 -1191 0
-680 -1192 0
-682 -1193 0
-683 -1194 0
-681 -1205 0
-682 -1206 0
-683 -1207 0
-680 -1212 0
-681 -1213 0
-682 -1214 0
-683 -1215 0
-680 -1226 0
-682 -1227 0
-683 -1228 0
-678 -1231 0
-679 -1234 0
-680 -1235 0
-681 -1236 0
-682 -1237 0
-683 -1238 0
-678 -1241 0
-679 -1242 0
-680 -1243 0
-681 -1244 0
-682 -1245 0
-683 -1246 0
-678 -1262 0
-679 -1264 0
-682 -1265 0
-683 -1266 0
-678 -1268 0
-679 -1271 0
-680 -1272 0
-682 -1273 0
-683 -1274 0
-679 -1285 0
-681 -1286 0
-682 -1287 0
-683 -1288 0
-678 -1291 0
-680 -1293 0
-681 -1294 0
-682 -1295 0
-683 -1296 0
-678 -1312 0
-680 -1313 0
-681 -1314 0
-682 -1315 0
-683 -1316 0
-678 -1319 0
-681 -1322 0
-682 -1323 0
-683 -1324 0
-677 -1325 0
-678 -1327 0
-681 -1329 0
-682 -1330 0
-683 -1331 0
-680 -1342 0
-681 -1343 0
-682 -1344 0
-683 -1345 0
-677 -1346 0
-681 -1350 0
-682 -1351 0
-683 -1352 0
-677 -1370 0
-680 -1373 0
-681 -1374 0
-682 -1375 0
-683 -1376 0
-677 -1385 0
-678 -1386 0
-679 -1388 0
-681 -1389 0
-682 -1390 0
-683 -1391 0
-678 -1393 0
-679 -1396 0
-681 -1397 0
-682 -1398 0
-683 -1399 0
-678 -1416 0
-679 -1417 0
-680 -1418 0
-681 -1419 0
-682 -1420 0
-683 -1421 0
-679 -1440 0
-680 -1441 0
-681 -1442 0
-682 -1443 0
-683 -1444 0
-678 -1475 0
-679 -1476 0
-681 -1477 0
-682 -1478 0
-683 -1479 0
-678 -1514 0
-679 -1515 0
-681 -1516 0
-682 -1517 0
-683 -1518 0
-678 -1521 0
-679 -1524 0
-680 -1525 0
-681 -1526 0
-682 -1527 0
-683 -1528 0
-679 -1538 0
-682 -1539 0
-683 -1540 0
-679 -1548 0
-680 -1549 0
-681 -1550 0
-682 -1551 0
-683 -1552 0
-678 -1559 0
-681 -1562 0
-682 -1563 0
-683 -1564 0
-677 -1566 0
-679 -1567 0
-680 -1568 0
-681 -1569 0
-682 -1570 0
-683 -1571 0
-680 -1575 0
-682 -1576 0
-683 -1577 0
-680 -1588 0
-681 -1589 0
-682 -1590 0
-683 -1591 0
-681 -1595 0
-682 -1596 0
-683 -1597 0
-677 -1598 0
-681 -1602 0
-682 -1603 0
-683 -1604 0
-679 -1626 0
-680 -1627 0
-682 -1628 0
-683 -1629 0
-677 -1636 0
-679 -1638 0
-681 -1639 0
-682 -1640 0
-683 -1641 0
-679 -1650 0
-680 -1651 0
-682 -1652 0
-683 -1653 0
-677 -1654 0
-679 -1657 0
-680 -1658 0
-682 -1659 0
-683 -1660 0
-679 -1664 0
-682 -1665 0
-683 -1666 0
-679 -1670 0
-680 -1671 0
-682 -1672 0
-683 -1673 0
-680 -1683 0
-681 -1684 0
-682 -1685 0
-683 -1686 0
-680 -1698 0
-682 -1699 0
-683 -1700 0
-679 -1710 0
-681 -1711 0
-682 -1712 0
-683 -1713 0
-680 -1728 0
-681 -1729 0
-682 -1730 0
-683 -1731 0
-679 -1765 0
-680 -1766 0
-681 -1767 0
-682 -1768 0
-683 -1769 0
-678 -1791 0
-681 -1794 0
-682 -1795 0
-683 -1796 0
-678 -1798 0
-680 -1800 0
-681 -1801 0
-682 -1802 0
-683 -1803 0
-680 -1815 0
-682 -1816 0
-683 -1817 0
-678 -1818 0
-679 -1820 0
-680 -1821 0
-682 -1822 0
-683 -1823 0
-678 -1845 0
-679 -1847 0
-680 -1848 0
-681 -1849 0
-682 -1850 0
-683 -1851 0
-679 -1855 0
-680 -1856 0
-681 -1857 0
-682 -1858 0
-683 -1859 0
-685 -692 0
-688 -695 0
-689 -696 0
-684 -706 0
-688 -711 0
-689 -712 0
-685 -729 0
-688 -732 0
-689 -733 0
-688 -790 0
-689 -791 0
-684 -811 0
-685 -812 0
-688 -815 0
-689 -816 0
-684 -827 0
-688 -831 0
-689 -832 0
-684 -834 0
-686 -836 0
-688 -837 0
-689 -838 0
-684 -847 0
-686 -850 0
-688 -852 0
-689 -853 0
-684 -863 0
-687 -865 0
-688 -867 0
-689 -868 0
-684 -869 0
-685 -870 0
-687 -872 0
-688 -874 0
-689 -875 0
-684 -876 0
-686 -878 0
-687 -880 0
-688 -881 0
-689 -882 0
-685 -885 0
-688 -888 0
-689 -889 0
-688 -906 0
-689 -907 0
-685 -910 0
-688 -912 0
-689 -913 0
-685 -926 0
-688 -929 0
-689 -930 0
-684 -931 0
-685 -934 0
-688 -938 0
-689 -939 0
-685 -942 0
-686 -944 0
-688 -946 0
-689 -947 0
-686 -958 0
-688 -960 0
-689 -961 0
-684 -962 0
-686 -966 0
-688 -968 0
-689 -969 0
-684 -977 0
-685 -979 0
-686 -981 0
-688 -982 0
-689 -983 0
-685 -993 0
-687 -996 0
-688 -998 0
-689 -999 0
-685 -1009 0
-687 -1011 0
-688 -1012 0
-689 -1013 0
-684 -1014 0
-685 -1016 0
-687 -1019 0
-688 -1020 0
-689 -1021 0
-684 -1029 0
-685 -1031 0
-687 -1033 0
-688 -1034 0
-689 -1035 0
-684 -1051 0
-685 -1053 0
-686 -1055 0
-687 -1057 0
-688 -1059 0
-689 -1060 0
-686 -1089 0
-688 -1091 0
-689 -1092 0
-684 -1116 0
-688 -1120 0
-689 -1121 0
-686 -1136 0
-687 -1138 0
-688 -1139 0
-689 -1140 0
-684 -1147 0
-685 -1148 0
-686 -1149 0
-687 -1150 0
-688 -1151 0
-689 -1152 0
-684 -1160 0
-686 -1163 0
-687 -1165 0
-688 -1167 0
-689 -1168 0
-684 -1169 0
-687 -1171 0
-688 -1173 0
-689 -1174 0
-685 -1184 0
-686 -1186 0
-688 -1187 0
-689 -1188 0
-686 -1197 0
-688 -1200 0
-689 -1201 0
-688 -1206 0
-689 -1207 0
-685 -1217 0
-688 -1221 0
-689 -1222 0
-685 -1231 0
-686 -1233 0
-687 -1235 0
-688 -1237 0
-689 -1238 0
-686 -1249 0
-687 -1251 0
-688 -1252 0
-689 -1253 0
-685 -1255 0
-686 -1256 0
-687 -1257 0
-688 -1259 0
-689 -1260 0
-685 -1268 0
-686 -1270 0
-687 -1272 0
-688 -1273 0
-689 -1274 0
-685 -1276 0
-687 -1278 0
-688 -1280 0
-689 -1281 0
-686 -1299 0
-688 -1302 0
-689 -1303 0
-685 -1305 0
-686 -1306 0
-688 -1309 0
-689 -1310 0
-685 -1319 0
-686 -1321 0
-688 -1323 0
-689 -1324 0
-684 -1325 0
-685 -1327 0
-686 -1328 0
-688 -1330 0
-689 -1331 0
-685 -1333 0
-686 -1335 0
-688 -1337 0
-689 -1338 0
-684 -1346 0
-686 -1349 0
-688 -1351 0
-689 -1352 0
-684 -1362 0
-685 -1364 0
-686 -1365 0
-688 -1368 0
-689 -1369 0
-684 -1377 0
-685 -1378 0
-686 -1380 0
-687 -1381 0
-688 -1383 0
-689 -1384 0
-685 -1393 0
-686 -1395 0
-688 -1398 0
-689 -1399 0
-685 -1409 0
-686 -1410 0
-688 -1412 0
-689 -1413 0
-685 -1431 0
-686 -1433 0
-688 -1434 0
-689 -1435 0
-685 -1468 0
-686 -1469 0
-687 -1471 0
-688 -1472 0
-689 -1473 0
-685 -1514 0
-688 -1517 0
-689 -1518 0
-688 -1533 0
-689 -1534 0
-686 -1537 0
-688 -1539 0
-689 -1540 0
-685 -1542 0
-686 -1543 0
-688 -1545 0
-689 -1546 0
-685 -1553 0
-687 -1556 0
-688 -1557 0
-689 -1558 0
-685 -1579 0
-686 -1581 0
-688 -1583 0
-689 -1584 0
-686 -1594 0
-688 -1596 0
-689 -1597 0
-684 -1598 0
-686 -1601 0
-688 -1603 0
-689 -1604 0
-688 -1609 0
-689 -1610 0
-684 -1618 0
-688 -1622 0
-689 -1623 0
-686 -1625 0
-687 -1627 0
-688 -1628 0
-689 -1629 0
-684 -1630 0
-685 -1631 0
-686 -1632 0
-687 -1633 0
-688 -1634 0
-689 -1635 0
-684 -1642 0
-687 -1644 0
-688 -1646 0
-689 -1647 0
-686 -1663 0
-688 -1665 0
-689 -1666 0
-686 -1676 0
-688 -1679 0
-689 -1680 0
-685 -1687 0
-686 -1688 0
-687 -1690 0
-688 -1692 0
-689 -1693 0
-686 -1697 0
-687 -1698 0
-688 -1699 0
-689 -1700 0
-686 -1702 0
-687 -1704 0
-688 -1706 0
-689 -1707 0
-688 -1712 0
-689 -1713 0
-684 -1714 0
-686 -1715 0
-688 -1718 0
-689 -1719 0
-685 -1721 0
-688 -1724 0
-689 -1725 0
-686 -1734 0
-688 -1736 0
-689 -1737 0
-685 -1791 0
-686 -1793 0
-688 -1795 0
-689 -1796 0
-686 -1806 0
-688 -1809 0
-689 -1810 0
-686 -1825 0
-687 -1827 0
-688 -1829 0
-689 -1830 0
-690 -786 0
-693 -787 0
-694 -788 0
-695 -790 0
-696 -791 0
-690 -792 0
-694 -795 0
-695 -798 0
-696 -799 0
-690 -800 0
-691 -802 0
-693 -803 0
-694 -805 0
-695 -808 0
-696 -809 0
-690 -826 0
-694 -829 0
-695 -831 0
-696 -832 0
-690 -833 0
-693 -835 0
-695 -837 0
-696 -838 0
-690 -839 0
-693 -842 0
-695 -845 0
-696 -846 0
-693 -849 0
-695 -852 0
-696 -853 0
-690 -854 0
-692 -856 0
-694 -858 0
-695 -860 0
-696 -861 0
-692 -870 0
-694 -871 0
-695 -874 0
-696 -875 0
-690 -883 0
-691 -884 0
-692 -885 0
-693 -886 0
-694 -887 0
-695 -888 0
-696 -889 0
-690 -890 0
-691 -891 0
-692 -893 0
-693 -894 0
-694 -896 0
-695 -898 0
-696 -899 0
-690 -914 0
-692 -916 0
-693 -917 0
-694 -919 0
-695 -922 0
-696 -923 0
-690 -924 0
-692 -926 0
-694 -927 0
-695 -929 0
-696 -930 0
-691 -932 0
-692 -934 0
-693 -935 0
-694 -936 0
-695 -938 0
-696 -939 0
-690 -940 0
-692 -942 0
-693 -943 0
-695 -946 0
-696 -947 0
-692 -972 0
-693 -973 0
-695 -975 0
-696 -976 0
-692 -979 0
-693 -980 0
-695 -982 0
-696 -983 0
-690 -992 0
-692 -993 0
-693 -994 0
-694 -995 0
-695 -998 0
-696 -999 0
-692 -1023 0
-693 -1024 0
-694 -1026 0
-695 -1027 0
-696 -1028 0
-692 -1031 0
-694 -1032 0
-695 -1034 0
-696 -1035 0
-690 -1135 0
-694 -1137 0
-695 -1139 0
-696 -1140 0
-691 -1142 0
-694 -1143 0
-695 -1145 0
-696 -1146 0
-693 -1162 0
-694 -1164 0
-695 -1167 0
-696 -1168 0
-693 -1170 0
-695 -1173 0
-696 -1174 0
-691 -1175 0
-693 -1177 0
-694 -1178 0
-695 -1180 0
-696 -1181 0
-691 -1195 0
-694 -1198 0
-695 -1200 0
-696 -1201 0
-691 -1202 0
-693 -1204 0
-695 -1206 0
-696 -1207 0
-691 -1208 0
-693 -1210 0
-695 -1214 0
-696 -1215 0
-693 -1224 0
-695 -1227 0
-696 -1228 0
-691 -1230 0
-692 -1231 0
-693 -1232 0
-694 -1234 0
-695 -1237 0
-696 -1238 0
-691 -1239 0
-692 -1241 0
-694 -1242 0
-695 -1245 0
-696 -1246 0
-692 -1262 0
-694 -1264 0
-695 -1265 0
-696 -1266 0
-692 -1268 0
-693 -1269 0
-694 -1271 0
-695 -1273 0
-696 -1274 0
-692 -1276 0
-693 -1277 0
-695 -1280 0
-696 -1281 0
-690 -1297 0
-691 -1298 0
-694 -1300 0
-695 -1302 0
-696 -1303 0
-690 -1339 0
-693 -1340 0
-695 -1344 0
-696 -1345 0
-691 -1347 0
-693 -1348 0
-695 -1351 0
-696 -1352 0
-695 -1375 0
-696 -1376 0
-692 -1386 0
-693 -1387 0
-694 -1388 0
-695 -1390 0
-696 -1391 0
-691 -1392 0
-692 -1393 0
-693 -1394 0
-694 -1396 0
-695 -1398 0
-696 -1399 0
-691 -1414 0
-692 -1416 0
-694 -1417 0
-695 -1420 0
-696 -1421 0
-691 -1422 0
-692 -1423 0
-693 -1424 0
-695 -1427 0
-696 -1428 0
-691 -1429 0
-692 -1431 0
-693 -1432 0
-695 -1434 0
-696 -1435 0
-692 -1454 0
-693 -1455 0
-695 -1458 0
-696 -1459 0
-692 -1461 0
-695 -1465 0
-696 -1466 0
-691 -1467 0
-692 -1468 0
-694 -1470 0
-695 -1472 0
-696 -1473 0
-692 -1481 0
-694 -1483 0
-695 -1486 0
-696 -1487 0
-692 -1489 0
-693 -1490 0
-694 -1491 0
-695 -1493 0
-696 -1494 0
-692 -1495 0
-693 -1496 0
-695 -1499 0
-696 -1500 0
-690 -1572 0
-691 -1573 0
-693 -1574 0
-695 -1576 0
-696 -1577 0
-690 -1585 0
-693 -1586 0
-695 -1590 0
-696 -1591 0
-690 -1592 0
-695 -1596 0
-696 -1597 0
-691 -1599 0
-693 -1600 0
-695 -1603 0
-696 -1604 0
-690 -1605 0
-693 -1606 0
-694 -1607 0
-695 -1609 0
-696 -1610 0
-693 -1612 0
-694 -1614 0
-695 -1616 0
-696 -1617 0
-693 -1620 0
-694 -1621 0
-695 -1622 0
-696 -1623 0
-692 -1631 0
-695 -1634 0
-696 -1635 0
-691 -1681 0
-695 -1685 0
-696 -1686 0
-693 -1696 0
-695 -1699 0
-696 -1700 0
-693 -1701 0
-694 -1703 0
-695 -1706 0
-696 -1707 0
-691 -1726 0
-695 -1730 0
-696 -1731 0
-691 -1732 0
-693 -1733 0
-694 -1735 0
-695 -1736 0
-696 -1737 0
-693 -1744 0
-694 -1746 0
-695 -1749 0
-696 -1750 0
-694 -1752 0
-695 -1755 0
-696 -1756 0
-692 -1757 0
-693 -1758 0
-695 -1761 0
-696 -1762 0
-690 -1771 0
-693 -1772 0
-695 -1776 0
-696 -1777 0
-693 -1779 0
-695 -1782 0
-696 -1783 0
-692 -1791 0
-693 -1792 0
-695 -1795 0
-696 -1796 0
-692 -1798 0
-693 -1799 0
-695 -1802 0
-696 -1803 0
-693 -1853 0
-694 -1855 0
-695 -1858 0
-696 -1859 0
-697 -779 0
-699 -781 0
-700 -782 0
-702 -783 0
-704 -784 0
-705 -785 0
-697 -792 0
-700 -794 0
-701 -795 0
-702 -796 0
-703 -797 0
-704 -798 0
-705 -799 0
-697 -800 0
-698 -802 0
-699 -803 0
-700 -804 0
-701 -805 0
-702 -806 0
-703 -807 0
-704 -808 0
-705 -809 0
-697 -817 0
-700 -821 0
-702 -822 0
-703 -823 0
-704 -824 0
-705 -825 0
-697 -833 0
-699 -835 0
-700 -836 0
-704 -837 0
-705 -838 0
-699 -849 0
-700 -850 0
-703 -851 0
-704 -852 0
-705 -853 0
-697 -862 0
-701 -864 0
-702 -865 0
-703 -866 0
-704 -867 0
-705 -868 0
-701 -871 0
-702 -872 0
-703 -873 0
-704 -874 0
-705 -875 0
-697 -883 0
-698 -884 0
-699 -886 0
-701 -887 0
-704 -888 0
-705 -889 0
-697 -900 0
-698 -901 0
-699 -903 0
-701 -904 0
-703 -905 0
-704 -906 0
-705 -907 0
-697 -908 0
-699 -911 0
-704 -912 0
-705 -913 0
-697 -924 0
-701 -927 0
-703 -928 0
-704 -929 0
-705 -930 0
-698 -932 0
-699 -935 0
-701 -936 0
-703 -937 0
-704 -938 0
-705 -939 0
-697 -948 0
-699 -950 0
-701 -951 0
-702 -952 0
-704 -953 0
-705 -954 0
-699 -973 0
-702 -974 0
-704 -975 0
-705 -976 0
-699 -986 0
-701 -987 0
-702 -988 0
-703 -989 0
-704 -990 0
-705 -991 0
-697 -1000 0
-699 -1002 0
-700 -1003 0
-701 -1004 0
-704 -1005 0
-705 -1006 0
-699 -1024 0
-700 -1025 0
-701 -1026 0
-704 -1027 0
-705 -1028 0
-700 -1039 0
-701 -1040 0
-703 -1041 0
-704 -1042 0
-705 -1043 0
-697 -1073 0
-698 -1074 0
-700 -1076 0
-702 -1077 0
-704 -1078 0
-705 -1079 0
-697 -1107 0
-699 -1109 0
-700 -1110 0
-701 -1111 0
-702 -1112 0
-703 -1113 0
-704 -1114 0
-705 -1115 0
-700 -1124 0
-701 -1125 0
-702 -1126 0
-704 -1127 0
-705 -1128 0
-697 -1129 0
-702 -1131 0
-703 -1132 0
-704 -1133 0
-705 -1134 0
-698 -1142 0
-701 -1143 0
-702 -1144 0
-704 -1145 0
-705 -1146 0
-699 -1156 0
-702 -1157 0
-704 -1158 0
-705 -1159 0
-699 -1170 0
-702 -1171 0
-703 -1172 0
-704 -1173 0
-705 -1174 0
-698 -1175 0
-699 -1177 0
-701 -1178 0
-702 -1179 0
-704 -1180 0
-705 -1181 0
-698 -1189 0
-702 -1192 0
-704 -1193 0
-705 -1194 0
-698 -1202 0
-699 -1204 0
-703 -1205 0
-704 -1206 0
-705 -1207 0
-699 -1218 0
-701 -1219 0
-703 -1220 0
-704 -1221 0
-705 -1222 0
-698 -1230 0
-699 -1232 0
-700 -1233 0
-701 -1234 0
-702 -1235 0
-703 -1236 0
-704 -1237 0
-705 -1238 0
-698 -1247 0
-700 -1249 0
-701 -1250 0
-702 -1251 0
-704 -1252 0
-705 -1253 0
-700 -1256 0
-702 -1257 0
-703 -1258 0
-704 -1259 0
-705 -1260 0
-699 -1269 0
-700 -1270 0
-701 -1271 0
-702 -1272 0
-704 -1273 0
-705 -1274 0
-699 -1283 0
-700 -1284 0
-701 -1285 0
-703 -1286 0
-704 -1287 0
-705 -1288 0
-697 -1289 0
-698 -1290 0
-700 -1292 0
-702 -1293 0
-703 -1294 0
-704 -1295 0
-705 -1296 0
-697 -1332 0
-699 -1334 0
-700 -1335 0
-701 -1336 0
-704 -1337 0
-705 -1338 0
-698 -1347 0
-699 -1348 0
-700 -1349 0
-703 -1350 0
-704 -1351 0
-705 -1352 0
-700 -1365 0
-701 -1366 0
-703 -1367 0
-704 -1368 0
-705 -1369 0
-699 -1379 0
-700 -1380 0
-702 -1381 0
-703 -1382 0
-704 -1383 0
-705 -1384 0
-698 -1392 0
-699 -1394 0
-700 -1395 0
-701 -1396 0
-703 -1397 0
-704 -1398 0
-705 -1399 0
-698 -1407 0
-700 -1410 0
-703 -1411 0
-704 -1412 0
-705 -1413 0
-698 -1422 0
-699 -1424 0
-700 -1425 0
-702 -1426 0
-704 -1427 0
-705 -1428 0
-698 -1436 0
-699 -1438 0
-700 -1439 0
-701 -1440 0
-702 -1441 0
-703 -1442 0
-704 -1443 0
-705 -1444 0
-699 -1447 0
-700 -1448 0
-701 -1449 0
-702 -1450 0
-704 -1451 0
-705 -1452 0
-700 -1462 0
-702 -1463 0
-703 -1464 0
-704 -1465 0
-705 -1466 0
-698 -1474 0
-701 -1476 0
-703 -1477 0
-704 -1478 0
-705 -1479 0
-699 -1490 0
-701 -1491 0
-703 -1492 0
-704 -1493 0
-705 -1494 0
-699 -1502 0
-701 -1503 0
-702 -1504 0
-704 -1505 0
-705 -1506 0
-697 -1565 0
-701 -1567 0
-702 -1568 0
-703 -1569 0
-704 -1570 0
-705 -1571 0
-697 -1578 0
-699 -1580 0
-700 -1581 0
-701 -1582 0
-704 -1583 0
-705 -1584 0
-697 -1592 0
-700 -1594 0
-703 -1595 0
-704 -1596 0
-705 -1597 0
-698 -1599 0
-699 -1600 0
-700 -1601 0
-703 -1602 0
-704 -1603 0
-705 -1604 0
-699 -1612 0
-700 -1613 0
-701 -1614 0
-702 -1615 0
-704 -1616 0
-705 -1617 0
-700 -1637 0
-701 -1638 0
-703 -1639 0
-704 -1640 0
-705 -1641 0
-699 -1655 0
-700 -1656 0
-701 -1657 0
-702 -1658 0
-704 -1659 0
-705 -1660 0
-698 -1667 0
-700 -1669 0
-701 -1670 0
-702 -1671 0
-704 -1672 0
-705 -1673 0
-699 -1675 0
-700 -1676 0
-701 -1677 0
-703 -1678 0
-704 -1679 0
-705 -1680 0
-700 -1688 0
-701 -1689 0
-702 -1690 0
-703 -1691 0
-704 -1692 0
-705 -1693 0
-699 -1696 0
-700 -1697 0
-702 -1698 0
-704 -1699 0
-705 -1700 0
-700 -1715 0
-701 -1716 0
-703 -1717 0
-704 -1718 0
-705 -1719 0
-698 -1720 0
-701 -1722 0
-703 -1723 0
-704 -1724 0
-705 -1725 0
-699 -1739 0
-701 -1740 0
-702 -1741 0
-704 -1742 0
-705 -1743 0
-701 -1752 0
-702 -1753 0
-703 -1754 0
-704 -1755 0
-705 -1756 0
-699 -1758 0
-700 -1759 0
-703 -1760 0
-704 -1761 0
-705 -1762 0
-699 -1779 0
-702 -1780 0
-703 -1781 0
-704 -1782 0
-705 -1783 0
-699 -1792 0
-700 -1793 0
-703 -1794 0
-704 -1795 0
-705 -1796 0
-699 -1805 0
-700 -1806 0
-701 -1807 0
-703 -1808 0
-704 -1809 0
-705 -1810 0
-701 -1839 0
-702 -1840 0
-703 -1841 0
-704 -1842 0
-705 -1843 0
-700 -1846 0
-701 -1847 0
-702 -1848 0
-703 -1849 0
-704 -1850 0
-705 -1851 0
-708 -781 0
-711 -784 0
-712 -785 0
-708 -787 0
-709 -788 0
-710 -789 0
-711 -790 0
-712 -791 0
-709 -795 0
-710 -797 0
-711 -798 0
-712 -799 0
-706 -834 0
-708 -835 0
-711 -837 0
-712 -838 0
-706 -840 0
-708 -842 0
-711 -845 0
-712 -846 0
-706 -855 0
-709 -858 0
-711 -860 0
-712 -861 0
-706 -863 0
-709 -864 0
-710 -866 0
-711 -867 0
-712 -868 0
-706 -876 0
-708 -877 0
-709 -879 0
-711 -881 0
-712 -882 0
-707 -884 0
-708 -886 0
-709 -887 0
-711 -888 0
-712 -889 0
-707 -891 0
-708 -894 0
-709 -896 0
-711 -898 0
-712 -899 0
-707 -901 0
-708 -903 0
-709 -904 0
-710 -905 0
-711 -906 0
-712 -907 0
-708 -911 0
-711 -912 0
-712 -913 0
-708 -917 0
-709 -919 0
-710 -921 0
-711 -922 0
-712 -923 0
-709 -927 0
-710 -928 0
-711 -929 0
-712 -930 0
-706 -962 0
-707 -963 0
-708 -965 0
-709 -967 0
-711 -968 0
-712 -969 0
-706 -970 0
-708 -973 0
-711 -975 0
-712 -976 0
-706 -977 0
-708 -980 0
-711 -982 0
-712 -983 0
-706 -984 0
-708 -986 0
-709 -987 0
-710 -989 0
-711 -990 0
-712 -991 0
-706 -1014 0
-707 -1015 0
-708 -1017 0
-709 -1018 0
-711 -1020 0
-712 -1021 0
-706 -1022 0
-708 -1024 0
-709 -1026 0
-711 -1027 0
-712 -1028 0
-706 -1029 0
-709 -1032 0
-711 -1034 0
-712 -1035 0
-706 -1036 0
-709 -1040 0
-710 -1041 0
-711 -1042 0
-712 -1043 0
-708 -1109 0
-709 -1111 0
-710 -1113 0
-711 -1114 0
-712 -1115 0
-710 -1132 0
-711 -1133 0
-712 -1134 0
-709 -1137 0
-711 -1139 0
-712 -1140 0
-706 -1169 0
-708 -1170 0
-710 -1172 0
-711 -1173 0
-712 -1174 0
-707 -1202 0
-708 -1204 0
-710 -1205 0
-711 -1206 0
-712 -1207 0
-707 -1208 0
-708 -1210 0
-710 -1213 0
-711 -1214 0
-712 -1215 0
-708 -1218 0
-709 -1219 0
-710 -1220 0
-711 -1221 0
-712 -1222 0
-708 -1224 0
-711 -1227 0
-712 -1228 0
-707 -1230 0
-708 -1232 0
-709 -1234 0
-710 -1236 0
-711 -1237 0
-712 -1238 0
-707 -1239 0
-709 -1242 0
-710 -1244 0
-711 -1245 0
-712 -1246 0
-707 -1247 0
-709 -1250 0
-711 -1252 0
-712 -1253 0
-710 -1258 0
-711 -1259 0
-712 -1260 0
-709 -1264 0
-711 -1265 0
-712 -1266 0
-708 -1269 0
-709 -1271 0
-711 -1273 0
-712 -1274 0
-708 -1334 0
-709 -1336 0
-711 -1337 0
-712 -1338 0
-708 -1340 0
-710 -1343 0
-711 -1344 0
-712 -1345 0
-707 -1422 0
-708 -1424 0
-711 -1427 0
-712 -1428 0
-707 -1429 0
-708 -1432 0
-711 -1434 0
-712 -1435 0
-707 -1436 0
-708 -1438 0
-709 -1440 0
-710 -1442 0
-711 -1443 0
-712 -1444 0
-708 -1447 0
-709 -1449 0
-711 -1451 0
-712 -1452 0
-708 -1455 0
-710 -1457 0
-711 -1458 0
-712 -1459 0
-710 -1464 0
-711 -1465 0
-712 -1466 0
-707 -1467 0
-709 -1470 0
-711 -1472 0
-712 -1473 0
-707 -1474 0
-709 -1476 0
-710 -1477 0
-711 -1478 0
-712 -1479 0
-709 -1483 0
-710 -1485 0
-711 -1486 0
-712 -1487 0
-708 -1490 0
-709 -1491 0
-710 -1492 0
-711 -1493 0
-712 -1494 0
-707 -1573 0
-708 -1574 0
-711 -1576 0
-712 -1577 0
-708 -1580 0
-709 -1582 0
-711 -1583 0
-712 -1584 0
-708 -1586 0
-710 -1589 0
-711 -1590 0
-712 -1591 0
-710 -1595 0
-711 -1596 0
-712 -1597 0
-706 -1611 0
-708 -1612 0
-709 -1614 0
-711 -1616 0
-712 -1617 0
-706 -1618 0
-708 -1620 0
-709 -1621 0
-711 -1622 0
-712 -1623 0
-706 -1630 0
-711 -1634 0
-712 -1635 0
-706 -1636 0
-709 -1638 0
-710 -1639 0
-711 -1640 0
-712 -1641 0
-708 -1675 0
-709 -1677 0
-710 -1678 0
-711 -1679 0
-712 -1680 0
-707 -1681 0
-710 -1684 0
-711 -1685 0
-712 -1686 0
-709 -1689 0
-710 -1691 0
-711 -1692 0
-712 -1693 0
-708 -1696 0
-711 -1699 0
-712 -1700 0
-707 -1732 0
-708 -1733 0
-709 -1735 0
-711 -1736 0
-712 -1737 0
-708 -1739 0
-709 -1740 0
-711 -1742 0
-712 -1743 0
-708 -1744 0
-709 -1746 0
-710 -1748 0
-711 -1749 0
-712 -1750 0
-709 -1752 0
-710 -1754 0
-711 -1755 0
-712 -1756 0
-708 -1758 0
-710 -1760 0
-711 -1761 0
-712 -1762 0
-708 -1772 0
-710 -1775 0
-711 -1776 0
-712 -1777 0
-707 -1784 0
-708 -1785 0
-709 -1786 0
-710 -1788 0
-711 -1789 0
-712 -1790 0
-708 -1792 0
-710 -1794 0
-711 -1795 0
-712 -1796 0
-708 -1799 0
-710 -1801 0
-711 -1802 0
-712 -1803 0
-708 -1805 0
-709 -1807 0
-710 -1808 0
-711 -1809 0
-712 -1810 0
-708 -1853 0
-709 -1855 0
-710 -1857 0
-711 -1858 0
-712 -1859 0
-716 -783 0
-717 -784 0
-718 -785 0
-715 -788 0
-717 -790 0
-718 -791 0
-713 -801 0
-714 -802 0
-715 -805 0
-716 -806 0
-717 -808 0
-718 -809 0
-713 -818 0
-716 -822 0
-717 -824 0
-718 -825 0
-713 -827 0
-715 -829 0
-717 -831 0
-718 -832 0
-713 -840 0
-716 -844 0
-717 -845 0
-718 -846 0
-713 -869 0
-715 -871 0
-716 -872 0
-717 -874 0
-718 -875 0
-713 -876 0
-715 -879 0
-716 -880 0
-717 -881 0
-718 -882 0
-714 -884 0
-715 -887 0
-717 -888 0
-718 -889 0
-717 -912 0
-718 -913 0
-715 -919 0
-716 -920 0
-717 -922 0
-718 -923 0
-713 -931 0
-714 -932 0
-715 -936 0
-717 -938 0
-718 -939 0
-717 -946 0
-718 -947 0
-715 -951 0
-716 -952 0
-717 -953 0
-718 -954 0
-713 -962 0
-714 -963 0
-715 -967 0
-717 -968 0
-718 -969 0
-713 -977 0
-717 -982 0
-718 -983 0
-713 -984 0
-715 -987 0
-716 -988 0
-717 -990 0
-718 -991 0
-713 -1022 0
-715 -1026 0
-717 -1027 0
-718 -1028 0
-713 -1044 0
-715 -1047 0
-717 -1049 0
-718 -1050 0
-714 -1074 0
-716 -1077 0
-717 -1078 0
-718 -1079 0
-716 -1096 0
-717 -1098 0
-718 -1099 0
-716 -1131 0
-717 -1133 0
-718 -1134 0
-715 -1137 0
-716 -1138 0
-717 -1139 0
-718 -1140 0
-713 -1141 0
-714 -1142 0
-715 -1143 0
-716 -1144 0
-717 -1145 0
-718 -1146 0
-713 -1153 0
-716 -1157 0
-717 -1158 0
-718 -1159 0
-713 -1160 0
-715 -1164 0
-716 -1165 0
-717 -1167 0
-718 -1168 0
-714 -1175 0
-715 -1178 0
-716 -1179 0
-717 -1180 0
-718 -1181 0
-714 -1189 0
-716 -1192 0
-717 -1193 0
-718 -1194 0
-714 -1195 0
-715 -1198 0
-717 -1200 0
-718 -1201 0
-714 -1208 0
-716 -1212 0
-717 -1214 0
-718 -1215 0
-714 -1230 0
-715 -1234 0
-716 -1235 0
-717 -1237 0
-718 -1238 0
-716 -1257 0
-717 -1259 0
-718 -1260 0
-715 -1264 0
-717 -1265 0
-718 -1266 0
-716 -1278 0
-717 -1280 0
-718 -1281 0
-715 -1285 0
-717 -1287 0
-718 -1288 0
-714 -1290 0
-716 -1293 0
-717 -1295 0
-718 -1296 0
-714 -1298 0
-715 -1300 0
-717 -1302 0
-718 -1303 0
-717 -1323 0
-718 -1324 0
-713 -1377 0
-716 -1381 0
-717 -1383 0
-718 -1384 0
-713 -1385 0
-715 -1388 0
-717 -1390 0
-718 -1391 0
-714 -1392 0
-715 -1396 0
-717 -1398 0
-718 -1399 0
-714 -1407 0
-717 -1412 0
-718 -1413 0
-714 -1414 0
-715 -1417 0
-716 -1418 0
-717 -1420 0
-718 -1421 0
-714 -1429 0
-717 -1434 0
-718 -1435 0
-714 -1436 0
-715 -1440 0
-716 -1441 0
-717 -1443 0
-718 -1444 0
-716 -1463 0
-717 -1465 0
-718 -1466 0
-715 -1483 0
-716 -1484 0
-717 -1486 0
-718 -1487 0
-717 -1499 0
-718 -1500 0
-715 -1503 0
-716 -1504 0
-717 -1505 0
-718 -1506 0
-713 -1566 0
-715 -1567 0
-716 -1568 0
-717 -1570 0
-718 -1571 0
-715 -1582 0
-717 -1583 0
-718 -1584 0
-716 -1588 0
-717 -1590 0
-718 -1591 0
-713 -1598 0
-714 -1599 0
-717 -1603 0
-718 -1604 0
-715 -1607 0
-717 -1609 0
-718 -1610 0
-713 -1618 0
-715 -1621 0
-717 -1622 0
-718 -1623 0
-713 -1654 0
-715 -1657 0
-716 -1658 0
-717 -1659 0
-718 -1660 0
-714 -1667 0
-715 -1670 0
-716 -1671 0
-717 -1672 0
-718 -1673 0
-715 -1689 0
-716 -1690 0
-717 -1692 0
-718 -1693 0
-715 -1703 0
-716 -1704 0
-717 -1706 0
-718 -1707 0
-715 -1710 0
-717 -1712 0
-718 -1713 0
-714 -1720 0
-715 -1722 0
-717 -1724 0
-718 -1725 0
-714 -1726 0
-716 -1728 0
-717 -1730 0
-718 -1731 0
-714 -1732 0
-715 -1735 0
-717 -1736 0
-718 -1737 0
-715 -1752 0
-716 -1753 0
-717 -1755 0
-718 -1756 0
-713 -1778 0
-716 -1780 0
-717 -1782 0
-718 -1783 0
-717 -1795 0
-718 -1796 0
-715 -1839 0
-716 -1840 0
-717 -1842 0
-718 -1843 0
-715 -1847 0
-716 -1848 0
-717 -1850 0
-718 -1851 0
-715 -1855 0
-716 -1856 0
-717 -1858 0
-718 -1859 0
-721 -780 0
-722 -782 0
-724 -783 0
-725 -784 0
-726 -785 0
-723 -788 0
-725 -790 0
-726 -791 0
-720 -802 0
-722 -804 0
-723 -805 0
-724 -806 0
-725 -808 0
-726 -809 0
-721 -820 0
-722 -821 0
-724 -822 0
-725 -824 0
-726 -825 0
-723 -829 0
-725 -831 0
-726 -832 0
-722 -836 0
-725 -837 0
-726 -838 0
-722 -850 0
-725 -852 0
-726 -853 0
-721 -870 0
-723 -871 0
-724 -872 0
-725 -874 0
-726 -875 0
-720 -891 0
-721 -893 0
-722 -895 0
-723 -896 0
-724 -897 0
-725 -898 0
-726 -899 0
-720 -901 0
-723 -904 0
-725 -906 0
-726 -907 0
-721 -926 0
-723 -927 0
-725 -929 0
-726 -930 0
-721 -942 0
-722 -944 0
-725 -946 0
-726 -947 0
-723 -951 0
-724 -952 0
-725 -953 0
-726 -954 0
-720 -963 0
-722 -966 0
-723 -967 0
-725 -968 0
-726 -969 0
-721 -979 0
-722 -981 0
-725 -982 0
-726 -983 0
-723 -987 0
-724 -988 0
-725 -990 0
-726 -991 0
-721 -993 0
-723 -995 0
-724 -996 0
-725 -998 0
-726 -999 0
-721 -1001 0
-722 -1003 0
-723 -1004 0
-725 -1005 0
-726 -1006 0
-720 -1015 0
-721 -1016 0
-723 -1018 0
-724 -1019 0
-725 -1020 0
-726 -1021 0
-721 -1031 0
-723 -1032 0
-724 -1033 0
-725 -1034 0
-726 -1035 0
-721 -1038 0
-722 -1039 0
-723 -1040 0
-725 -1042 0
-726 -1043 0
-721 -1045 0
-723 -1047 0
-725 -1049 0
-726 -1050 0
-720 -1074 0
-722 -1076 0
-724 -1077 0
-725 -1078 0
-726 -1079 0
-724 -1096 0
-725 -1098 0
-726 -1099 0
-722 -1110 0
-723 -1111 0
-724 -1112 0
-725 -1114 0
-726 -1115 0
-722 -1124 0
-723 -1125 0
-724 -1126 0
-725 -1127 0
-726 -1128 0
-721 -1130 0
-724 -1131 0
-725 -1133 0
-726 -1134 0
-722 -1136 0
-723 -1137 0
-724 -1138 0
-725 -1139 0
-726 -1140 0
-720 -1142 0
-723 -1143 0
-724 -1144 0
-725 -1145 0
-726 -1146 0
-721 -1155 0
-724 -1157 0
-725 -1158 0
-726 -1159 0
-722 -1163 0
-723 -1164 0
-724 -1165 0
-725 -1167 0
-726 -1168 0
-724 -1171 0
-725 -1173 0
-726 -1174 0
-720 -1208 0
-722 -1211 0
-724 -1212 0
-725 -1214 0
-726 -1215 0
-720 -1239 0
-721 -1241 0
-723 -1242 0
-724 -1243 0
-725 -1245 0
-726 -1246 0
-720 -1247 0
-722 -1249 0
-723 -1250 0
-724 -1251 0
-725 -1252 0
-726 -1253 0
-721 -1268 0
-722 -1270 0
-723 -1271 0
-724 -1272 0
-725 -1273 0
-726 -1274 0
-721 -1276 0
-724 -1278 0
-725 -1280 0
-726 -1281 0
-722 -1284 0
-723 -1285 0
-725 -1287 0
-726 -1288 0
-720 -1290 0
-721 -1291 0
-722 -1292 0
-724 -1293 0
-725 -1295 0
-726 -1296 0
-720 -1298 0
-722 -1299 0
-723 -1300 0
-725 -1302 0
-726 -1303 0
-721 -1319 0
-722 -1321 0
-725 -1323 0
-726 -1324 0
-721 -1333 0
-722 -1335 0
-723 -1336 0
-725 -1337 0
-726 -1338 0
-722 -1341 0
-724 -1342 0
-725 -1344 0
-726 -1345 0
-720 -1347 0
-722 -1349 0
-725 -1351 0
-726 -1352 0
-721 -1364 0
-722 -1365 0
-723 -1366 0
-725 -1368 0
-726 -1369 0
-722 -1372 0
-724 -1373 0
-725 -1375 0
-726 -1376 0
-721 -1378 0
-722 -1380 0
-724 -1381 0
-725 -1383 0
-726 -1384 0
-721 -1386 0
-723 -1388 0
-725 -1390 0
-726 -1391 0
-720 -1429 0
-721 -1431 0
-722 -1433 0
-725 -1434 0
-726 -1435 0
-720 -1436 0
-722 -1439 0
-723 -1440 0
-724 -1441 0
-725 -1443 0
-726 -1444 0
-721 -1461 0
-722 -1462 0
-724 -1463 0
-725 -1465 0
-726 -1466 0
-720 -1467 0
-721 -1468 0
-722 -1469 0
-723 -1470 0
-724 -1471 0
-725 -1472 0
-726 -1473 0
-720 -1474 0
-721 -1475 0
-723 -1476 0
-725 -1478 0
-726 -1479 0
-721 -1489 0
-723 -1491 0
-725 -1493 0
-726 -1494 0
-721 -1495 0
-722 -1497 0
-725 -1499 0
-726 -1500 0
-721 -1501 0
-723 -1503 0
-724 -1504 0
-725 -1505 0
-726 -1506 0
-723 -1567 0
-724 -1568 0
-725 -1570 0
-726 -1571 0
-720 -1573 0
-724 -1575 0
-725 -1576 0
-726 -1577 0
-722 -1594 0
-725 -1596 0
-726 -1597 0
-723 -1607 0
-725 -1609 0
-726 -1610 0
-723 -1621 0
-725 -1622 0
-726 -1623 0
-721 -1631 0
-722 -1632 0
-724 -1633 0
-725 -1634 0
-726 -1635 0
-722 -1637 0
-723 -1638 0
-725 -1640 0
-726 -1641 0
-722 -1656 0
-723 -1657 0
-724 -1658 0
-725 -1659 0
-726 -1660 0
-720 -1681 0
-722 -1682 0
-724 -1683 0
-725 -1685 0
-726 -1686 0
-722 -1697 0
-724 -1698 0
-725 -1699 0
-726 -1700 0
-722 -1702 0
-723 -1703 0
-724 -1704 0
-725 -1706 0
-726 -1707 0
-723 -1710 0
-725 -1712 0
-726 -1713 0
-722 -1715 0
-723 -1716 0
-725 -1718 0
-726 -1719 0
-720 -1732 0
-722 -1734 0
-723 -1735 0
-725 -1736 0
-726 -1737 0
-723 -1752 0
-724 -1753 0
-725 -1755 0
-726 -1756 0
-721 -1757 0
-722 -1759 0
-725 -1761 0
-726 -1762 0
-724 -1780 0
-725 -1782 0
-726 -1783 0
-720 -1784 0
-723 -1786 0
-724 -1787 0
-725 -1789 0
-726 -1790 0
-721 -1798 0
-724 -1800 0
-725 -1802 0
-726 -1803 0
-722 -1806 0
-723 -1807 0
-725 -1809 0
-726 -1810 0
-723 -1839 0
-724 -1840 0
-725 -1842 0
-726 -1843 0
-721 -1845 0
-722 -1846 0
-723 -1847 0
-724 -1848 0
-725 -1850 0
-726 -1851 0
-729 -780 0
-730 -781 0
-732 -784 0
-733 -785 0
-728 -793 0
-731 -795 0
-732 -798 0
-733 -799 0
-727 -802 0
-730 -803 0
-731 -805 0
-732 -808 0
-733 -809 0
-729 -812 0
-730 -813 0
-732 -815 0
-733 -816 0
-728 -828 0
-731 -829 0
-732 -831 0
-733 -832 0
-728 -841 0
-730 -842 0
-732 -845 0
-733 -846 0
-728 -848 0
-730 -849 0
-732 -852 0
-733 -853 0
-729 -856 0
-731 -858 0
-732 -860 0
-733 -861 0
-729 -870 0
-731 -871 0
-732 -874 0
-733 -875 0
-727 -884 0
-729 -885 0
-730 -886 0
-731 -887 0
-732 -888 0
-733 -889 0
-727 -901 0
-728 -902 0
-730 -903 0
-731 -904 0
-732 -906 0
-733 -907 0
-728 -915 0
-729 -916 0
-730 -917 0
-731 -919 0
-732 -922 0
-733 -923 0
-728 -941 0
-729 -942 0
-730 -943 0
-732 -946 0
-733 -947 0
-728 -956 0
-730 -957 0
-731 -959 0
-732 -960 0
-733 -961 0
-727 -963 0
-728 -964 0
-730 -965 0
-731 -967 0
-732 -968 0
-733 -969 0
-728 -971 0
-729 -972 0
-730 -973 0
-732 -975 0
-733 -976 0
-728 -985 0
-730 -986 0
-731 -987 0
-732 -990 0
-733 -991 0
-729 -993 0
-730 -994 0
-731 -995 0
-732 -998 0
-733 -999 0
-728 -1008 0
-729 -1009 0
-731 -1010 0
-732 -1012 0
-733 -1013 0
-727 -1015 0
-729 -1016 0
-730 -1017 0
-731 -1018 0
-732 -1020 0
-733 -1021 0
-729 -1023 0
-730 -1024 0
-731 -1026 0
-732 -1027 0
-733 -1028 0
-728 -1037 0
-729 -1038 0
-731 -1040 0
-732 -1042 0
-733 -1043 0
-728 -1052 0
-729 -1053 0
-730 -1054 0
-731 -1056 0
-732 -1059 0
-733 -1060 0
-727 -1068 0
-730 -1069 0
-732 -1071 0
-733 -1072 0
-728 -1088 0
-732 -1091 0
-733 -1092 0
-728 -1108 0
-730 -1109 0
-731 -1111 0
-732 -1114 0
-733 -1115 0
-728 -1117 0
-730 -1118 0
-731 -1119 0
-732 -1120 0
-733 -1121 0
-729 -1130 0
-732 -1133 0
-733 -1134 0
-727 -1142 0
-731 -1143 0
-732 -1145 0
-733 -1146 0
-729 -1148 0
-732 -1151 0
-733 -1152 0
-728 -1161 0
-730 -1162 0
-731 -1164 0
-732 -1167 0
-733 -1168 0
-727 -1202 0
-728 -1203 0
-730 -1204 0
-732 -1206 0
-733 -1207 0
-728 -1223 0
-730 -1224 0
-732 -1227 0
-733 -1228 0
-727 -1230 0
-729 -1231 0
-730 -1232 0
-731 -1234 0
-732 -1237 0
-733 -1238 0
-727 -1247 0
-728 -1248 0
-731 -1250 0
-732 -1252 0
-733 -1253 0
-728 -1261 0
-729 -1262 0
-731 -1264 0
-732 -1265 0
-733 -1266 0
-728 -1275 0
-729 -1276 0
-730 -1277 0
-732 -1280 0
-733 -1281 0
-727 -1298 0
-731 -1300 0
-732 -1302 0
-733 -1303 0
-729 -1312 0
-732 -1315 0
-733 -1316 0
-729 -1333 0
-730 -1334 0
-731 -1336 0
-732 -1337 0
-733 -1338 0
-727 -1347 0
-730 -1348 0
-732 -1351 0
-733 -1352 0
-729 -1354 0
-730 -1355 0
-731 -1357 0
-732 -1360 0
-733 -1361 0
-728 -1371 0
-732 -1375 0
-733 -1376 0
-729 -1386 0
-730 -1387 0
-731 -1388 0
-732 -1390 0
-733 -1391 0
-727 -1422 0
-729 -1423 0
-730 -1424 0
-732 -1427 0
-733 -1428 0
-727 -1436 0
-728 -1437 0
-730 -1438 0
-731 -1440 0
-732 -1443 0
-733 -1444 0
-728 -1453 0
-729 -1454 0
-730 -1455 0
-732 -1458 0
-733 -1459 0
-727 -1474 0
-729 -1475 0
-731 -1476 0
-732 -1478 0
-733 -1479 0
-729 -1481 0
-731 -1483 0
-732 -1486 0
-733 -1487 0
-729 -1495 0
-730 -1496 0
-732 -1499 0
-733 -1500 0
-727 -1535 0
-730 -1536 0
-731 -1538 0
-732 -1539 0
-733 -1540 0
-728 -1547 0
-731 -1548 0
-732 -1551 0
-733 -1552 0
-729 -1559 0
-730 -1560 0
-732 -1563 0
-733 -1564 0
-730 -1586 0
-732 -1590 0
-733 -1591 0
-730 -1606 0
-731 -1607 0
-732 -1609 0
-733 -1610 0
-730 -1612 0
-731 -1614 0
-732 -1616 0
-733 -1617 0
-731 -1626 0
-732 -1628 0
-733 -1629 0
-731 -1638 0
-732 -1640 0
-733 -1641 0
-730 -1643 0
-732 -1646 0
-733 -1647 0
-730 -1701 0
-731 -1703 0
-732 -1706 0
-733 -1707 0
-730 -1744 0
-731 -1746 0
-732 -1749 0
-733 -1750 0
-730 -1772 0
-732 -1776 0
-733 -1777 0
-730 -1779 0
-732 -1782 0
-733 -1783 0
-727 -1784 0
-730 -1785 0
-731 -1786 0
-732 -1789 0
-733 -1790 0
-729 -1791 0
-730 -1792 0
-732 -1795 0
-733 -1796 0
-728 -1804 0
-730 -1805 0
-731 -1807 0
-732 -1809 0
-733 -1810 0
-728 -1812 0
-730 -1813 0
-732 -1816 0
-733 -1817 0
-729 -1818 0
-730 -1819 0
-731 -1820 0
-732 -1822 0
-733 -1823 0
-730 -1831 0
-731 -1833 0
-732 -1836 0
-733 -1837 0
-730 -1853 0
-731 -1855 0
-732 -1858 0
-733 -1859 0
-736 -787 0
-739 -789 0
-740 -790 0
-741 -791 0
-735 -793 0
-737 -794 0
-738 -796 0
-739 -797 0
-740 -798 0
-741 -799 0
-734 -802 0
-736 -803 0
-737 -804 0
-738 -806 0
-739 -807 0
-740 -808 0
-741 -809 0
-736 -813 0
-739 -814 0
-740 -815 0
-741 -816 0
-735 -819 0
-737 -821 0
-738 -822 0
-739 -823 0
-740 -824 0
-741 -825 0
-735 -848 0
-736 -849 0
-737 -850 0
-739 -851 0
-740 -852 0
-741 -853 0
-738 -865 0
-739 -866 0
-740 -867 0
-741 -868 0
-738 -872 0
-739 -873 0
-740 -874 0
-741 -875 0
-734 -884 0
-736 -886 0
-740 -888 0
-741 -889 0
-734 -891 0
-735 -892 0
-736 -894 0
-737 -895 0
-738 -897 0
-740 -898 0
-741 -899 0
-735 -909 0
-736 -911 0
-740 -912 0
-741 -913 0
-735 -949 0
-736 -950 0
-738 -952 0
-740 -953 0
-741 -954 0
-735 -956 0
-736 -957 0
-737 -958 0
-740 -960 0
-741 -961 0
-734 -963 0
-735 -964 0
-736 -965 0
-737 -966 0
-740 -968 0
-741 -969 0
-735 -971 0
-736 -973 0
-738 -974 0
-740 -975 0
-741 -976 0
-735 -978 0
-736 -980 0
-737 -981 0
-740 -982 0
-741 -983 0
-736 -1002 0
-737 -1003 0
-740 -1005 0
-741 -1006 0
-735 -1008 0
-738 -1011 0
-740 -1012 0
-741 -1013 0
-734 -1015 0
-736 -1017 0
-738 -1019 0
-740 -1020 0
-741 -1021 0
-736 -1024 0
-737 -1025 0
-740 -1027 0
-741 -1028 0
-735 -1030 0
-738 -1033 0
-740 -1034 0
-741 -1035 0
-735 -1062 0
-736 -1063 0
-740 -1065 0
-741 -1066 0
-734 -1068 0
-736 -1069 0
-738 -1070 0
-740 -1071 0
-741 -1072 0
-734 -1074 0
-735 -1075 0
-737 -1076 0
-738 -1077 0
-740 -1078 0
-741 -1079 0
-735 -1081 0
-738 -1084 0
-740 -1085 0
-741 -1086 0
-735 -1117 0
-736 -1118 0
-740 -1120 0
-741 -1121 0
-735 -1123 0
-737 -1124 0
-738 -1126 0
-740 -1127 0
-741 -1128 0
-737 -1136 0
-738 -1138 0
-740 -1139 0
-741 -1140 0
-734 -1142 0
-738 -1144 0
-740 -1145 0
-741 -1146 0
-737 -1149 0
-738 -1150 0
-740 -1151 0
-741 -1152 0
-735 -1154 0
-736 -1156 0
-738 -1157 0
-740 -1158 0
-741 -1159 0
-734 -1202 0
-735 -1203 0
-736 -1204 0
-739 -1205 0
-740 -1206 0
-741 -1207 0
-734 -1208 0
-735 -1209 0
-736 -1210 0
-737 -1211 0
-738 -1212 0
-739 -1213 0
-740 -1214 0
-741 -1215 0
-735 -1216 0
-736 -1218 0
-739 -1220 0
-740 -1221 0
-741 -1222 0
-734 -1230 0
-736 -1232 0
-737 -1233 0
-738 -1235 0
-739 -1236 0
-740 -1237 0
-741 -1238 0
-734 -1239 0
-735 -1240 0
-738 -1243 0
-739 -1244 0
-740 -1245 0
-741 -1246 0
-735 -1254 0
-737 -1256 0
-738 -1257 0
-739 -1258 0
-740 -1259 0
-741 -1260 0
-735 -1282 0
-736 -1283 0
-737 -1284 0
-739 -1286 0
-740 -1287 0
-741 -1288 0
-734 -1290 0
-737 -1292 0
-738 -1293 0
-739 -1294 0
-740 -1295 0
-741 -1296 0
-737 -1306 0
-739 -1308 0
-740 -1309 0
-741 -1310 0
-736 -1340 0
-737 -1341 0
-738 -1342 0
-739 -1343 0
-740 -1344 0
-741 -1345 0
-734 -1347 0
-736 -1348 0
-737 -1349 0
-739 -1350 0
-740 -1351 0
-741 -1352 0
-736 -1355 0
-737 -1356 0
-738 -1358 0
-739 -1359 0
-740 -1360 0
-741 -1361 0
-735 -1363 0
-737 -1365 0
-739 -1367 0
-740 -1368 0
-741 -1369 0
-736 -1379 0
-737 -1380 0
-738 -1381 0
-739 -1382 0
-740 -1383 0
-741 -1384 0
-734 -1422 0
-736 -1424 0
-737 -1425 0
-738 -1426 0
-740 -1427 0
-741 -1428 0
-734 -1429 0
-735 -1430 0
-736 -1432 0
-737 -1433 0
-740 -1434 0
-741 -1435 0
-735 -1445 0
-736 -1447 0
-737 -1448 0
-738 -1450 0
-740 -1451 0
-741 -1452 0
-734 -1467 0
-737 -1469 0
-738 -1471 0
-740 -1472 0
-741 -1473 0
-736 -1502 0
-738 -1504 0
-740 -1505 0
-741 -1506 0
-734 -1535 0
-736 -1536 0
-737 -1537 0
-740 -1539 0
-741 -1540 0
-735 -1541 0
-737 -1543 0
-740 -1545 0
-741 -1546 0
-736 -1554 0
-738 -1556 0
-740 -1557 0
-741 -1558 0
-738 -1568 0
-739 -1569 0
-740 -1570 0
-741 -1571 0
-734 -1573 0
-736 -1574 0
-738 -1575 0
-740 -1576 0
-741 -1577 0
-736 -1580 0
-737 -1581 0
-740 -1583 0
-741 -1584 0
-736 -1612 0
-737 -1613 0
-738 -1615 0
-740 -1616 0
-741 -1617 0
-735 -1619 0
-736 -1620 0
-740 -1622 0
-741 -1623 0
-737 -1625 0
-738 -1627 0
-740 -1628 0
-741 -1629 0
-737 -1632 0
-738 -1633 0
-740 -1634 0
-741 -1635 0
-737 -1649 0
-738 -1651 0
-740 -1652 0
-741 -1653 0
-736 -1655 0
-737 -1656 0
-738 -1658 0
-740 -1659 0
-741 -1660 0
-735 -1674 0
-736 -1675 0
-737 -1676 0
-739 -1678 0
-740 -1679 0
-741 -1680 0
-734 -1681 0
-737 -1682 0
-738 -1683 0
-739 -1684 0
-740 -1685 0
-741 -1686 0
-737 -1688 0
-738 -1690 0
-739 -1691 0
-740 -1692 0
-741 -1693 0
-737 -1715 0
-739 -1717 0
-740 -1718 0
-741 -1719 0
-734 -1732 0
-736 -1733 0
-737 -1734 0
-740 -1736 0
-741 -1737 0
-736 -1739 0
-738 -1741 0
-740 -1742 0
-741 -1743 0
-736 -1779 0
-738 -1780 0
-739 -1781 0
-740 -1782 0
-741 -1783 0
-734 -1784 0
-736 -1785 0
-738 -1787 0
-739 -1788 0
-740 -1789 0
-741 -1790 0
-736 -1792 0
-737 -1793 0
-739 -1794 0
-740 -1795 0
-741 -1796 0
-735 -1797 0
-736 -1799 0
-738 -1800 0
-739 -1801 0
-740 -1802 0
-741 -1803 0
-736 -1824 0
-737 -1825 0
-738 -1827 0
-739 -1828 0
-740 -1829 0
-741 -1830 0
-736 -1831 0
-737 -1832 0
-738 -1834 0
-739 -1835 0
-740 -1836 0
-741 -1837 0
-735 -1838 0
-738 -1840 0
-739 -1841 0
-740 -1842 0
-741 -1843 0
-737 -1846 0
-738 -1848 0
-739 -1849 0
-740 -1850 0
-741 -1851 0
-743 -781 0
-745 -783 0
-747 -784 0
-748 -785 0
-743 -787 0
-744 -788 0
-746 -789 0
-747 -790 0
-748 -791 0
-742 -802 0
-743 -803 0
-744 -805 0
-745 -806 0
-746 -807 0
-747 -808 0
-748 -809 0
-743 -813 0
-746 -814 0
-747 -815 0
-748 -816 0
-743 -842 0
-745 -844 0
-747 -845 0
-748 -846 0
-743 -849 0
-746 -851 0
-747 -852 0
-748 -853 0
-743 -877 0
-744 -879 0
-745 -880 0
-747 -881 0
-748 -882 0
-742 -891 0
-743 -894 0
-744 -896 0
-745 -897 0
-747 -898 0
-748 -899 0
-742 -901 0
-743 -903 0
-744 -904 0
-746 -905 0
-747 -906 0
-748 -907 0
-743 -911 0
-747 -912 0
-748 -913 0
-743 -917 0
-744 -919 0
-745 -920 0
-746 -921 0
-747 -922 0
-748 -923 0
-742 -932 0
-743 -935 0
-744 -936 0
-746 -937 0
-747 -938 0
-748 -939 0
-743 -957 0
-744 -959 0
-747 -960 0
-748 -961 0
-743 -980 0
-747 -982 0
-748 -983 0
-743 -986 0
-744 -987 0
-745 -988 0
-746 -989 0
-747 -990 0
-748 -991 0
-743 -994 0
-744 -995 0
-745 -996 0
-746 -997 0
-747 -998 0
-748 -999 0
-743 -1002 0
-744 -1004 0
-747 -1005 0
-748 -1006 0
-742 -1015 0
-743 -1017 0
-744 -1018 0
-745 -1019 0
-747 -1020 0
-748 -1021 0
-743 -1024 0
-744 -1026 0
-747 -1027 0
-748 -1028 0
-743 -1054 0
-744 -1056 0
-745 -1057 0
-746 -1058 0
-747 -1059 0
-748 -1060 0
-743 -1063 0
-744 -1064 0
-747 -1065 0
-748 -1066 0
-742 -1074 0
-745 -1077 0
-747 -1078 0
-748 -1079 0
-744 -1083 0
-745 -1084 0
-747 -1085 0
-748 -1086 0
-746 -1090 0
-747 -1091 0
-748 -1092 0
-742 -1101 0
-745 -1103 0
-746 -1104 0
-747 -1105 0
-748 -1106 0
-744 -1125 0
-745 -1126 0
-747 -1127 0
-748 -1128 0
-745 -1131 0
-746 -1132 0
-747 -1133 0
-748 -1134 0
-744 -1137 0
-745 -1138 0
-747 -1139 0
-748 -1140 0
-742 -1142 0
-744 -1143 0
-745 -1144 0
-747 -1145 0
-748 -1146 0
-745 -1150 0
-747 -1151 0
-748 -1152 0
-742 -1189 0
-745 -1192 0
-747 -1193 0
-748 -1194 0
-742 -1195 0
-744 -1198 0
-746 -1199 0
-747 -1200 0
-748 -1201 0
-742 -1239 0
-744 -1242 0
-745 -1243 0
-746 -1244 0
-747 -1245 0
-748 -1246 0
-742 -1247 0
-744 -1250 0
-745 -1251 0
-747 -1252 0
-748 -1253 0
-745 -1257 0
-746 -1258 0
-747 -1259 0
-748 -1260 0
-744 -1264 0
-747 -1265 0
-748 -1266 0
-742 -1290 0
-745 -1293 0
-746 -1294 0
-747 -1295 0
-748 -1296 0
-742 -1298 0
-744 -1300 0
-746 -1301 0
-747 -1302 0
-748 -1303 0
-744 -1307 0
-746 -1308 0
-747 -1309 0
-748 -1310 0
-745 -1313 0
-746 -1314 0
-747 -1315 0
-748 -1316 0
-742 -1326 0
-746 -1329 0
-747 -1330 0
-748 -1331 0
-744 -1366 0
-746 -1367 0
-747 -1368 0
-748 -1369 0
-745 -1373 0
-746 -1374 0
-747 -1375 0
-748 -1376 0
-742 -1407 0
-746 -1411 0
-747 -1412 0
-748 -1413 0
-742 -1414 0
-744 -1417 0
-745 -1418 0
-746 -1419 0
-747 -1420 0
-748 -1421 0
-745 -1463 0
-746 -1464 0
-747 -1465 0
-748 -1466 0
-742 -1467 0
-744 -1470 0
-745 -1471 0
-747 -1472 0
-748 -1473 0
-742 -1474 0
-744 -1476 0
-746 -1477 0
-747 -1478 0
-748 -1479 0
-744 -1483 0
-745 -1484 0
-746 -1485 0
-747 -1486 0
-748 -1487 0
-742 -1519 0
-743 -1522 0
-744 -1524 0
-745 -1525 0
-746 -1526 0
-747 -1527 0
-748 -1528 0
-742 -1529 0
-743 -1531 0
-746 -1532 0
-747 -1533 0
-748 -1534 0
-743 -1554 0
-744 -1555 0
-745 -1556 0
-747 -1557 0
-748 -1558 0
-743 -1560 0
-746 -1562 0
-747 -1563 0
-748 -1564 0
-742 -1573 0
-743 -1574 0
-745 -1575 0
-747 -1576 0
-748 -1577 0
-743 -1580 0
-744 -1582 0
-747 -1583 0
-748 -1584 0
-743 -1586 0
-745 -1588 0
-746 -1589 0
-747 -1590 0
-748 -1591 0
-742 -1599 0
-743 -1600 0
-746 -1602 0
-747 -1603 0
-748 -1604 0
-743 -1620 0
-744 -1621 0
-747 -1622 0
-748 -1623 0
-743 -1643 0
-745 -1644 0
-746 -1645 0
-747 -1646 0
-748 -1647 0
-744 -1650 0
-745 -1651 0
-747 -1652 0
-748 -1653 0
-742 -1667 0
-744 -1670 0
-745 -1671 0
-747 -1672 0
-748 -1673 0
-742 -1681 0
-745 -1683 0
-746 -1684 0
-747 -1685 0
-748 -1686 0
-744 -1689 0
-745 -1690 0
-746 -1691 0
-747 -1692 0
-748 -1693 0
-744 -1716 0
-746 -1717 0
-747 -1718 0
-748 -1719 0
-742 -1720 0
-744 -1722 0
-746 -1723 0
-747 -1724 0
-748 -1725 0
-742 -1726 0
-745 -1728 0
-746 -1729 0
-747 -1730 0
-748 -1731 0
-744 -1752 0
-745 -1753 0
-746 -1754 0
-747 -1755 0
-748 -1756 0
-742 -1763 0
-743 -1764 0
-744 -1765 0
-745 -1766 0
-746 -1767 0
-747 -1768 0
-748 -1769 0
-742 -1784 0
-743 -1785 0
-744 -1786 0
-745 -1787 0
-746 -1788 0
-747 -1789 0
-748 -1790 0
-743 -1792 0
-746 -1794 0
-747 -1795 0
-748 -1796 0
-743 -1813 0
-745 -1815 0
-747 -1816 0
-748 -1817 0
-743 -1831 0
-744 -1833 0
-745 -1834 0
-746 -1835 0
-747 -1836 0
-748 -1837 0
-743 -1853 0
-744 -1855 0
-745 -1856 0
-746 -1857 0
-747 -1858 0
-748 -1859 0
-751 -780 0
-753 -783 0
-755 -784 0
-756 -785 0
-751 -812 0
-754 -814 0
-755 -815 0
-756 -816 0
-750 -819 0
-751 -820 0
-753 -822 0
-754 -823 0
-755 -824 0
-756 -825 0
-755 -837 0
-756 -838 0
-750 -841 0
-753 -844 0
-755 -845 0
-756 -846 0
-750 -848 0
-754 -851 0
-755 -852 0
-756 -853 0
-749 -884 0
-751 -885 0
-752 -887 0
-755 -888 0
-756 -889 0
-749 -891 0
-750 -892 0
-751 -893 0
-752 -896 0
-753 -897 0
-755 -898 0
-756 -899 0
-750 -915 0
-751 -916 0
-752 -919 0
-753 -920 0
-754 -921 0
-755 -922 0
-756 -923 0
-750 -925 0
-751 -926 0
-752 -927 0
-754 -928 0
-755 -929 0
-756 -930 0
-749 -932 0
-750 -933 0
-751 -934 0
-752 -936 0
-754 -937 0
-755 -938 0
-756 -939 0
-750 -949 0
-752 -951 0
-753 -952 0
-755 -953 0
-756 -954 0
-750 -956 0
-752 -959 0
-755 -960 0
-756 -961 0
-749 -963 0
-750 -964 0
-752 -967 0
-755 -968 0
-756 -969 0
-750 -985 0
-752 -987 0
-753 -988 0
-754 -989 0
-755 -990 0
-756 -991 0
-751 -993 0
-752 -995 0
-753 -996 0
-754 -997 0
-755 -998 0
-756 -999 0
-751 -1023 0
-752 -1026 0
-755 -1027 0
-756 -1028 0
-750 -1030 0
-751 -1031 0
-752 -1032 0
-753 -1033 0
-755 -1034 0
-756 -1035 0
-751 -1045 0
-752 -1047 0
-754 -1048 0
-755 -1049 0
-756 -1050 0
-750 -1052 0
-751 -1053 0
-752 -1056 0
-753 -1057 0
-754 -1058 0
-755 -1059 0
-756 -1060 0
-749 -1068 0
-753 -1070 0
-755 -1071 0
-756 -1072 0
-749 -1074 0
-750 -1075 0
-753 -1077 0
-755 -1078 0
-756 -1079 0
-750 -1088 0
-754 -1090 0
-755 -1091 0
-756 -1092 0
-750 -1094 0
-753 -1096 0
-754 -1097 0
-755 -1098 0
-756 -1099 0
-749 -1101 0
-750 -1102 0
-753 -1103 0
-754 -1104 0
-755 -1105 0
-756 -1106 0
-751 -1130 0
-753 -1131 0
-754 -1132 0
-755 -1133 0
-756 -1134 0
-751 -1148 0
-753 -1150 0
-755 -1151 0
-756 -1152 0
-750 -1154 0
-751 -1155 0
-753 -1157 0
-755 -1158 0
-756 -1159 0
-753 -1171 0
-754 -1172 0
-755 -1173 0
-756 -1174 0
-749 -1175 0
-750 -1176 0
-752 -1178 0
-753 -1179 0
-755 -1180 0
-756 -1181 0
-749 -1195 0
-750 -1196 0
-752 -1198 0
-754 -1199 0
-755 -1200 0
-756 -1201 0
-749 -1230 0
-751 -1231 0
-752 -1234 0
-753 -1235 0
-754 -1236 0
-755 -1237 0
-756 -1238 0
-749 -1239 0
-750 -1240 0
-751 -1241 0
-752 -1242 0
-753 -1243 0
-754 -1244 0
-755 -1245 0
-756 -1246 0
-750 -1261 0
-751 -1262 0
-752 -1264 0
-755 -1265 0
-756 -1266 0
-750 -1267 0
-751 -1268 0
-752 -1271 0
-753 -1272 0
-755 -1273 0
-756 -1274 0
-750 -1282 0
-752 -1285 0
-754 -1286 0
-755 -1287 0
-756 -1288 0
-749 -1290 0
-751 -1291 0
-753 -1293 0
-754 -1294 0
-755 -1295 0
-756 -1296 0
-751 -1312 0
-753 -1313 0
-754 -1314 0
-755 -1315 0
-756 -1316 0
-750 -1318 0
-751 -1319 0
-754 -1322 0
-755 -1323 0
-756 -1324 0
-749 -1326 0
-751 -1327 0
-754 -1329 0
-755 -1330 0
-756 -1331 0
-753 -1342 0
-754 -1343 0
-755 -1344 0
-756 -1345 0
-749 -1347 0
-754 -1350 0
-755 -1351 0
-756 -1352 0
-750 -1371 0
-753 -1373 0
-754 -1374 0
-755 -1375 0
-756 -1376 0
-751 -1378 0
-753 -1381 0
-754 -1382 0
-755 -1383 0
-756 -1384 0
-749 -1392 0
-751 -1393 0
-752 -1396 0
-754 -1397 0
-755 -1398 0
-756 -1399 0
-749 -1414 0
-750 -1415 0
-751 -1416 0
-752 -1417 0
-753 -1418 0
-754 -1419 0
-755 -1420 0
-756 -1421 0
-749 -1436 0
-750 -1437 0
-752 -1440 0
-753 -1441 0
-754 -1442 0
-755 -1443 0
-756 -1444 0
-749 -1467 0
-751 -1468 0
-752 -1470 0
-753 -1471 0
-755 -1472 0
-756 -1473 0
-751 -1481 0
-752 -1483 0
-753 -1484 0
-754 -1485 0
-755 -1486 0
-756 -1487 0
-750 -1488 0
-751 -1489 0
-752 -1491 0
-754 -1492 0
-755 -1493 0
-756 -1494 0
-751 -1501 0
-752 -1503 0
-753 -1504 0
-755 -1505 0
-756 -1506 0
-749 -1507 0
-753 -1509 0
-754 -1510 0
-755 -1511 0
-756 -1512 0
-749 -1529 0
-750 -1530 0
-754 -1532 0
-755 -1533 0
-756 -1534 0
-751 -1559 0
-754 -1562 0
-755 -1563 0
-756 -1564 0
-752 -1567 0
-753 -1568 0
-754 -1569 0
-755 -1570 0
-756 -1571 0
-749 -1573 0
-753 -1575 0
-755 -1576 0
-756 -1577 0
-753 -1588 0
-754 -1589 0
-755 -1590 0
-756 -1591 0
-750 -1593 0
-754 -1595 0
-755 -1596 0
-756 -1597 0
-749 -1599 0
-754 -1602 0
-755 -1603 0
-756 -1604 0
-751 -1631 0
-753 -1633 0
-755 -1634 0
-756 -1635 0
-753 -1644 0
-754 -1645 0
-755 -1646 0
-756 -1647 0
-752 -1657 0
-753 -1658 0
-755 -1659 0
-756 -1660 0
-749 -1681 0
-753 -1683 0
-754 -1684 0
-755 -1685 0
-756 -1686 0
-750 -1695 0
-753 -1698 0
-755 -1699 0
-756 -1700 0
-752 -1710 0
-754 -1711 0
-755 -1712 0
-756 -1713 0
-749 -1726 0
-753 -1728 0
-754 -1729 0
-755 -1730 0
-756 -1731 0
-751 -1757 0
-754 -1760 0
-755 -1761 0
-756 -1762 0
-751 -1791 0
-754 -1794 0
-755 -1795 0
-756 -1796 0
-750 -1797 0
-751 -1798 0
-753 -1800 0
-754 -1801 0
-755 -1802 0
-756 -1803 0
-750 -1812 0
-753 -1815 0
-755 -1816 0
-756 -1817 0
-752 -1833 0
-753 -1834 0
-754 -1835 0
-755 -1836 0
-756 -1837 0
-750 -1838 0
-752 -1839 0
-753 -1840 0
-754 -1841 0
-755 -1842 0
-756 -1843 0
-751 -1845 0
-752 -1847 0
-753 -1848 0
-754 -1849 0
-755 -1850 0
-756 -1851 0
-752 -1855 0
-753 -1856 0
-754 -1857 0
-755 -1858 0
-756 -1859 0
-760 -788 0
-762 -790 0
-763 -791 0
-762 -815 0
-763 -816 0
-758 -828 0
-760 -829 0
-762 -831 0
-763 -832 0
-759 -836 0
-762 -837 0
-763 -838 0
-758 -848 0
-759 -850 0
-762 -852 0
-763 -853 0
-757 -884 0
-760 -887 0
-762 -888 0
-763 -889 0
-757 -901 0
-758 -902 0
-760 -904 0
-762 -906 0
-763 -907 0
-758 -909 0
-762 -912 0
-763 -913 0
-758 -925 0
-760 -927 0
-762 -929 0
-763 -930 0
-757 -932 0
-758 -933 0
-760 -936 0
-762 -938 0
-763 -939 0
-758 -941 0
-759 -944 0
-762 -946 0
-763 -947 0
-758 -956 0
-759 -958 0
-760 -959 0
-762 -960 0
-763 -961 0
-757 -963 0
-758 -964 0
-759 -966 0
-760 -967 0
-762 -968 0
-763 -969 0
-758 -978 0
-759 -981 0
-762 -982 0
-763 -983 0
-759 -1003 0
-760 -1004 0
-762 -1005 0
-763 -1006 0
-759 -1025 0
-760 -1026 0
-762 -1027 0
-763 -1028 0
-758 -1037 0
-759 -1039 0
-760 -1040 0
-762 -1042 0
-763 -1043 0
-760 -1047 0
-762 -1049 0
-763 -1050 0
-758 -1062 0
-760 -1064 0
-762 -1065 0
-763 -1066 0
-757 -1068 0
-761 -1070 0
-762 -1071 0
-763 -1072 0
-758 -1081 0
-760 -1083 0
-761 -1084 0
-762 -1085 0
-763 -1086 0
-758 -1094 0
-761 -1096 0
-762 -1098 0
-763 -1099 0
-757 -1101 0
-758 -1102 0
-761 -1103 0
-762 -1105 0
-763 -1106 0
-758 -1108 0
-759 -1110 0
-760 -1111 0
-761 -1112 0
-762 -1114 0
-763 -1115 0
-758 -1123 0
-759 -1124 0
-760 -1125 0
-761 -1126 0
-762 -1127 0
-763 -1128 0
-759 -1136 0
-760 -1137 0
-761 -1138 0
-762 -1139 0
-763 -1140 0
-759 -1149 0
-761 -1150 0
-762 -1151 0
-763 -1152 0
-758 -1161 0
-759 -1163 0
-760 -1164 0
-761 -1165 0
-762 -1167 0
-763 -1168 0
-761 -1171 0
-762 -1173 0
-763 -1174 0
-757 -1175 0
-758 -1176 0
-760 -1178 0
-761 -1179 0
-762 -1180 0
-763 -1181 0
-757 -1189 0
-758 -1190 0
-761 -1192 0
-762 -1193 0
-763 -1194 0
-757 -1208 0
-758 -1209 0
-759 -1211 0
-761 -1212 0
-762 -1214 0
-763 -1215 0
-757 -1230 0
-759 -1233 0
-760 -1234 0
-761 -1235 0
-762 -1237 0
-763 -1238 0
-757 -1247 0
-758 -1248 0
-759 -1249 0
-760 -1250 0
-761 -1251 0
-762 -1252 0
-763 -1253 0
-758 -1254 0
-759 -1256 0
-761 -1257 0
-762 -1259 0
-763 -1260 0
-758 -1267 0
-759 -1270 0
-760 -1271 0
-761 -1272 0
-762 -1273 0
-763 -1274 0
-758 -1275 0
-761 -1278 0
-762 -1280 0
-763 -1281 0
-757 -1298 0
-759 -1299 0
-760 -1300 0
-762 -1302 0
-763 -1303 0
-759 -1306 0
-760 -1307 0
-762 -1309 0
-763 -1310 0
-758 -1318 0
-759 -1321 0
-762 -1323 0
-763 -1324 0
-757 -1326 0
-759 -1328 0
-762 -1330 0
-763 -1331 0
-759 -1335 0
-760 -1336 0
-762 -1337 0
-763 -1338 0
-757 -1347 0
-759 -1349 0
-762 -1351 0
-763 -1352 0
-758 -1363 0
-759 -1365 0
-760 -1366 0
-762 -1368 0
-763 -1369 0
-760 -1388 0
-762 -1390 0
-763 -1391 0
-757 -1392 0
-759 -1395 0
-760 -1396 0
-762 -1398 0
-763 -1399 0
-757 -1407 0
-758 -1408 0
-759 -1410 0
-762 -1412 0
-763 -1413 0
-757 -1429 0
-758 -1430 0
-759 -1433 0
-762 -1434 0
-763 -1435 0
-757 -1474 0
-760 -1476 0
-762 -1478 0
-763 -1479 0
-758 -1488 0
-760 -1491 0
-762 -1493 0
-763 -1494 0
-759 -1497 0
-762 -1499 0
-763 -1500 0
-757 -1507 0
-759 -1508 0
-761 -1509 0
-762 -1511 0
-763 -1512 0
-757 -1519 0
-758 -1520 0
-759 -1523 0
-760 -1524 0
-761 -1525 0
-762 -1527 0
-763 -1528 0
-760 -1555 0
-761 -1556 0
-762 -1557 0
-763 -1558 0
-759 -1581 0
-760 -1582 0
-762 -1583 0
-763 -1584 0
-758 -1593 0
-759 -1594 0
-762 -1596 0
-763 -1597 0
-757 -1599 0
-759 -1601 0
-762 -1603 0
-763 -1604 0
-760 -1607 0
-762 -1609 0
-763 -1610 0
-758 -1619 0
-760 -1621 0
-762 -1622 0
-763 -1623 0
-759 -1637 0
-760 -1638 0
-762 -1640 0
-763 -1641 0
-759 -1649 0
-760 -1650 0
-761 -1651 0
-762 -1652 0
-763 -1653 0
-757 -1667 0
-758 -1668 0
-759 -1669 0
-760 -1670 0
-761 -1671 0
-762 -1672 0
-763 -1673 0
-759 -1688 0
-760 -1689 0
-761 -1690 0
-762 -1692 0
-763 -1693 0
-758 -1695 0
-759 -1697 0
-761 -1698 0
-762 -1699 0
-763 -1700 0
-759 -1702 0
-760 -1703 0
-761 -1704 0
-762 -1706 0
-763 -1707 0
-760 -1710 0
-762 -1712 0
-763 -1713 0
-759 -1715 0
-760 -1716 0
-762 -1718 0
-763 -1719 0
-757 -1720 0
-760 -1722 0
-762 -1724 0
-763 -1725 0
-757 -1732 0
-759 -1734 0
-760 -1735 0
-762 -1736 0
-763 -1737 0
-759 -1759 0
-762 -1761 0
-763 -1762 0
-757 -1763 0
-760 -1765 0
-761 -1766 0
-762 -1768 0
-763 -1769 0
-759 -1793 0
-762 -1795 0
-763 -1796 0
-758 -1804 0
-759 -1806 0
-760 -1807 0
-762 -1809 0
-763 -1810 0
-759 -1832 0
-760 -1833 0
-761 -1834 0
-762 -1836 0
-763 -1837 0
-765 -780 0
-766 -781 0
-767 -782 0
-770 -784 0
-771 -785 0
-765 -812 0
-766 -813 0
-769 -814 0
-770 -815 0
-771 -816 0
-765 -820 0
-767 -821 0
-769 -823 0
-770 -824 0
-771 -825 0
-765 -856 0
-767 -857 0
-768 -858 0
-770 -860 0
-771 -861 0
-765 -870 0
-768 -871 0
-769 -873 0
-770 -874 0
-771 -875 0
-764 -884 0
-765 -885 0
-766 -886 0
-768 -887 0
-770 -888 0
-771 -889 0
-764 -891 0
-765 -893 0
-766 -894 0
-767 -895 0
-768 -896 0
-770 -898 0
-771 -899 0
-765 -916 0
-766 -917 0
-767 -918 0
-768 -919 0
-769 -921 0
-770 -922 0
-771 -923 0
-765 -926 0
-768 -927 0
-769 -928 0
-770 -929 0
-771 -930 0
-764 -932 0
-765 -934 0
-766 -935 0
-768 -936 0
-769 -937 0
-770 -938 0
-771 -939 0
-765 -942 0
-766 -943 0
-767 -944 0
-769 -945 0
-770 -946 0
-771 -947 0
-765 -972 0
-766 -973 0
-770 -975 0
-771 -976 0
-765 -979 0
-766 -980 0
-767 -981 0
-770 -982 0
-771 -983 0
-765 -1001 0
-766 -1002 0
-767 -1003 0
-768 -1004 0
-770 -1005 0
-771 -1006 0
-765 -1009 0
-768 -1010 0
-770 -1012 0
-771 -1013 0
-764 -1015 0
-765 -1016 0
-766 -1017 0
-768 -1018 0
-770 -1020 0
-771 -1021 0
-765 -1038 0
-767 -1039 0
-768 -1040 0
-769 -1041 0
-770 -1042 0
-771 -1043 0
-765 -1045 0
-766 -1046 0
-768 -1047 0
-769 -1048 0
-770 -1049 0
-771 -1050 0
-765 -1053 0
-766 -1054 0
-767 -1055 0
-768 -1056 0
-769 -1058 0
-770 -1059 0
-771 -1060 0
-764 -1068 0
-766 -1069 0
-770 -1071 0
-771 -1072 0
-764 -1074 0
-767 -1076 0
-770 -1078 0
-771 -1079 0
-767 -1089 0
-769 -1090 0
-770 -1091 0
-771 -1092 0
-766 -1095 0
-769 -1097 0
-770 -1098 0
-771 -1099 0
-764 -1101 0
-769 -1104 0
-770 -1105 0
-771 -1106 0
-766 -1109 0
-767 -1110 0
-768 -1111 0
-769 -1113 0
-770 -1114 0
-771 -1115 0
-766 -1118 0
-768 -1119 0
-770 -1120 0
-771 -1121 0
-767 -1124 0
-768 -1125 0
-770 -1127 0
-771 -1128 0
-767 -1136 0
-768 -1137 0
-770 -1139 0
-771 -1140 0
-764 -1142 0
-768 -1143 0
-770 -1145 0
-771 -1146 0
-766 -1162 0
-767 -1163 0
-768 -1164 0
-769 -1166 0
-770 -1167 0
-771 -1168 0
-766 -1170 0
-769 -1172 0
-770 -1173 0
-771 -1174 0
-764 -1175 0
-766 -1177 0
-768 -1178 0
-770 -1180 0
-771 -1181 0
-764 -1195 0
-767 -1197 0
-768 -1198 0
-769 -1199 0
-770 -1200 0
-771 -1201 0
-764 -1202 0
-766 -1204 0
-769 -1205 0
-770 -1206 0
-771 -1207 0
-764 -1208 0
-766 -1210 0
-767 -1211 0
-769 -1213 0
-770 -1214 0
-771 -1215 0
-766 -1224 0
-767 -1225 0
-770 -1227 0
-771 -1228 0
-764 -1247 0
-767 -1249 0
-768 -1250 0
-770 -1252 0
-771 -1253 0
-766 -1283 0
-767 -1284 0
-768 -1285 0
-769 -1286 0
-770 -1287 0
-771 -1288 0
-764 -1290 0
-765 -1291 0
-767 -1292 0
-769 -1294 0
-770 -1295 0
-771 -1296 0
-765 -1312 0
-769 -1314 0
-770 -1315 0
-771 -1316 0
-765 -1319 0
-766 -1320 0
-767 -1321 0
-769 -1322 0
-770 -1323 0
-771 -1324 0
-764 -1326 0
-765 -1327 0
-767 -1328 0
-769 -1329 0
-770 -1330 0
-771 -1331 0
-765 -1333 0
-766 -1334 0
-767 -1335 0
-768 -1336 0
-770 -1337 0
-771 -1338 0
-765 -1354 0
-766 -1355 0
-767 -1356 0
-768 -1357 0
-769 -1359 0
-770 -1360 0
-771 -1361 0
-765 -1364 0
-767 -1365 0
-768 -1366 0
-769 -1367 0
-770 -1368 0
-771 -1369 0
-765 -1386 0
-766 -1387 0
-768 -1388 0
-769 -1389 0
-770 -1390 0
-771 -1391 0
-764 -1392 0
-765 -1393 0
-766 -1394 0
-767 -1395 0
-768 -1396 0
-769 -1397 0
-770 -1398 0
-771 -1399 0
-764 -1414 0
-765 -1416 0
-768 -1417 0
-769 -1419 0
-770 -1420 0
-771 -1421 0
-764 -1422 0
-765 -1423 0
-766 -1424 0
-767 -1425 0
-770 -1427 0
-771 -1428 0
-764 -1429 0
-765 -1431 0
-766 -1432 0
-767 -1433 0
-770 -1434 0
-771 -1435 0
-765 -1454 0
-766 -1455 0
-769 -1457 0
-770 -1458 0
-771 -1459 0
-765 -1461 0
-767 -1462 0
-769 -1464 0
-770 -1465 0
-771 -1466 0
-764 -1474 0
-765 -1475 0
-768 -1476 0
-769 -1477 0
-770 -1478 0
-771 -1479 0
-765 -1501 0
-766 -1502 0
-768 -1503 0
-770 -1505 0
-771 -1506 0
-764 -1507 0
-767 -1508 0
-769 -1510 0
-770 -1511 0
-771 -1512 0
-764 -1529 0
-766 -1531 0
-769 -1532 0
-770 -1533 0
-771 -1534 0
-764 -1535 0
-766 -1536 0
-767 -1537 0
-768 -1538 0
-770 -1539 0
-771 -1540 0
-768 -1548 0
-769 -1550 0
-770 -1551 0
-771 -1552 0
-768 -1567 0
-769 -1569 0
-770 -1570 0
-771 -1571 0
-764 -1573 0
-766 -1574 0
-770 -1576 0
-771 -1577 0
-766 -1586 0
-767 -1587 0
-769 -1589 0
-770 -1590 0
-771 -1591 0
-767 -1594 0
-769 -1595 0
-770 -1596 0
-771 -1597 0
-764 -1599 0
-766 -1600 0
-767 -1601 0
-769 -1602 0
-770 -1603 0
-771 -1604 0
-766 -1606 0
-768 -1607 0
-769 -1608 0
-770 -1609 0
-771 -1610 0
-766 -1612 0
-767 -1613 0
-768 -1614 0
-770 -1616 0
-771 -1617 0
-766 -1620 0
-768 -1621 0
-770 -1622 0
-771 -1623 0
-767 -1625 0
-768 -1626 0
-770 -1628 0
-771 -1629 0
-767 -1637 0
-768 -1638 0
-769 -1639 0
-770 -1640 0
-771 -1641 0
-766 -1643 0
-769 -1645 0
-770 -1646 0
-771 -1647 0
-766 -1709 0
-768 -1710 0
-769 -1711 0
-770 -1712 0
-771 -1713 0
-767 -1715 0
-768 -1716 0
-769 -1717 0
-770 -1718 0
-771 -1719 0
-764 -1726 0
-767 -1727 0
-769 -1729 0
-770 -1730 0
-771 -1731 0
-764 -1732 0
-766 -1733 0
-767 -1734 0
-768 -1735 0
-770 -1736 0
-771 -1737 0
-766 -1744 0
-767 -1745 0
-768 -1746 0
-769 -1748 0
-770 -1749 0
-771 -1750 0
-768 -1752 0
-769 -1754 0
-770 -1755 0
-771 -1756 0
-765 -1791 0
-766 -1792 0
-767 -1793 0
-769 -1794 0
-770 -1795 0
-771 -1796 0
-765 -1798 0
-766 -1799 0
-769 -1801 0
-770 -1802 0
-771 -1803 0
-765 -1818 0
-766 -1819 0
-768 -1820 0
-770 -1822 0
-771 -1823 0
-766 -1831 0
-767 -1832 0
-768 -1833 0
-769 -1835 0
-770 -1836 0
-771 -1837 0
-768 -1839 0
-769 -1841 0
-770 -1842 0
-771 -1843 0
-765 -1845 0
-767 -1846 0
-768 -1847 0
-769 -1849 0
-770 -1850 0
-771 -1851 0
-774 -787 0
-777 -790 0
-778 -791 0
-773 -812 0
-774 -813 0
-777 -815 0
-778 -816 0
-777 -831 0
-778 -832 0
-776 -865 0
-777 -867 0
-778 -868 0
-773 -870 0
-776 -872 0
-777 -874 0
-778 -875 0
-772 -884 0
-773 -885 0
-774 -886 0
-777 -888 0
-778 -889 0
-772 -901 0
-774 -903 0
-777 -906 0
-778 -907 0
-773 -910 0
-774 -911 0
-777 -912 0
-778 -913 0
-773 -926 0
-777 -929 0
-778 -930 0
-772 -932 0
-773 -934 0
-774 -935 0
-777 -938 0
-778 -939 0
-774 -950 0
-776 -952 0
-777 -953 0
-778 -954 0
-773 -972 0
-774 -973 0
-776 -974 0
-777 -975 0
-778 -976 0
-774 -986 0
-776 -988 0
-777 -990 0
-778 -991 0
-773 -993 0
-774 -994 0
-776 -996 0
-777 -998 0
-778 -999 0
-773 -1009 0
-776 -1011 0
-777 -1012 0
-778 -1013 0
-772 -1015 0
-773 -1016 0
-774 -1017 0
-776 -1019 0
-777 -1020 0
-778 -1021 0
-773 -1031 0
-776 -1033 0
-777 -1034 0
-778 -1035 0
-773 -1045 0
-774 -1046 0
-777 -1049 0
-778 -1050 0
-774 -1063 0
-777 -1065 0
-778 -1066 0
-772 -1068 0
-774 -1069 0
-776 -1070 0
-777 -1071 0
-778 -1072 0
-773 -1082 0
-776 -1084 0
-777 -1085 0
-778 -1086 0
-774 -1095 0
-776 -1096 0
-777 -1098 0
-778 -1099 0
-772 -1101 0
-776 -1103 0
-777 -1105 0
-778 -1106 0
-774 -1118 0
-777 -1120 0
-778 -1121 0
-773 -1130 0
-776 -1131 0
-777 -1133 0
-778 -1134 0
-772 -1142 0
-776 -1144 0
-777 -1145 0
-778 -1146 0
-773 -1155 0
-774 -1156 0
-776 -1157 0
-777 -1158 0
-778 -1159 0
-774 -1170 0
-776 -1171 0
-777 -1173 0
-778 -1174 0
-772 -1175 0
-774 -1177 0
-776 -1179 0
-777 -1180 0
-778 -1181 0
-772 -1189 0
-773 -1191 0
-776 -1192 0
-777 -1193 0
-778 -1194 0
-772 -1202 0
-774 -1204 0
-777 -1206 0
-778 -1207 0
-773 -1217 0
-774 -1218 0
-777 -1221 0
-778 -1222 0
-772 -1239 0
-773 -1241 0
-776 -1243 0
-777 -1245 0
-778 -1246 0
-773 -1276 0
-774 -1277 0
-776 -1278 0
-777 -1280 0
-778 -1281 0
-772 -1298 0
-775 -1299 0
-777 -1302 0
-778 -1303 0
-773 -1305 0
-775 -1306 0
-777 -1309 0
-778 -1310 0
-773 -1319 0
-774 -1320 0
-775 -1321 0
-777 -1323 0
-778 -1324 0
-772 -1326 0
-773 -1327 0
-775 -1328 0
-777 -1330 0
-778 -1331 0
-774 -1340 0
-775 -1341 0
-776 -1342 0
-777 -1344 0
-778 -1345 0
-773 -1354 0
-774 -1355 0
-775 -1356 0
-776 -1358 0
-777 -1360 0
-778 -1361 0
-775 -1372 0
-776 -1373 0
-777 -1375 0
-778 -1376 0
-773 -1378 0
-774 -1379 0
-775 -1380 0
-776 -1381 0
-777 -1383 0
-778 -1384 0
-772 -1392 0
-773 -1393 0
-774 -1394 0
-775 -1395 0
-777 -1398 0
-778 -1399 0
-772 -1407 0
-773 -1409 0
-775 -1410 0
-777 -1412 0
-778 -1413 0
-772 -1422 0
-773 -1423 0
-774 -1424 0
-775 -1425 0
-776 -1426 0
-777 -1427 0
-778 -1428 0
-772 -1436 0
-774 -1438 0
-775 -1439 0
-776 -1441 0
-777 -1443 0
-778 -1444 0
-773 -1446 0
-774 -1447 0
-775 -1448 0
-776 -1450 0
-777 -1451 0
-778 -1452 0
-773 -1461 0
-775 -1462 0
-776 -1463 0
-777 -1465 0
-778 -1466 0
-772 -1467 0
-773 -1468 0
-775 -1469 0
-776 -1471 0
-777 -1472 0
-778 -1473 0
-773 -1495 0
-774 -1496 0
-775 -1497 0
-777 -1499 0
-778 -1500 0
-772 -1507 0
-775 -1508 0
-776 -1509 0
-777 -1511 0
-778 -1512 0
-772 -1519 0
-773 -1521 0
-774 -1522 0
-775 -1523 0
-776 -1525 0
-777 -1527 0
-778 -1528 0
-772 -1535 0
-774 -1536 0
-775 -1537 0
-777 -1539 0
-778 -1540 0
-773 -1542 0
-775 -1543 0
-777 -1545 0
-778 -1546 0
-773 -1579 0
-774 -1580 0
-775 -1581 0
-777 -1583 0
-778 -1584 0
-775 -1594 0
-777 -1596 0
-778 -1597 0
-772 -1599 0
-774 -1600 0
-775 -1601 0
-777 -1603 0
-778 -1604 0
-774 -1612 0
-775 -1613 0
-776 -1615 0
-777 -1616 0
-778 -1617 0
-775 -1625 0
-776 -1627 0
-777 -1628 0
-778 -1629 0
-773 -1631 0
-775 -1632 0
-776 -1633 0
-777 -1634 0
-778 -1635 0
-775 -1649 0
-776 -1651 0
-777 -1652 0
-778 -1653 0
-774 -1655 0
-775 -1656 0
-776 -1658 0
-777 -1659 0
-778 -1660 0
-772 -1667 0
-775 -1669 0
-776 -1671 0
-777 -1672 0
-778 -1673 0
-774 -1675 0
-775 -1676 0
-777 -1679 0
-778 -1680 0
-772 -1681 0
-775 -1682 0
-776 -1683 0
-777 -1685 0
-778 -1686 0
-774 -1701 0
-775 -1702 0
-776 -1704 0
-777 -1706 0
-778 -1707 0
-774 -1709 0
-777 -1712 0
-778 -1713 0
-772 -1720 0
-773 -1721 0
-777 -1724 0
-778 -1725 0
-773 -1738 0
-774 -1739 0
-776 -1741 0
-777 -1742 0
-778 -1743 0
-776 -1753 0
-777 -1755 0
-778 -1756 0
-772 -1763 0
-774 -1764 0
-776 -1766 0
-777 -1768 0
-778 -1769 0
-773 -1791 0
-774 -1792 0
-775 -1793 0
-777 -1795 0
-778 -1796 0
-774 -1805 0
-775 -1806 0
-777 -1809 0
-778 -1810 0
-774 -1824 0
-775 -1825 0
-776 -1827 0
-777 -1829 0
-778 -1830 0
-774 -1831 0
-775 -1832 0
-776 -1834 0
-777 -1836 0
-778 -1837 0
-781 -986 0
-783 -988 0
-784 -990 0
-785 -991 0
-780 -1038 0
-782 -1039 0
-784 -1042 0
-785 -1043 0
-781 -1063 0
-784 -1065 0
-785 -1066 0
-781 -1162 0
-782 -1163 0
-783 -1165 0
-784 -1167 0
-785 -1168 0
-782 -1197 0
-784 -1200 0
-785 -1201 0
-781 -1224 0
-782 -1225 0
-783 -1226 0
-784 -1227 0
-785 -1228 0
-782 -1249 0
-783 -1251 0
-784 -1252 0
-785 -1253 0
-780 -1262 0
-782 -1263 0
-784 -1265 0
-785 -1266 0
-780 -1268 0
-781 -1269 0
-782 -1270 0
-783 -1272 0
-784 -1273 0
-785 -1274 0
-781 -1283 0
-782 -1284 0
-784 -1287 0
-785 -1288 0
-782 -1372 0
-783 -1373 0
-784 -1375 0
-785 -1376 0
-780 -1386 0
-781 -1387 0
-784 -1390 0
-785 -1391 0
-780 -1416 0
-783 -1418 0
-784 -1420 0
-785 -1421 0
-781 -1438 0
-782 -1439 0
-783 -1441 0
-784 -1443 0
-785 -1444 0
-780 -1454 0
-781 -1455 0
-783 -1456 0
-784 -1458 0
-785 -1459 0
-780 -1461 0
-782 -1462 0
-783 -1463 0
-784 -1465 0
-785 -1466 0
-780 -1475 0
-784 -1478 0
-785 -1479 0
-780 -1481 0
-782 -1482 0
-783 -1484 0
-784 -1486 0
-785 -1487 0
-780 -1489 0
-781 -1490 0
-784 -1493 0
-785 -1494 0
-780 -1501 0
-781 -1502 0
-783 -1504 0
-784 -1505 0
-785 -1506 0
-781 -1531 0
-784 -1533 0
-785 -1534 0
-783 -1549 0
-784 -1551 0
-785 -1552 0
-780 -1559 0
-781 -1560 0
-782 -1561 0
-784 -1563 0
-785 -1564 0
-779 -1585 0
-781 -1586 0
-782 -1587 0
-783 -1588 0
-784 -1590 0
-785 -1591 0
-779 -1592 0
-782 -1594 0
-784 -1596 0
-785 -1597 0
-781 -1600 0
-782 -1601 0
-784 -1603 0
-785 -1604 0
-781 -1612 0
-782 -1613 0
-783 -1615 0
-784 -1616 0
-785 -1617 0
-781 -1620 0
-784 -1622 0
-785 -1623 0
-779 -1624 0
-782 -1625 0
-783 -1627 0
-784 -1628 0
-785 -1629 0
-780 -1631 0
-782 -1632 0
-783 -1633 0
-784 -1634 0
-785 -1635 0
-781 -1643 0
-783 -1644 0
-784 -1646 0
-785 -1647 0
-781 -1655 0
-782 -1656 0
-783 -1658 0
-784 -1659 0
-785 -1660 0
-781 -1662 0
-782 -1663 0
-784 -1665 0
-785 -1666 0
-782 -1669 0
-783 -1671 0
-784 -1672 0
-785 -1673 0
-781 -1675 0
-782 -1676 0
-784 -1679 0
-785 -1680 0
-782 -1682 0
-783 -1683 0
-784 -1685 0
-785 -1686 0
-780 -1687 0
-782 -1688 0
-783 -1690 0
-784 -1692 0
-785 -1693 0
-781 -1701 0
-782 -1702 0
-783 -1704 0
-784 -1706 0
-785 -1707 0
-779 -1708 0
-781 -1709 0
-784 -1712 0
-785 -1713 0
-782 -1715 0
-784 -1718 0
-785 -1719 0
-780 -1721 0
-784 -1724 0
-785 -1725 0
-781 -1733 0
-782 -1734 0
-784 -1736 0
-785 -1737 0
-780 -1738 0
-781 -1739 0
-783 -1741 0
-784 -1742 0
-785 -1743 0
-781 -1764 0
-783 -1766 0
-784 -1768 0
-785 -1769 0
-781 -1805 0
-782 -1806 0
-784 -1809 0
-785 -1810 0
-781 -1824 0
-782 -1825 0
-783 -1827 0
-784 -1829 0
-785 -1830 0
-787 -980 0
-790 -982 0
-791 -983 0
-788 -1032 0
-790 -1034 0
-791 -1035 0
-787 -1054 0
-788 -1056 0
-789 -1058 0
-790 -1059 0
-791 -1060 0
-788 -1125 0
-790 -1127 0
-791 -1128 0
-787 -1156 0
-790 -1158 0
-791 -1159 0
-790 -1193 0
-791 -1194 0
-787 -1210 0
-789 -1213 0
-790 -1214 0
-791 -1215 0
-787 -1218 0
-788 -1219 0
-789 -1220 0
-790 -1221 0
-791 -1222 0
-788 -1242 0
-789 -1244 0
-790 -1245 0
-791 -1246 0
-789 -1258 0
-790 -1259 0
-791 -1260 0
-787 -1269 0
-788 -1271 0
-790 -1273 0
-791 -1274 0
-787 -1277 0
-789 -1279 0
-790 -1280 0
-791 -1281 0
-788 -1366 0
-789 -1367 0
-790 -1368 0
-791 -1369 0
-787 -1379 0
-789 -1382 0
-790 -1383 0
-791 -1384 0
-789 -1411 0
-790 -1412 0
-791 -1413 0
-787 -1432 0
-790 -1434 0
-791 -1435 0
-787 -1447 0
-788 -1449 0
-790 -1451 0
-791 -1452 0
-789 -1464 0
-790 -1465 0
-791 -1466 0
-788 -1470 0
-790 -1472 0
-791 -1473 0
-787 -1490 0
-788 -1491 0
-789 -1492 0
-790 -1493 0
-791 -1494 0
-787 -1496 0
-789 -1498 0
-790 -1499 0
-791 -1500 0
-787 -1522 0
-788 -1524 0
-789 -1526 0
-790 -1527 0
-791 -1528 0
-788 -1544 0
-790 -1545 0
-791 -1546 0
-787 -1554 0
-788 -1555 0
-790 -1557 0
-791 -1558 0
-786 -1565 0
-788 -1567 0
-789 -1569 0
-790 -1570 0
-791 -1571 0
-786 -1572 0
-787 -1574 0
-790 -1576 0
-791 -1577 0
-786 -1578 0
-787 -1580 0
-788 -1582 0
-790 -1583 0
-791 -1584 0
-786 -1592 0
-789 -1595 0
-790 -1596 0
-791 -1597 0
-787 -1600 0
-789 -1602 0
-790 -1603 0
-791 -1604 0
-786 -1605 0
-787 -1606 0
-788 -1607 0
-789 -1608 0
-790 -1609 0
-791 -1610 0
-787 -1612 0
-788 -1614 0
-790 -1616 0
-791 -1617 0
-786 -1624 0
-788 -1626 0
-790 -1628 0
-791 -1629 0
-788 -1638 0
-789 -1639 0
-790 -1640 0
-791 -1641 0
-786 -1648 0
-788 -1650 0
-790 -1652 0
-791 -1653 0
-787 -1662 0
-788 -1664 0
-790 -1665 0
-791 -1666 0
-786 -1708 0
-787 -1709 0
-788 -1710 0
-789 -1711 0
-790 -1712 0
-791 -1713 0
-789 -1729 0
-790 -1730 0
-791 -1731 0
-787 -1744 0
-788 -1746 0
-789 -1748 0
-790 -1749 0
-791 -1750 0
-787 -1799 0
-789 -1801 0
-790 -1802 0
-791 -1803 0
-787 -1813 0
-790 -1816 0
-791 -1817 0
-787 -1819 0
-788 -1820 0
-790 -1822 0
-791 -1823 0
-788 -1839 0
-789 -1841 0
-790 -1842 0
-791 -1843 0
-788 -1847 0
-789 -1849 0
-790 -1850 0
-791 -1851 0
-787 -1853 0
-788 -1855 0
-789 -1857 0
-790 -1858 0
-791 -1859 0
-793 -971 0
-796 -974 0
-798 -975 0
-799 -976 0
-794 -1025 0
-795 -1026 0
-798 -1027 0
-799 -1028 0
-795 -1047 0
-797 -1048 0
-798 -1049 0
-799 -1050 0
-793 -1117 0
-795 -1119 0
-798 -1120 0
-799 -1121 0
-794 -1149 0
-796 -1150 0
-798 -1151 0
-799 -1152 0
-796 -1171 0
-797 -1172 0
-798 -1173 0
-799 -1174 0
-793 -1183 0
-794 -1186 0
-798 -1187 0
-799 -1188 0
-793 -1203 0
-797 -1205 0
-798 -1206 0
-799 -1207 0
-793 -1216 0
-795 -1219 0
-797 -1220 0
-798 -1221 0
-799 -1222 0
-793 -1223 0
-794 -1225 0
-796 -1226 0
-798 -1227 0
-799 -1228 0
-794 -1233 0
-795 -1234 0
-796 -1235 0
-797 -1236 0
-798 -1237 0
-799 -1238 0
-793 -1254 0
-794 -1256 0
-796 -1257 0
-797 -1258 0
-798 -1259 0
-799 -1260 0
-793 -1261 0
-794 -1263 0
-795 -1264 0
-798 -1265 0
-799 -1266 0
-793 -1275 0
-796 -1278 0
-797 -1279 0
-798 -1280 0
-799 -1281 0
-793 -1282 0
-794 -1284 0
-795 -1285 0
-797 -1286 0
-798 -1287 0
-799 -1288 0
-794 -1356 0
-795 -1357 0
-796 -1358 0
-797 -1359 0
-798 -1360 0
-799 -1361 0
-796 -1403 0
-797 -1404 0
-798 -1405 0
-799 -1406 0
-794 -1425 0
-796 -1426 0
-798 -1427 0
-799 -1428 0
-793 -1445 0
-794 -1448 0
-795 -1449 0
-796 -1450 0
-798 -1451 0
-799 -1452 0
-793 -1453 0
-796 -1456 0
-797 -1457 0
-798 -1458 0
-799 -1459 0
-794 -1482 0
-795 -1483 0
-796 -1484 0
-797 -1485 0
-798 -1486 0
-799 -1487 0
-794 -1497 0
-797 -1498 0
-798 -1499 0
-799 -1500 0
-795 -1503 0
-796 -1504 0
-798 -1505 0
-799 -1506 0
-795 -1515 0
-797 -1516 0
-798 -1517 0
-799 -1518 0
-794 -1537 0
-795 -1538 0
-798 -1539 0
-799 -1540 0
-793 -1541 0
-794 -1543 0
-795 -1544 0
-798 -1545 0
-799 -1546 0
-793 -1547 0
-795 -1548 0
-796 -1549 0
-797 -1550 0
-798 -1551 0
-799 -1552 0
-795 -1555 0
-796 -1556 0
-798 -1557 0
-799 -1558 0
-794 -1561 0
-797 -1562 0
-798 -1563 0
-799 -1564 0
-792 -1578 0
-794 -1581 0
-795 -1582 0
-798 -1583 0
-799 -1584 0
-792 -1585 0
-794 -1587 0
-796 -1588 0
-797 -1589 0
-798 -1590 0
-799 -1591 0
-794 -1601 0
-797 -1602 0
-798 -1603 0
-799 -1604 0
-792 -1605 0
-795 -1607 0
-797 -1608 0
-798 -1609 0
-799 -1610 0
-793 -1619 0
-795 -1621 0
-798 -1622 0
-799 -1623 0
-794 -1632 0
-796 -1633 0
-798 -1634 0
-799 -1635 0
-794 -1637 0
-795 -1638 0
-797 -1639 0
-798 -1640 0
-799 -1641 0
-796 -1644 0
-797 -1645 0
-798 -1646 0
-799 -1647 0
-792 -1648 0
-794 -1649 0
-795 -1650 0
-796 -1651 0
-798 -1652 0
-799 -1653 0
-794 -1656 0
-795 -1657 0
-796 -1658 0
-798 -1659 0
-799 -1660 0
-793 -1668 0
-794 -1669 0
-795 -1670 0
-796 -1671 0
-798 -1672 0
-799 -1673 0
-794 -1682 0
-796 -1683 0
-797 -1684 0
-798 -1685 0
-799 -1686 0
-793 -1695 0
-794 -1697 0
-796 -1698 0
-798 -1699 0
-799 -1700 0
-794 -1715 0
-795 -1716 0
-797 -1717 0
-798 -1718 0
-799 -1719 0
-795 -1722 0
-797 -1723 0
-798 -1724 0
-799 -1725 0
-794 -1727 0
-796 -1728 0
-797 -1729 0
-798 -1730 0
-799 -1731 0
-794 -1734 0
-795 -1735 0
-798 -1736 0
-799 -1737 0
-793 -1751 0
-795 -1752 0
-796 -1753 0
-797 -1754 0
-798 -1755 0
-799 -1756 0
-794 -1759 0
-797 -1760 0
-798 -1761 0
-799 -1762 0
-795 -1765 0
-796 -1766 0
-797 -1767 0
-798 -1768 0
-799 -1769 0
-794 -1793 0
-797 -1794 0
-798 -1795 0
-799 -1796 0
-794 -1832 0
-795 -1833 0
-796 -1834 0
-797 -1835 0
-798 -1836 0
-799 -1837 0
-803 -1218 0
-805 -1219 0
-807 -1220 0
-808 -1221 0
-809 -1222 0
-803 -1224 0
-804 -1225 0
-806 -1226 0
-808 -1227 0
-809 -1228 0
-804 -1256 0
-806 -1257 0
-807 -1258 0
-808 -1259 0
-809 -1260 0
-804 -1263 0
-805 -1264 0
-808 -1265 0
-809 -1266 0
-803 -1269 0
-804 -1270 0
-805 -1271 0
-806 -1272 0
-808 -1273 0
-809 -1274 0
-803 -1277 0
-806 -1278 0
-807 -1279 0
-808 -1280 0
-809 -1281 0
-803 -1283 0
-804 -1284 0
-805 -1285 0
-807 -1286 0
-808 -1287 0
-809 -1288 0
-803 -1447 0
-804 -1448 0
-805 -1449 0
-806 -1450 0
-808 -1451 0
-809 -1452 0
-803 -1455 0
-806 -1456 0
-807 -1457 0
-808 -1458 0
-809 -1459 0
-804 -1462 0
-806 -1463 0
-807 -1464 0
-808 -1465 0
-809 -1466 0
-804 -1482 0
-805 -1483 0
-806 -1484 0
-807 -1485 0
-808 -1486 0
-809 -1487 0
-803 -1490 0
-805 -1491 0
-807 -1492 0
-808 -1493 0
-809 -1494 0
-803 -1496 0
-804 -1497 0
-807 -1498 0
-808 -1499 0
-809 -1500 0
-803 -1502 0
-805 -1503 0
-806 -1504 0
-808 -1505 0
-809 -1506 0
-804 -1543 0
-805 -1544 0
-808 -1545 0
-809 -1546 0
-805 -1548 0
-806 -1549 0
-807 -1550 0
-808 -1551 0
-809 -1552 0
-803 -1554 0
-805 -1555 0
-806 -1556 0
-808 -1557 0
-809 -1558 0
-803 -1560 0
-804 -1561 0
-807 -1562 0
-808 -1563 0
-809 -1564 0
-800 -1578 0
-803 -1580 0
-804 -1581 0
-805 -1582 0
-808 -1583 0
-809 -1584 0
-800 -1585 0
-803 -1586 0
-804 -1587 0
-806 -1588 0
-807 -1589 0
-808 -1590 0
-809 -1591 0
-800 -1592 0
-804 -1594 0
-807 -1595 0
-808 -1596 0
-809 -1597 0
-800 -1605 0
-803 -1606 0
-805 -1607 0
-807 -1608 0
-808 -1609 0
-809 -1610 0
-801 -1611 0
-803 -1612 0
-804 -1613 0
-805 -1614 0
-806 -1615 0
-808 -1616 0
-809 -1617 0
-801 -1618 0
-803 -1620 0
-805 -1621 0
-808 -1622 0
-809 -1623 0
-800 -1624 0
-804 -1625 0
-805 -1626 0
-806 -1627 0
-808 -1628 0
-809 -1629 0
-801 -1630 0
-804 -1632 0
-806 -1633 0
-808 -1634 0
-809 -1635 0
-801 -1636 0
-804 -1637 0
-805 -1638 0
-807 -1639 0
-808 -1640 0
-809 -1641 0
-801 -1642 0
-803 -1643 0
-806 -1644 0
-807 -1645 0
-808 -1646 0
-809 -1647 0
-800 -1648 0
-804 -1649 0
-805 -1650 0
-806 -1651 0
-808 -1652 0
-809 -1653 0
-801 -1654 0
-803 -1655 0
-804 -1656 0
-805 -1657 0
-806 -1658 0
-808 -1659 0
-809 -1660 0
-802 -1661 0
-803 -1662 0
-804 -1663 0
-805 -1664 0
-808 -1665 0
-809 -1666 0
-802 -1667 0
-804 -1669 0
-805 -1670 0
-806 -1671 0
-808 -1672 0
-809 -1673 0
-802 -1681 0
-804 -1682 0
-806 -1683 0
-807 -1684 0
-808 -1685 0
-809 -1686 0
-800 -1708 0
-803 -1709 0
-805 -1710 0
-807 -1711 0
-808 -1712 0
-809 -1713 0
-801 -1714 0
-804 -1715 0
-805 -1716 0
-807 -1717 0
-808 -1718 0
-809 -1719 0
-802 -1720 0
-805 -1722 0
-807 -1723 0
-808 -1724 0
-809 -1725 0
-802 -1726 0
-804 -1727 0
-806 -1728 0
-807 -1729 0
-808 -1730 0
-809 -1731 0
-802 -1732 0
-803 -1733 0
-804 -1734 0
-805 -1735 0
-808 -1736 0
-809 -1737 0
-802 -1763 0
-803 -1764 0
-805 -1765 0
-806 -1766 0
-807 -1767 0
-808 -1768 0
-809 -1769 0
-810 -955 0
-813 -957 0
-815 -960 0
-816 -961 0
-810 -1007 0
-812 -1009 0
-815 -1012 0
-816 -1013 0
-811 -1051 0
-812 -1053 0
-813 -1054 0
-814 -1058 0
-815 -1059 0
-816 -1060 0
-811 -1061 0
-813 -1063 0
-815 -1065 0
-816 -1066 0
-813 -1210 0
-814 -1213 0
-815 -1214 0
-816 -1215 0
-812 -1241 0
-814 -1244 0
-815 -1245 0
-816 -1246 0
-815 -1252 0
-816 -1253 0
-812 -1268 0
-813 -1269 0
-815 -1273 0
-816 -1274 0
-812 -1276 0
-813 -1277 0
-814 -1279 0
-815 -1280 0
-816 -1281 0
-813 -1283 0
-814 -1286 0
-815 -1287 0
-816 -1288 0
-812 -1431 0
-813 -1432 0
-815 -1434 0
-816 -1435 0
-813 -1438 0
-814 -1442 0
-815 -1443 0
-816 -1444 0
-812 -1461 0
-814 -1464 0
-815 -1465 0
-816 -1466 0
-812 -1468 0
-815 -1472 0
-816 -1473 0
-812 -1475 0
-814 -1477 0
-815 -1478 0
-816 -1479 0
-812 -1489 0
-813 -1490 0
-814 -1492 0
-815 -1493 0
-816 -1494 0
-812 -1495 0
-813 -1496 0
-814 -1498 0
-815 -1499 0
-816 -1500 0
-812 -1501 0
-813 -1502 0
-815 -1505 0
-816 -1506 0
-810 -1572 0
-813 -1574 0
-815 -1576 0
-816 -1577 0
-810 -1592 0
-814 -1595 0
-815 -1596 0
-816 -1597 0
-810 -1605 0
-813 -1606 0
-814 -1608 0
-815 -1609 0
-816 -1610 0
-811 -1618 0
-813 -1620 0
-815 -1622 0
-816 -1623 0
-811 -1630 0
-812 -1631 0
-815 -1634 0
-816 -1635 0
-811 -1636 0
-814 -1639 0
-815 -1640 0
-816 -1641 0
-811 -1654 0
-813 -1655 0
-815 -1659 0
-816 -1660 0
-815 -1672 0
-816 -1673 0
-813 -1675 0
-814 -1678 0
-815 -1679 0
-816 -1680 0
-812 -1687 0
-814 -1691 0
-815 -1692 0
-816 -1693 0
-810 -1708 0
-813 -1709 0
-814 -1711 0
-815 -1712 0
-816 -1713 0
-811 -1714 0
-814 -1717 0
-815 -1718 0
-816 -1719 0
-812 -1721 0
-814 -1723 0
-815 -1724 0
-816 -1725 0
-814 -1729 0
-815 -1730 0
-816 -1731 0
-812 -1738 0
-813 -1739 0
-815 -1742 0
-816 -1743 0
-813 -1744 0
-814 -1748 0
-815 -1749 0
-816 -1750 0
-813 -1764 0
-814 -1767 0
-815 -1768 0
-816 -1769 0
-813 -1813 0
-815 -1816 0
-816 -1817 0
-812 -1818 0
-813 -1819 0
-815 -1822 0
-816 -1823 0
-813 -1824 0
-814 -1828 0
-815 -1829 0
-816 -1830 0
-813 -1853 0
-814 -1857 0
-815 -1858 0
-816 -1859 0
-817 -948 0
-819 -949 0
-822 -952 0
-824 -953 0
-825 -954 0
-817 -1000 0
-820 -1001 0
-821 -1003 0
-824 -1005 0
-825 -1006 0
-818 -1044 0
-820 -1045 0
-823 -1048 0
-824 -1049 0
-825 -1050 0
-818 -1061 0
-819 -1062 0
-824 -1065 0
-825 -1066 0
-817 -1135 0
-821 -1136 0
-822 -1138 0
-824 -1139 0
-825 -1140 0
-818 -1169 0
-822 -1171 0
-823 -1172 0
-824 -1173 0
-825 -1174 0
-819 -1203 0
-823 -1205 0
-824 -1206 0
-825 -1207 0
-819 -1223 0
-821 -1225 0
-822 -1226 0
-824 -1227 0
-825 -1228 0
-820 -1231 0
-821 -1233 0
-822 -1235 0
-823 -1236 0
-824 -1237 0
-825 -1238 0
-819 -1248 0
-821 -1249 0
-822 -1251 0
-824 -1252 0
-825 -1253 0
-819 -1261 0
-820 -1262 0
-821 -1263 0
-824 -1265 0
-825 -1266 0
-819 -1275 0
-820 -1276 0
-822 -1278 0
-823 -1279 0
-824 -1280 0
-825 -1281 0
-817 -1339 0
-821 -1341 0
-822 -1342 0
-823 -1343 0
-824 -1344 0
-825 -1345 0
-820 -1423 0
-821 -1425 0
-822 -1426 0
-824 -1427 0
-825 -1428 0
-819 -1437 0
-821 -1439 0
-822 -1441 0
-823 -1442 0
-824 -1443 0
-825 -1444 0
-819 -1453 0
-820 -1454 0
-822 -1456 0
-823 -1457 0
-824 -1458 0
-825 -1459 0
-820 -1475 0
-823 -1477 0
-824 -1478 0
-825 -1479 0
-820 -1481 0
-821 -1482 0
-822 -1484 0
-823 -1485 0
-824 -1486 0
-825 -1487 0
-820 -1495 0
-821 -1497 0
-823 -1498 0
-824 -1499 0
-825 -1500 0
-821 -1537 0
-824 -1539 0
-825 -1540 0
-819 -1547 0
-822 -1549 0
-823 -1550 0
-824 -1551 0
-825 -1552 0
-820 -1559 0
-821 -1561 0
-823 -1562 0
-824 -1563 0
-825 -1564 0
-817 -1585 0
-821 -1587 0
-822 -1588 0
-823 -1589 0
-824 -1590 0
-825 -1591 0
-817 -1605 0
-823 -1608 0
-824 -1609 0
-825 -1610 0
-818 -1611 0
-821 -1613 0
-822 -1615 0
-824 -1616 0
-825 -1617 0
-817 -1624 0
-821 -1625 0
-822 -1627 0
-824 -1628 0
-825 -1629 0
-818 -1636 0
-821 -1637 0
-823 -1639 0
-824 -1640 0
-825 -1641 0
-818 -1642 0
-822 -1644 0
-823 -1645 0
-824 -1646 0
-825 -1647 0
-821 -1663 0
-824 -1665 0
-825 -1666 0
-819 -1674 0
-821 -1676 0
-823 -1678 0
-824 -1679 0
-825 -1680 0
-821 -1682 0
-822 -1683 0
-823 -1684 0
-824 -1685 0
-825 -1686 0
-820 -1687 0
-821 -1688 0
-822 -1690 0
-823 -1691 0
-824 -1692 0
-825 -1693 0
-819 -1695 0
-821 -1697 0
-822 -1698 0
-824 -1699 0
-825 -1700 0
-821 -1727 0
-822 -1728 0
-823 -1729 0
-824 -1730 0
-825 -1731 0
-821 -1734 0
-824 -1736 0
-825 -1737 0
-820 -1738 0
-822 -1741 0
-824 -1742 0
-825 -1743 0
-819 -1751 0
-822 -1753 0
-823 -1754 0
-824 -1755 0
-825 -1756 0
-820 -1757 0
-821 -1759 0
-823 -1760 0
-824 -1761 0
-825 -1762 0
-821 -1825 0
-822 -1827 0
-823 -1828 0
-824 -1829 0
-825 -1830 0
-826 -940 0
-828 -941 0
-830 -945 0
-831 -946 0
-832 -947 0
-826 -992 0
-829 -995 0
-830 -997 0
-831 -998 0
-832 -999 0
-827 -1044 0
-829 -1047 0
-830 -1048 0
-831 -1049 0
-832 -1050 0
-827 -1051 0
-828 -1052 0
-829 -1056 0
-830 -1058 0
-831 -1059 0
-832 -1060 0
-826 -1107 0
-828 -1108 0
-829 -1111 0
-830 -1113 0
-831 -1114 0
-832 -1115 0
-826 -1129 0
-830 -1132 0
-831 -1133 0
-832 -1134 0
-827 -1169 0
-830 -1172 0
-831 -1173 0
-832 -1174 0
-828 -1203 0
-830 -1205 0
-831 -1206 0
-832 -1207 0
-828 -1209 0
-830 -1213 0
-831 -1214 0
-832 -1215 0
-828 -1216 0
-829 -1219 0
-830 -1220 0
-831 -1221 0
-832 -1222 0
-829 -1234 0
-830 -1236 0
-831 -1237 0
-832 -1238 0
-828 -1240 0
-829 -1242 0
-830 -1244 0
-831 -1245 0
-832 -1246 0
-828 -1254 0
-830 -1258 0
-831 -1259 0
-832 -1260 0
-828 -1282 0
-829 -1285 0
-830 -1286 0
-831 -1287 0
-832 -1288 0
-826 -1332 0
-829 -1336 0
-831 -1337 0
-832 -1338 0
-831 -1427 0
-832 -1428 0
-828 -1430 0
-831 -1434 0
-832 -1435 0
-828 -1445 0
-829 -1449 0
-831 -1451 0
-832 -1452 0
-829 -1470 0
-831 -1472 0
-832 -1473 0
-829 -1503 0
-831 -1505 0
-832 -1506 0
-829 -1538 0
-831 -1539 0
-832 -1540 0
-828 -1541 0
-829 -1544 0
-831 -1545 0
-832 -1546 0
-829 -1555 0
-831 -1557 0
-832 -1558 0
-826 -1572 0
-831 -1576 0
-832 -1577 0
-826 -1578 0
-829 -1582 0
-831 -1583 0
-832 -1584 0
-827 -1611 0
-829 -1614 0
-831 -1616 0
-832 -1617 0
-827 -1618 0
-828 -1619 0
-829 -1621 0
-831 -1622 0
-832 -1623 0
-826 -1624 0
-829 -1626 0
-831 -1628 0
-832 -1629 0
-827 -1630 0
-831 -1634 0
-832 -1635 0
-826 -1648 0
-829 -1650 0
-831 -1652 0
-832 -1653 0
-827 -1654 0
-829 -1657 0
-831 -1659 0
-832 -1660 0
-829 -1664 0
-831 -1665 0
-832 -1666 0
-828 -1668 0
-829 -1670 0
-831 -1672 0
-832 -1673 0
-828 -1695 0
-831 -1699 0
-832 -1700 0
-827 -1714 0
-829 -1716 0
-830 -1717 0
-831 -1718 0
-832 -1719 0
-829 -1722 0
-830 -1723 0
-831 -1724 0
-832 -1725 0
-829 -1746 0
-830 -1748 0
-831 -1749 0
-832 -1750 0
-828 -1751 0
-829 -1752 0
-830 -1754 0
-831 -1755 0
-832 -1756 0
-830 -1760 0
-831 -1761 0
-832 -1762 0
-829 -1765 0
-830 -1767 0
-831 -1768 0
-832 -1769 0
-828 -1812 0
-831 -1816 0
-832 -1817 0
-829 -1820 0
-831 -1822 0
-832 -1823 0
-829 -1855 0
-830 -1857 0
-831 -1858 0
-832 -1859 0
-833 -924 0
-837 -929 0
-838 -930 0
-833 -1007 0
-837 -1012 0
-838 -1013 0
-834 -1029 0
-837 -1034 0
-838 -1035 0
-834 -1036 0
-836 -1039 0
-837 -1042 0
-838 -1043 0
-833 -1093 0
-835 -1095 0
-837 -1098 0
-838 -1099 0
-834 -1153 0
-835 -1156 0
-837 -1158 0
-838 -1159 0
-834 -1160 0
-835 -1162 0
-836 -1163 0
-837 -1167 0
-838 -1168 0
-837 -1193 0
-838 -1194 0
-836 -1197 0
-837 -1200 0
-838 -1201 0
-837 -1245 0
-838 -1246 0
-836 -1249 0
-837 -1252 0
-838 -1253 0
-836 -1256 0
-837 -1259 0
-838 -1260 0
-836 -1263 0
-837 -1265 0
-838 -1266 0
-833 -1317 0
-835 -1320 0
-836 -1321 0
-837 -1323 0
-838 -1324 0
-834 -1377 0
-835 -1379 0
-836 -1380 0
-837 -1383 0
-838 -1384 0
-834 -1385 0
-835 -1387 0
-837 -1390 0
-838 -1391 0
-836 -1410 0
-837 -1412 0
-838 -1413 0
-837 -1420 0
-838 -1421 0
-836 -1462 0
-837 -1465 0
-838 -1466 0
-836 -1469 0
-837 -1472 0
-838 -1473 0
-837 -1478 0
-838 -1479 0
-836 -1482 0
-837 -1486 0
-838 -1487 0
-835 -1522 0
-836 -1523 0
-837 -1527 0
-838 -1528 0
-835 -1531 0
-837 -1533 0
-838 -1534 0
-835 -1554 0
-837 -1557 0
-838 -1558 0
-835 -1560 0
-836 -1561 0
-837 -1563 0
-838 -1564 0
-833 -1565 0
-834 -1566 0
-837 -1570 0
-838 -1571 0
-833 -1572 0
-835 -1574 0
-837 -1576 0
-838 -1577 0
-833 -1578 0
-835 -1580 0
-836 -1581 0
-837 -1583 0
-838 -1584 0
-833 -1585 0
-835 -1586 0
-836 -1587 0
-837 -1590 0
-838 -1591 0
-834 -1598 0
-835 -1600 0
-836 -1601 0
-837 -1603 0
-838 -1604 0
-834 -1618 0
-835 -1620 0
-837 -1622 0
-838 -1623 0
-834 -1642 0
-835 -1643 0
-837 -1646 0
-838 -1647 0
-833 -1648 0
-836 -1649 0
-837 -1652 0
-838 -1653 0
-835 -1662 0
-836 -1663 0
-837 -1665 0
-838 -1666 0
-835 -1675 0
-836 -1676 0
-837 -1679 0
-838 -1680 0
-835 -1701 0
-836 -1702 0
-837 -1706 0
-838 -1707 0
-834 -1714 0
-836 -1715 0
-837 -1718 0
-838 -1719 0
-835 -1733 0
-836 -1734 0
-837 -1736 0
-838 -1737 0
-835 -1739 0
-837 -1742 0
-838 -1743 0
-835 -1744 0
-836 -1745 0
-837 -1749 0
-838 -1750 0
-835 -1799 0
-837 -1802 0
-838 -1803 0
-835 -1805 0
-836 -1806 0
-837 -1809 0
-838 -1810 0
-835 -1819 0
-837 -1822 0
-838 -1823 0
-835 -1824 0
-836 -1825 0
-837 -1829 0
-838 -1830 0
-837 -1842 0
-838 -1843 0
-836 -1846 0
-837 -1850 0
-838 -1851 0
-839 -914 0
-841 -915 0
-842 -917 0
-843 -918 0
-844 -920 0
-845 -922 0
-846 -923 0
-839 -1000 0
-842 -1002 0
-843 -1003 0
-845 -1005 0
-846 -1006 0
-840 -1022 0
-842 -1024 0
-843 -1025 0
-845 -1027 0
-846 -1028 0
-840 -1036 0
-841 -1037 0
-843 -1039 0
-845 -1042 0
-846 -1043 0
-839 -1087 0
-841 -1088 0
-843 -1089 0
-845 -1091 0
-846 -1092 0
-839 -1135 0
-843 -1136 0
-844 -1138 0
-845 -1139 0
-846 -1140 0
-840 -1147 0
-843 -1149 0
-844 -1150 0
-845 -1151 0
-846 -1152 0
-840 -1160 0
-841 -1161 0
-842 -1162 0
-843 -1163 0
-844 -1165 0
-845 -1167 0
-846 -1168 0
-841 -1183 0
-842 -1185 0
-843 -1186 0
-845 -1187 0
-846 -1188 0
-841 -1196 0
-843 -1197 0
-845 -1200 0
-846 -1201 0
-841 -1223 0
-842 -1224 0
-843 -1225 0
-844 -1226 0
-845 -1227 0
-846 -1228 0
-842 -1232 0
-843 -1233 0
-844 -1235 0
-845 -1237 0
-846 -1238 0
-841 -1248 0
-843 -1249 0
-844 -1251 0
-845 -1252 0
-846 -1253 0
-841 -1254 0
-843 -1256 0
-844 -1257 0
-845 -1259 0
-846 -1260 0
-841 -1267 0
-842 -1269 0
-843 -1270 0
-844 -1272 0
-845 -1273 0
-846 -1274 0
-841 -1282 0
-842 -1283 0
-843 -1284 0
-845 -1287 0
-846 -1288 0
-839 -1311 0
-844 -1313 0
-845 -1315 0
-846 -1316 0
-840 -1385 0
-842 -1387 0
-845 -1390 0
-846 -1391 0
-842 -1402 0
-844 -1403 0
-845 -1405 0
-846 -1406 0
-841 -1415 0
-844 -1418 0
-845 -1420 0
-846 -1421 0
-841 -1453 0
-842 -1455 0
-844 -1456 0
-845 -1458 0
-846 -1459 0
-845 -1478 0
-846 -1479 0
-841 -1488 0
-842 -1490 0
-845 -1493 0
-846 -1494 0
-842 -1502 0
-844 -1504 0
-845 -1505 0
-846 -1506 0
-845 -1517 0
-846 -1518 0
-841 -1530 0
-842 -1531 0
-845 -1533 0
-846 -1534 0
-841 -1547 0
-844 -1549 0
-845 -1551 0
-846 -1552 0
-842 -1554 0
-844 -1556 0
-845 -1557 0
-846 -1558 0
-839 -1578 0
-842 -1580 0
-843 -1581 0
-845 -1583 0
-846 -1584 0
-839 -1592 0
-841 -1593 0
-843 -1594 0
-845 -1596 0
-846 -1597 0
-840 -1598 0
-842 -1600 0
-843 -1601 0
-845 -1603 0
-846 -1604 0
-840 -1611 0
-842 -1612 0
-843 -1613 0
-844 -1615 0
-845 -1616 0
-846 -1617 0
-839 -1624 0
-843 -1625 0
-844 -1627 0
-845 -1628 0
-846 -1629 0
-840 -1630 0
-843 -1632 0
-844 -1633 0
-845 -1634 0
-846 -1635 0
-839 -1648 0
-843 -1649 0
-844 -1651 0
-845 -1652 0
-846 -1653 0
-840 -1654 0
-842 -1655 0
-843 -1656 0
-844 -1658 0
-845 -1659 0
-846 -1660 0
-841 -1668 0
-843 -1669 0
-844 -1671 0
-845 -1672 0
-846 -1673 0
-841 -1674 0
-842 -1675 0
-843 -1676 0
-845 -1679 0
-846 -1680 0
-843 -1682 0
-844 -1683 0
-845 -1685 0
-846 -1686 0
-842 -1701 0
-843 -1702 0
-844 -1704 0
-845 -1706 0
-846 -1707 0
-839 -1708 0
-842 -1709 0
-845 -1712 0
-846 -1713 0
-845 -1724 0
-846 -1725 0
-842 -1739 0
-844 -1741 0
-845 -1742 0
-846 -1743 0
-841 -1751 0
-844 -1753 0
-845 -1755 0
-846 -1756 0
-842 -1764 0
-844 -1766 0
-845 -1768 0
-846 -1769 0
-842 -1792 0
-843 -1793 0
-845 -1795 0
-846 -1796 0
-841 -1804 0
-842 -1805 0
-843 -1806 0
-845 -1809 0
-846 -1810 0
-842 -1824 0
-843 -1825 0
-844 -1827 0
-845 -1829 0
-846 -1830 0
-842 -1831 0
-843 -1832 0
-844 -1834 0
-845 -1836 0
-846 -1837 0
-849 -994 0
-851 -997 0
-852 -998 0
-853 -999 0
-849 -1002 0
-850 -1003 0
-852 -1005 0
-853 -1006 0
-848 -1008 0
-852 -1012 0
-853 -1013 0
-851 -1132 0
-852 -1133 0
-853 -1134 0
-850 -1136 0
-852 -1139 0
-853 -1140 0
-849 -1232 0
-850 -1233 0
-851 -1236 0
-852 -1237 0
-853 -1238 0
-848 -1240 0
-851 -1244 0
-852 -1245 0
-853 -1246 0
-848 -1248 0
-850 -1249 0
-852 -1252 0
-853 -1253 0
-848 -1254 0
-850 -1256 0
-851 -1258 0
-852 -1259 0
-853 -1260 0
-848 -1261 0
-850 -1263 0
-852 -1265 0
-853 -1266 0
-848 -1267 0
-849 -1269 0
-850 -1270 0
-852 -1273 0
-853 -1274 0
-848 -1275 0
-849 -1277 0
-851 -1279 0
-852 -1280 0
-853 -1281 0
-848 -1282 0
-849 -1283 0
-850 -1284 0
-851 -1286 0
-852 -1287 0
-853 -1288 0
-850 -1469 0
-852 -1472 0
-853 -1473 0
-851 -1477 0
-852 -1478 0
-853 -1479 0
-850 -1482 0
-851 -1485 0
-852 -1486 0
-853 -1487 0
-848 -1488 0
-849 -1490 0
-851 -1492 0
-852 -1493 0
-853 -1494 0
-849 -1496 0
-850 -1497 0
-851 -1498 0
-852 -1499 0
-853 -1500 0
-849 -1502 0
-852 -1505 0
-853 -1506 0
-849 -1554 0
-852 -1557 0
-853 -1558 0
-849 -1560 0
-850 -1561 0
-851 -1562 0
-852 -1563 0
-853 -1564 0
-849 -1574 0
-852 -1576 0
-853 -1577 0
-849 -1580 0
-850 -1581 0
-852 -1583 0
-853 -1584 0
-849 -1586 0
-850 -1587 0
-851 -1589 0
-852 -1590 0
-853 -1591 0
-848 -1593 0
-850 -1594 0
-851 -1595 0
-852 -1596 0
-853 -1597 0
-849 -1606 0
-851 -1608 0
-852 -1609 0
-853 -1610 0
-847 -1630 0
-850 -1632 0
-852 -1634 0
-853 -1635 0
-847 -1636 0
-850 -1637 0
-851 -1639 0
-852 -1640 0
-853 -1641 0
-847 -1642 0
-849 -1643 0
-851 -1645 0
-852 -1646 0
-853 -1647 0
-850 -1649 0
-852 -1652 0
-853 -1653 0
-847 -1654 0
-849 -1655 0
-850 -1656 0
-852 -1659 0
-853 -1660 0
-849 -1662 0
-850 -1663 0
-852 -1665 0
-853 -1666 0
-848 -1668 0
-850 -1669 0
-852 -1672 0
-853 -1673 0
-848 -1674 0
-849 -1675 0
-850 -1676 0
-851 -1678 0
-852 -1679 0
-853 -1680 0
-849 -1709 0
-851 -1711 0
-852 -1712 0
-853 -1713 0
-851 -1723 0
-852 -1724 0
-853 -1725 0
-850 -1727 0
-851 -1729 0
-852 -1730 0
-853 -1731 0
-849 -1733 0
-850 -1734 0
-852 -1736 0
-853 -1737 0
-849 -1739 0
-852 -1742 0
-853 -1743 0
-849 -1744 0
-850 -1745 0
-851 -1748 0
-852 -1749 0
-853 -1750 0
-848 -1751 0
-851 -1754 0
-852 -1755 0
-853 -1756 0
-849 -1764 0
-851 -1767 0
-852 -1768 0
-853 -1769 0
-849 -1819 0
-852 -1822 0
-853 -1823 0
-849 -1824 0
-850 -1825 0
-851 -1828 0
-852 -1829 0
-853 -1830 0
-854 -914 0
-856 -916 0
-857 -918 0
-858 -919 0
-859 -920 0
-860 -922 0
-861 -923 0
-854 -948 0
-858 -951 0
-859 -952 0
-860 -953 0
-861 -954 0
-855 -970 0
-856 -972 0
-859 -974 0
-860 -975 0
-861 -976 0
-855 -984 0
-858 -987 0
-859 -988 0
-860 -990 0
-861 -991 0
-854 -1087 0
-857 -1089 0
-860 -1091 0
-861 -1092 0
-855 -1116 0
-858 -1119 0
-860 -1120 0
-861 -1121 0
-856 -1184 0
-857 -1186 0
-860 -1187 0
-861 -1188 0
-857 -1197 0
-858 -1198 0
-860 -1200 0
-861 -1201 0
-860 -1206 0
-861 -1207 0
-856 -1217 0
-858 -1219 0
-860 -1221 0
-861 -1222 0
-856 -1262 0
-857 -1263 0
-858 -1264 0
-860 -1265 0
-861 -1266 0
-857 -1284 0
-858 -1285 0
-860 -1287 0
-861 -1288 0
-854 -1311 0
-856 -1312 0
-859 -1313 0
-860 -1315 0
-861 -1316 0
-854 -1339 0
-857 -1341 0
-859 -1342 0
-860 -1344 0
-861 -1345 0
-855 -1353 0
-856 -1354 0
-857 -1356 0
-858 -1357 0
-859 -1358 0
-860 -1360 0
-861 -1361 0
-855 -1370 0
-857 -1372 0
-859 -1373 0
-860 -1375 0
-861 -1376 0
-856 -1401 0
-859 -1403 0
-860 -1405 0
-861 -1406 0
-856 -1416 0
-858 -1417 0
-859 -1418 0
-860 -1420 0
-861 -1421 0
-856 -1423 0
-857 -1425 0
-859 -1426 0
-860 -1427 0
-861 -1428 0
-857 -1439 0
-858 -1440 0
-859 -1441 0
-860 -1443 0
-861 -1444 0
-856 -1446 0
-857 -1448 0
-858 -1449 0
-859 -1450 0
-860 -1451 0
-861 -1452 0
-856 -1461 0
-857 -1462 0
-859 -1463 0
-860 -1465 0
-861 -1466 0
-856 -1481 0
-857 -1482 0
-858 -1483 0
-859 -1484 0
-860 -1486 0
-861 -1487 0
-856 -1501 0
-858 -1503 0
-859 -1504 0
-860 -1505 0
-861 -1506 0
-856 -1514 0
-858 -1515 0
-860 -1517 0
-861 -1518 0
-860 -1533 0
-861 -1534 0
-857 -1537 0
-858 -1538 0
-860 -1539 0
-861 -1540 0
-856 -1542 0
-857 -1543 0
-858 -1544 0
-860 -1545 0
-861 -1546 0
-856 -1559 0
-857 -1561 0
-860 -1563 0
-861 -1564 0
-854 -1578 0
-856 -1579 0
-857 -1581 0
-858 -1582 0
-860 -1583 0
-861 -1584 0
-854 -1592 0
-857 -1594 0
-860 -1596 0
-861 -1597 0
-855 -1598 0
-857 -1601 0
-860 -1603 0
-861 -1604 0
-854 -1605 0
-858 -1607 0
-860 -1609 0
-861 -1610 0
-855 -1618 0
-858 -1621 0
-860 -1622 0
-861 -1623 0
-855 -1636 0
-857 -1637 0
-858 -1638 0
-860 -1640 0
-861 -1641 0
-854 -1648 0
-857 -1649 0
-858 -1650 0
-859 -1651 0
-860 -1652 0
-861 -1653 0
-857 -1669 0
-858 -1670 0
-859 -1671 0
-860 -1672 0
-861 -1673 0
-856 -1687 0
-857 -1688 0
-858 -1689 0
-859 -1690 0
-860 -1692 0
-861 -1693 0
-857 -1697 0
-859 -1698 0
-860 -1699 0
-861 -1700 0
-857 -1702 0
-858 -1703 0
-859 -1704 0
-860 -1706 0
-861 -1707 0
-854 -1708 0
-858 -1710 0
-860 -1712 0
-861 -1713 0
-855 -1714 0
-857 -1715 0
-858 -1716 0
-860 -1718 0
-861 -1719 0
-856 -1721 0
-858 -1722 0
-860 -1724 0
-861 -1725 0
-857 -1734 0
-858 -1735 0
-860 -1736 0
-861 -1737 0
-856 -1757 0
-857 -1759 0
-860 -1761 0
-861 -1762 0
-858 -1765 0
-859 -1766 0
-860 -1768 0
-861 -1769 0
-856 -1791 0
-857 -1793 0
-860 -1795 0
-861 -1796 0
-857 -1806 0
-858 -1807 0
-860 -1809 0
-861 -1810 0
-857 -1832 0
-858 -1833 0
-859 -1834 0
-860 -1836 0
-861 -1837 0
-862 -908 0
-867 -912 0
-868 -913 0
-862 -940 0
-866 -945 0
-867 -946 0
-868 -947 0
-863 -970 0
-865 -974 0
-867 -975 0
-868 -976 0
-863 -977 0
-867 -982 0
-868 -983 0
-862 -1080 0
-864 -1083 0
-865 -1084 0
-867 -1085 0
-868 -1086 0
-862 -1107 0
-864 -1111 0
-865 -1112 0
-866 -1113 0
-867 -1114 0
-868 -1115 0
-863 -1116 0
-864 -1119 0
-867 -1120 0
-868 -1121 0
-863 -1122 0
-864 -1125 0
-865 -1126 0
-867 -1127 0
-868 -1128 0
-867 -1187 0
-868 -1188 0
-865 -1192 0
-867 -1193 0
-868 -1194 0
-866 -1205 0
-867 -1206 0
-868 -1207 0
-865 -1212 0
-866 -1213 0
-867 -1214 0
-868 -1215 0
-865 -1226 0
-867 -1227 0
-868 -1228 0
-865 -1257 0
-866 -1258 0
-867 -1259 0
-868 -1260 0
-865 -1278 0
-866 -1279 0
-867 -1280 0
-868 -1281 0
-862 -1304 0
-864 -1307 0
-866 -1308 0
-867 -1309 0
-868 -1310 0
-862 -1332 0
-864 -1336 0
-867 -1337 0
-868 -1338 0
-863 -1353 0
-864 -1357 0
-865 -1358 0
-866 -1359 0
-867 -1360 0
-868 -1361 0
-863 -1362 0
-864 -1366 0
-866 -1367 0
-867 -1368 0
-868 -1369 0
-865 -1403 0
-866 -1404 0
-867 -1405 0
-868 -1406 0
-866 -1411 0
-867 -1412 0
-868 -1413 0
-865 -1426 0
-867 -1427 0
-868 -1428 0
-867 -1434 0
-868 -1435 0
-865 -1456 0
-866 -1457 0
-867 -1458 0
-868 -1459 0
-865 -1463 0
-866 -1464 0
-867 -1465 0
-868 -1466 0
-866 -1498 0
-867 -1499 0
-868 -1500 0
-864 -1515 0
-866 -1516 0
-867 -1517 0
-868 -1518 0
-864 -1524 0
-865 -1525 0
-866 -1526 0
-867 -1527 0
-868 -1528 0
-864 -1538 0
-867 -1539 0
-868 -1540 0
-864 -1548 0
-865 -1549 0
-866 -1550 0
-867 -1551 0
-868 -1552 0
-864 -1555 0
-865 -1556 0
-867 -1557 0
-868 -1558 0
-862 -1565 0
-863 -1566 0
-864 -1567 0
-865 -1568 0
-866 -1569 0
-867 -1570 0
-868 -1571 0
-862 -1572 0
-865 -1575 0
-867 -1576 0
-868 -1577 0
-862 -1585 0
-865 -1588 0
-866 -1589 0
-867 -1590 0
-868 -1591 0
-862 -1592 0
-866 -1595 0
-867 -1596 0
-868 -1597 0
-863 -1598 0
-866 -1602 0
-867 -1603 0
-868 -1604 0
-863 -1630 0
-865 -1633 0
-867 -1634 0
-868 -1635 0
-863 -1642 0
-865 -1644 0
-866 -1645 0
-867 -1646 0
-868 -1647 0
-863 -1654 0
-864 -1657 0
-865 -1658 0
-867 -1659 0
-868 -1660 0
-865 -1683 0
-866 -1684 0
-867 -1685 0
-868 -1686 0
-865 -1698 0
-867 -1699 0
-868 -1700 0
-862 -1708 0
-864 -1710 0
-866 -1711 0
-867 -1712 0
-868 -1713 0
-865 -1728 0
-866 -1729 0
-867 -1730 0
-868 -1731 0
-866 -1760 0
-867 -1761 0
-868 -1762 0
-866 -1794 0
-867 -1795 0
-868 -1796 0
-865 -1800 0
-866 -1801 0
-867 -1802 0
-868 -1803 0
-865 -1815 0
-867 -1816 0
-868 -1817 0
-864 -1833 0
-865 -1834 0
-866 -1835 0
-867 -1836 0
-868 -1837 0
-864 -1839 0
-865 -1840 0
-866 -1841 0
-867 -1842 0
-868 -1843 0
-864 -1847 0
-865 -1848 0
-866 -1849 0
-867 -1850 0
-868 -1851 0
-864 -1855 0
-865 -1856 0
-866 -1857 0
-867 -1858 0
-868 -1859 0
-870 -942 0
-873 -945 0
-874 -946 0
-875 -947 0
-871 -951 0
-872 -952 0
-874 -953 0
-875 -954 0
-871 -959 0
-874 -960 0
-875 -961 0
-871 -1111 0
-872 -1112 0
-873 -1113 0
-874 -1114 0
-875 -1115 0
-873 -1205 0
-874 -1206 0
-875 -1207 0
-872 -1212 0
-873 -1213 0
-874 -1214 0
-875 -1215 0
-870 -1217 0
-871 -1219 0
-873 -1220 0
-874 -1221 0
-875 -1222 0
-872 -1226 0
-874 -1227 0
-875 -1228 0
-870 -1276 0
-872 -1278 0
-873 -1279 0
-874 -1280 0
-875 -1281 0
-871 -1285 0
-873 -1286 0
-874 -1287 0
-875 -1288 0
-870 -1333 0
-871 -1336 0
-874 -1337 0
-875 -1338 0
-872 -1342 0
-873 -1343 0
-874 -1344 0
-875 -1345 0
-870 -1423 0
-872 -1426 0
-874 -1427 0
-875 -1428 0
-870 -1431 0
-874 -1434 0
-875 -1435 0
-871 -1440 0
-872 -1441 0
-873 -1442 0
-874 -1443 0
-875 -1444 0
-870 -1446 0
-871 -1449 0
-872 -1450 0
-874 -1451 0
-875 -1452 0
-870 -1454 0
-872 -1456 0
-873 -1457 0
-874 -1458 0
-875 -1459 0
-870 -1461 0
-872 -1463 0
-873 -1464 0
-874 -1465 0
-875 -1466 0
-870 -1495 0
-873 -1498 0
-874 -1499 0
-875 -1500 0
-870 -1501 0
-871 -1503 0
-872 -1504 0
-874 -1505 0
-875 -1506 0
-871 -1538 0
-874 -1539 0
-875 -1540 0
-870 -1542 0
-871 -1544 0
-874 -1545 0
-875 -1546 0
-871 -1548 0
-872 -1549 0
-873 -1550 0
-874 -1551 0
-875 -1552 0
-872 -1575 0
-874 -1576 0
-875 -1577 0
-870 -1579 0
-871 -1582 0
-874 -1583 0
-875 -1584 0
-872 -1588 0
-873 -1589 0
-874 -1590 0
-875 -1591 0
-873 -1595 0
-874 -1596 0
-875 -1597 0
-869 -1611 0
-871 -1614 0
-872 -1615 0
-874 -1616 0
-875 -1617 0
-869 -1618 0
-871 -1621 0
-874 -1622 0
-875 -1623 0
-871 -1626 0
-872 -1627 0
-874 -1628 0
-875 -1629 0
-869 -1642 0
-872 -1644 0
-873 -1645 0
-874 -1646 0
-875 -1647 0
-871 -1650 0
-872 -1651 0
-874 -1652 0
-875 -1653 0
-871 -1664 0
-874 -1665 0
-875 -1666 0
-871 -1670 0
-872 -1671 0
-874 -1672 0
-875 -1673 0
-872 -1683 0
-873 -1684 0
-874 -1685 0
-875 -1686 0
-870 -1687 0
-871 -1689 0
-872 -1690 0
-873 -1691 0
-874 -1692 0
-875 -1693 0
-872 -1698 0
-874 -1699 0
-875 -1700 0
-871 -1710 0
-873 -1711 0
-874 -1712 0
-875 -1713 0
-869 -1714 0
-871 -1716 0
-873 -1717 0
-874 -1718 0
-875 -1719 0
-870 -1721 0
-871 -1722 0
-873 -1723 0
-874 -1724 0
-875 -1725 0
-872 -1728 0
-873 -1729 0
-874 -1730 0
-875 -1731 0
-870 -1757 0
-873 -1760 0
-874 -1761 0
-875 -1762 0
-871 -1765 0
-872 -1766 0
-873 -1767 0
-874 -1768 0
-875 -1769 0
-872 -1815 0
-874 -1816 0
-875 -1817 0
-871 -1855 0
-872 -1856 0
-873 -1857 0
-874 -1858 0
-875 -1859 0
-877 -911 0
-881 -912 0
-882 -913 0
-877 -917 0
-878 -918 0
-879 -919 0
-880 -920 0
-881 -922 0
-882 -923 0
-879 -927 0
-881 -929 0
-882 -930 0
-879 -1083 0
-880 -1084 0
-881 -1085 0
-882 -1086 0
-878 -1089 0
-881 -1091 0
-882 -1092 0
-877 -1095 0
-880 -1096 0
-881 -1098 0
-882 -1099 0
-877 -1185 0
-878 -1186 0
-881 -1187 0
-882 -1188 0
-880 -1192 0
-881 -1193 0
-882 -1194 0
-878 -1197 0
-879 -1198 0
-881 -1200 0
-882 -1201 0
-877 -1218 0
-879 -1219 0
-881 -1221 0
-882 -1222 0
-877 -1224 0
-878 -1225 0
-880 -1226 0
-881 -1227 0
-882 -1228 0
-878 -1256 0
-880 -1257 0
-881 -1259 0
-882 -1260 0
-878 -1263 0
-879 -1264 0
-881 -1265 0
-882 -1266 0
-877 -1269 0
-878 -1270 0
-879 -1271 0
-880 -1272 0
-881 -1273 0
-882 -1274 0
-878 -1306 0
-879 -1307 0
-881 -1309 0
-882 -1310 0
-880 -1313 0
-881 -1315 0
-882 -1316 0
-877 -1320 0
-878 -1321 0
-881 -1323 0
-882 -1324 0
-877 -1402 0
-880 -1403 0
-881 -1405 0
-882 -1406 0
-878 -1410 0
-881 -1412 0
-882 -1413 0
-879 -1417 0
-880 -1418 0
-881 -1420 0
-882 -1421 0
-877 -1447 0
-878 -1448 0
-879 -1449 0
-880 -1450 0
-881 -1451 0
-882 -1452 0
-877 -1455 0
-880 -1456 0
-881 -1458 0
-882 -1459 0
-878 -1462 0
-880 -1463 0
-881 -1465 0
-882 -1466 0
-878 -1482 0
-879 -1483 0
-880 -1484 0
-881 -1486 0
-882 -1487 0
-877 -1490 0
-879 -1491 0
-881 -1493 0
-882 -1494 0
-879 -1515 0
-881 -1517 0
-882 -1518 0
-877 -1522 0
-878 -1523 0
-879 -1524 0
-880 -1525 0
-881 -1527 0
-882 -1528 0
-877 -1531 0
-881 -1533 0
-882 -1534 0
-878 -1543 0
-879 -1544 0
-881 -1545 0
-882 -1546 0
-879 -1548 0
-880 -1549 0
-881 -1551 0
-882 -1552 0
-877 -1554 0
-879 -1555 0
-880 -1556 0
-881 -1557 0
-882 -1558 0
-877 -1560 0
-878 -1561 0
-881 -1563 0
-882 -1564 0
-876 -1566 0
-879 -1567 0
-880 -1568 0
-881 -1570 0
-882 -1571 0
-877 -1574 0
-880 -1575 0
-881 -1576 0
-882 -1577 0
-876 -1598 0
-877 -1600 0
-878 -1601 0
-881 -1603 0
-882 -1604 0
-877 -1606 0
-879 -1607 0
-881 -1609 0
-882 -1610 0
-876 -1611 0
-877 -1612 0
-878 -1613 0
-879 -1614 0
-880 -1615 0
-881 -1616 0
-882 -1617 0
-876 -1618 0
-877 -1620 0
-879 -1621 0
-881 -1622 0
-882 -1623 0
-878 -1625 0
-879 -1626 0
-880 -1627 0
-881 -1628 0
-882 -1629 0
-876 -1630 0
-878 -1632 0
-880 -1633 0
-881 -1634 0
-882 -1635 0
-876 -1636 0
-878 -1637 0
-879 -1638 0
-881 -1640 0
-882 -1641 0
-876 -1654 0
-877 -1655 0
-878 -1656 0
-879 -1657 0
-880 -1658 0
-881 -1659 0
-882 -1660 0
-878 -1682 0
-880 -1683 0
-881 -1685 0
-882 -1686 0
-877 -1701 0
-878 -1702 0
-879 -1703 0
-880 -1704 0
-881 -1706 0
-882 -1707 0
-876 -1714 0
-878 -1715 0
-879 -1716 0
-881 -1718 0
-882 -1719 0
-877 -1733 0
-878 -1734 0
-879 -1735 0
-881 -1736 0
-882 -1737 0
-877 -1792 0
-878 -1793 0
-881 -1795 0
-882 -1796 0
-877 -1799 0
-880 -1800 0
-881 -1802 0
-882 -1803 0
-877 -1805 0
-878 -1806 0
-879 -1807 0
-881 -1809 0
-882 -1810 0
-877 -1831 0
-878 -1832 0
-879 -1833 0
-880 -1834 0
-881 -1836 0
-882 -1837 0
-879 -1839 0
-880 -1840 0
-881 -1842 0
-882 -1843 0
-878 -1846 0
-879 -1847 0
-880 -1848 0
-881 -1850 0
-882 -1851 0
-883 -1093 0
-886 -1095 0
-888 -1098 0
-889 -1099 0
-887 -1125 0
-888 -1127 0
-889 -1128 0
-885 -1155 0
-886 -1156 0
-888 -1158 0
-889 -1159 0
-886 -1162 0
-887 -1164 0
-888 -1167 0
-889 -1168 0
-885 -1268 0
-886 -1269 0
-887 -1271 0
-888 -1273 0
-889 -1274 0
-883 -1317 0
-885 -1319 0
-886 -1320 0
-888 -1323 0
-889 -1324 0
-885 -1364 0
-887 -1366 0
-888 -1368 0
-889 -1369 0
-888 -1375 0
-889 -1376 0
-885 -1378 0
-886 -1379 0
-888 -1383 0
-889 -1384 0
-885 -1386 0
-886 -1387 0
-887 -1388 0
-888 -1390 0
-889 -1391 0
-885 -1461 0
-888 -1465 0
-889 -1466 0
-885 -1489 0
-886 -1490 0
-887 -1491 0
-888 -1493 0
-889 -1494 0
-884 -1519 0
-885 -1521 0
-886 -1522 0
-887 -1524 0
-888 -1527 0
-889 -1528 0
-884 -1529 0
-886 -1531 0
-888 -1533 0
-889 -1534 0
-885 -1542 0
-887 -1544 0
-888 -1545 0
-889 -1546 0
-887 -1548 0
-888 -1551 0
-889 -1552 0
-885 -1553 0
-886 -1554 0
-887 -1555 0
-888 -1557 0
-889 -1558 0
-885 -1559 0
-886 -1560 0
-888 -1563 0
-889 -1564 0
-883 -1565 0
-887 -1567 0
-888 -1570 0
-889 -1571 0
-883 -1592 0
-888 -1596 0
-889 -1597 0
-886 -1620 0
-887 -1621 0
-888 -1622 0
-889 -1623 0
-883 -1624 0
-887 -1626 0
-888 -1628 0
-889 -1629 0
-885 -1631 0
-888 -1634 0
-889 -1635 0
-887 -1638 0
-888 -1640 0
-889 -1641 0
-886 -1643 0
-888 -1646 0
-889 -1647 0
-883 -1648 0
-887 -1650 0
-888 -1652 0
-889 -1653 0
-884 -1667 0
-887 -1670 0
-888 -1672 0
-889 -1673 0
-886 -1675 0
-887 -1677 0
-888 -1679 0
-889 -1680 0
-884 -1681 0
-888 -1685 0
-889 -1686 0
-885 -1687 0
-887 -1689 0
-888 -1692 0
-889 -1693 0
-886 -1701 0
-887 -1703 0
-888 -1706 0
-889 -1707 0
-884 -1720 0
-885 -1721 0
-887 -1722 0
-888 -1724 0
-889 -1725 0
-884 -1726 0
-888 -1730 0
-889 -1731 0
-884 -1732 0
-886 -1733 0
-887 -1735 0
-888 -1736 0
-889 -1737 0
-885 -1738 0
-886 -1739 0
-887 -1740 0
-888 -1742 0
-889 -1743 0
-886 -1744 0
-887 -1746 0
-888 -1749 0
-889 -1750 0
-887 -1839 0
-888 -1842 0
-889 -1843 0
-885 -1845 0
-887 -1847 0
-888 -1850 0
-889 -1851 0
-886 -1853 0
-887 -1855 0
-888 -1858 0
-889 -1859 0
-890 -1087 0
-892 -1088 0
-895 -1089 0
-898 -1091 0
-899 -1092 0
-892 -1117 0
-894 -1118 0
-896 -1119 0
-898 -1120 0
-899 -1121 0
-890 -1135 0
-895 -1136 0
-896 -1137 0
-897 -1138 0
-898 -1139 0
-899 -1140 0
-893 -1148 0
-895 -1149 0
-897 -1150 0
-898 -1151 0
-899 -1152 0
-892 -1161 0
-894 -1162 0
-895 -1163 0
-896 -1164 0
-897 -1165 0
-898 -1167 0
-899 -1168 0
-894 -1170 0
-897 -1171 0
-898 -1173 0
-899 -1174 0
-892 -1223 0
-894 -1224 0
-895 -1225 0
-897 -1226 0
-898 -1227 0
-899 -1228 0
-892 -1261 0
-893 -1262 0
-895 -1263 0
-896 -1264 0
-898 -1265 0
-899 -1266 0
-892 -1282 0
-894 -1283 0
-895 -1284 0
-896 -1285 0
-898 -1287 0
-899 -1288 0
-890 -1311 0
-893 -1312 0
-897 -1313 0
-898 -1315 0
-899 -1316 0
-890 -1339 0
-894 -1340 0
-895 -1341 0
-897 -1342 0
-898 -1344 0
-899 -1345 0
-893 -1354 0
-894 -1355 0
-895 -1356 0
-896 -1357 0
-897 -1358 0
-898 -1360 0
-899 -1361 0
-892 -1371 0
-895 -1372 0
-897 -1373 0
-898 -1375 0
-899 -1376 0
-893 -1386 0
-894 -1387 0
-896 -1388 0
-898 -1390 0
-899 -1391 0
-892 -1453 0
-893 -1454 0
-894 -1455 0
-897 -1456 0
-898 -1458 0
-899 -1459 0
-893 -1481 0
-895 -1482 0
-896 -1483 0
-897 -1484 0
-898 -1486 0
-899 -1487 0
-893 -1501 0
-894 -1502 0
-896 -1503 0
-897 -1504 0
-898 -1505 0
-899 -1506 0
-891 -1513 0
-893 -1514 0
-896 -1515 0
-898 -1517 0
-899 -1518 0
-891 -1529 0
-892 -1530 0
-894 -1531 0
-898 -1533 0
-899 -1534 0
-891 -1535 0
-894 -1536 0
-895 -1537 0
-896 -1538 0
-898 -1539 0
-899 -1540 0
-892 -1541 0
-893 -1542 0
-895 -1543 0
-896 -1544 0
-898 -1545 0
-899 -1546 0
-893 -1553 0
-894 -1554 0
-896 -1555 0
-897 -1556 0
-898 -1557 0
-899 -1558 0
-890 -1585 0
-894 -1586 0
-895 -1587 0
-897 -1588 0
-898 -1590 0
-899 -1591 0
-894 -1612 0
-895 -1613 0
-896 -1614 0
-897 -1615 0
-898 -1616 0
-899 -1617 0
-895 -1637 0
-896 -1638 0
-898 -1640 0
-899 -1641 0
-890 -1648 0
-895 -1649 0
-896 -1650 0
-897 -1651 0
-898 -1652 0
-899 -1653 0
-894 -1655 0
-895 -1656 0
-896 -1657 0
-897 -1658 0
-898 -1659 0
-899 -1660 0
-891 -1661 0
-894 -1662 0
-895 -1663 0
-896 -1664 0
-898 -1665 0
-899 -1666 0
-892 -1674 0
-894 -1675 0
-895 -1676 0
-896 -1677 0
-898 -1679 0
-899 -1680 0
-893 -1687 0
-895 -1688 0
-896 -1689 0
-897 -1690 0
-898 -1692 0
-899 -1693 0
-892 -1695 0
-894 -1696 0
-895 -1697 0
-897 -1698 0
-898 -1699 0
-899 -1700 0
-894 -1701 0
-895 -1702 0
-896 -1703 0
-897 -1704 0
-898 -1706 0
-899 -1707 0
-890 -1708 0
-894 -1709 0
-896 -1710 0
-898 -1712 0
-899 -1713 0
-895 -1715 0
-896 -1716 0
-898 -1718 0
-899 -1719 0
-891 -1726 0
-895 -1727 0
-897 -1728 0
-898 -1730 0
-899 -1731 0
-893 -1738 0
-894 -1739 0
-896 -1740 0
-897 -1741 0
-898 -1742 0
-899 -1743 0
-892 -1751 0
-896 -1752 0
-897 -1753 0
-898 -1755 0
-899 -1756 0
-893 -1757 0
-894 -1758 0
-895 -1759 0
-898 -1761 0
-899 -1762 0
-891 -1763 0
-894 -1764 0
-896 -1765 0
-897 -1766 0
-898 -1768 0
-899 -1769 0
-894 -1831 0
-895 -1832 0
-896 -1833 0
-897 -1834 0
-898 -1836 0
-899 -1837 0
-900 -1080 0
-902 -1081 0
-904 -1083 0
-906 -1085 0
-907 -1086 0
-900 -1107 0
-902 -1108 0
-903 -1109 0
-904 -1111 0
-905 -1113 0
-906 -1114 0
-907 -1115 0
-902 -1117 0
-903 -1118 0
-904 -1119 0
-906 -1120 0
-907 -1121 0
-902 -1123 0
-904 -1125 0
-906 -1127 0
-907 -1128 0
-900 -1129 0
-905 -1132 0
-906 -1133 0
-907 -1134 0
-906 -1151 0
-907 -1152 0
-902 -1154 0
-903 -1156 0
-906 -1158 0
-907 -1159 0
-903 -1170 0
-905 -1172 0
-906 -1173 0
-907 -1174 0
-902 -1216 0
-903 -1218 0
-904 -1219 0
-905 -1220 0
-906 -1221 0
-907 -1222 0
-902 -1254 0
-905 -1258 0
-906 -1259 0
-907 -1260 0
-902 -1275 0
-903 -1277 0
-905 -1279 0
-906 -1280 0
-907 -1281 0
-900 -1304 0
-904 -1307 0
-905 -1308 0
-906 -1309 0
-907 -1310 0
-900 -1332 0
-903 -1334 0
-904 -1336 0
-906 -1337 0
-907 -1338 0
-903 -1355 0
-904 -1357 0
-905 -1359 0
-906 -1360 0
-907 -1361 0
-902 -1363 0
-904 -1366 0
-905 -1367 0
-906 -1368 0
-907 -1369 0
-903 -1379 0
-905 -1382 0
-906 -1383 0
-907 -1384 0
-902 -1445 0
-903 -1447 0
-904 -1449 0
-906 -1451 0
-907 -1452 0
-903 -1496 0
-905 -1498 0
-906 -1499 0
-907 -1500 0
-901 -1513 0
-904 -1515 0
-905 -1516 0
-906 -1517 0
-907 -1518 0
-901 -1519 0
-902 -1520 0
-903 -1522 0
-904 -1524 0
-905 -1526 0
-906 -1527 0
-907 -1528 0
-901 -1535 0
-903 -1536 0
-904 -1538 0
-906 -1539 0
-907 -1540 0
-902 -1547 0
-904 -1548 0
-905 -1550 0
-906 -1551 0
-907 -1552 0
-903 -1560 0
-905 -1562 0
-906 -1563 0
-907 -1564 0
-900 -1565 0
-904 -1567 0
-905 -1569 0
-906 -1570 0
-907 -1571 0
-900 -1578 0
-903 -1580 0
-904 -1582 0
-906 -1583 0
-907 -1584 0
-900 -1605 0
-903 -1606 0
-904 -1607 0
-905 -1608 0
-906 -1609 0
-907 -1610 0
-903 -1612 0
-904 -1614 0
-906 -1616 0
-907 -1617 0
-902 -1619 0
-903 -1620 0
-904 -1621 0
-906 -1622 0
-907 -1623 0
-906 -1634 0
-907 -1635 0
-903 -1643 0
-905 -1645 0
-906 -1646 0
-907 -1647 0
-901 -1661 0
-903 -1662 0
-904 -1664 0
-906 -1665 0
-907 -1666 0
-901 -1667 0
-902 -1668 0
-904 -1670 0
-906 -1672 0
-907 -1673 0
-901 -1681 0
-905 -1684 0
-906 -1685 0
-907 -1686 0
-902 -1695 0
-903 -1696 0
-906 -1699 0
-907 -1700 0
-900 -1708 0
-903 -1709 0
-904 -1710 0
-905 -1711 0
-906 -1712 0
-907 -1713 0
-901 -1720 0
-904 -1722 0
-905 -1723 0
-906 -1724 0
-907 -1725 0
-901 -1732 0
-903 -1733 0
-904 -1735 0
-906 -1736 0
-907 -1737 0
-903 -1744 0
-904 -1746 0
-905 -1748 0
-906 -1749 0
-907 -1750 0
-902 -1751 0
-904 -1752 0
-905 -1754 0
-906 -1755 0
-907 -1756 0
-903 -1758 0
-905 -1760 0
-906 -1761 0
-907 -1762 0
-903 -1831 0
-904 -1833 0
-905 -1835 0
-906 -1836 0
-907 -1837 0
-902 -1838 0
-904 -1839 0
-905 -1841 0
-906 -1842 0
-907 -1843 0
-904 -1847 0
-905 -1849 0
-906 -1850 0
-907 -1851 0
-903 -1853 0
-904 -1855 0
-905 -1857 0
-906 -1858 0
-907 -1859 0
-909 -1062 0
-911 -1063 0
-912 -1065 0
-913 -1066 0
-908 -1135 0
-912 -1139 0
-913 -1140 0
-912 -1145 0
-913 -1146 0
-909 -1161 0
-911 -1162 0
-912 -1167 0
-913 -1168 0
-911 -1170 0
-912 -1173 0
-913 -1174 0
-909 -1248 0
-912 -1252 0
-913 -1253 0
-909 -1282 0
-911 -1283 0
-912 -1287 0
-913 -1288 0
-908 -1297 0
-912 -1302 0
-913 -1303 0
-908 -1339 0
-911 -1340 0
-912 -1344 0
-913 -1345 0
-911 -1348 0
-912 -1351 0
-913 -1352 0
-909 -1371 0
-912 -1375 0
-913 -1376 0
-910 -1386 0
-911 -1387 0
-912 -1390 0
-913 -1391 0
-909 -1437 0
-911 -1438 0
-912 -1443 0
-913 -1444 0
-910 -1475 0
-912 -1478 0
-913 -1479 0
-910 -1501 0
-911 -1502 0
-912 -1505 0
-913 -1506 0
-912 -1511 0
-913 -1512 0
-909 -1530 0
-911 -1531 0
-912 -1533 0
-913 -1534 0
-911 -1536 0
-912 -1539 0
-913 -1540 0
-909 -1547 0
-912 -1551 0
-913 -1552 0
-910 -1559 0
-911 -1560 0
-912 -1563 0
-913 -1564 0
-908 -1624 0
-912 -1628 0
-913 -1629 0
-912 -1640 0
-913 -1641 0
-911 -1643 0
-912 -1646 0
-913 -1647 0
-911 -1655 0
-912 -1659 0
-913 -1660 0
-912 -1685 0
-913 -1686 0
-909 -1695 0
-911 -1696 0
-912 -1699 0
-913 -1700 0
-911 -1701 0
-912 -1706 0
-913 -1707 0
-908 -1708 0
-911 -1709 0
-912 -1712 0
-913 -1713 0
-912 -1718 0
-913 -1719 0
-912 -1730 0
-913 -1731 0
-911 -1733 0
-912 -1736 0
-913 -1737 0
-911 -1744 0
-912 -1749 0
-913 -1750 0
-909 -1751 0
-912 -1755 0
-913 -1756 0
-910 -1757 0
-911 -1758 0
-912 -1761 0
-913 -1762 0
-911 -1764 0
-912 -1768 0
-913 -1769 0
-911 -1824 0
-912 -1829 0
-913 -1830 0
-911 -1853 0
-912 -1858 0
-913 -1859 0
-915 -1052 0
-916 -1053 0
-917 -1054 0
-918 -1055 0
-919 -1056 0
-920 -1057 0
-921 -1058 0
-922 -1059 0
-923 -1060 0
-914 -1073 0
-915 -1075 0
-918 -1076 0
-920 -1077 0
-922 -1078 0
-923 -1079 0
-914 -1107 0
-915 -1108 0
-917 -1109 0
-918 -1110 0
-919 -1111 0
-920 -1112 0
-921 -1113 0
-922 -1114 0
-923 -1115 0
-915 -1123 0
-918 -1124 0
-919 -1125 0
-920 -1126 0
-922 -1127 0
-923 -1128 0
-914 -1129 0
-916 -1130 0
-920 -1131 0
-921 -1132 0
-922 -1133 0
-923 -1134 0
-919 -1143 0
-920 -1144 0
-922 -1145 0
-923 -1146 0
-915 -1154 0
-916 -1155 0
-917 -1156 0
-920 -1157 0
-922 -1158 0
-923 -1159 0
-917 -1170 0
-920 -1171 0
-921 -1172 0
-922 -1173 0
-923 -1174 0
-915 -1209 0
-917 -1210 0
-918 -1211 0
-920 -1212 0
-921 -1213 0
-922 -1214 0
-923 -1215 0
-915 -1240 0
-916 -1241 0
-919 -1242 0
-920 -1243 0
-921 -1244 0
-922 -1245 0
-923 -1246 0
-915 -1275 0
-916 -1276 0
-917 -1277 0
-920 -1278 0
-921 -1279 0
-922 -1280 0
-923 -1281 0
-914 -1289 0
-916 -1291 0
-918 -1292 0
-920 -1293 0
-921 -1294 0
-922 -1295 0
-923 -1296 0
-914 -1332 0
-916 -1333 0
-917 -1334 0
-918 -1335 0
-919 -1336 0
-922 -1337 0
-923 -1338 0
-917 -1348 0
-918 -1349 0
-921 -1350 0
-922 -1351 0
-923 -1352 0
-915 -1363 0
-916 -1364 0
-918 -1365 0
-919 -1366 0
-921 -1367 0
-922 -1368 0
-923 -1369 0
-916 -1378 0
-917 -1379 0
-918 -1380 0
-920 -1381 0
-921 -1382 0
-922 -1383 0
-923 -1384 0
-915 -1430 0
-916 -1431 0
-917 -1432 0
-918 -1433 0
-922 -1434 0
-923 -1435 0
-916 -1468 0
-918 -1469 0
-919 -1470 0
-920 -1471 0
-922 -1472 0
-923 -1473 0
-916 -1495 0
-917 -1496 0
-918 -1497 0
-921 -1498 0
-922 -1499 0
-923 -1500 0
-918 -1508 0
-920 -1509 0
-921 -1510 0
-922 -1511 0
-923 -1512 0
-915 -1520 0
-916 -1521 0
-917 -1522 0
-918 -1523 0
-919 -1524 0
-920 -1525 0
-921 -1526 0
-922 -1527 0
-923 -1528 0
-917 -1536 0
-918 -1537 0
-919 -1538 0
-922 -1539 0
-923 -1540 0
-915 -1541 0
-916 -1542 0
-918 -1543 0
-919 -1544 0
-922 -1545 0
-923 -1546 0
-916 -1553 0
-917 -1554 0
-919 -1555 0
-920 -1556 0
-922 -1557 0
-923 -1558 0
-914 -1565 0
-919 -1567 0
-920 -1568 0
-921 -1569 0
-922 -1570 0
-923 -1571 0
-914 -1572 0
-917 -1574 0
-920 -1575 0
-922 -1576 0
-923 -1577 0
-914 -1605 0
-917 -1606 0
-919 -1607 0
-921 -1608 0
-922 -1609 0
-923 -1610 0
-915 -1619 0
-917 -1620 0
-919 -1621 0
-922 -1622 0
-923 -1623 0
-914 -1624 0
-918 -1625 0
-919 -1626 0
-920 -1627 0
-922 -1628 0
-923 -1629 0
-916 -1631 0
-918 -1632 0
-920 -1633 0
-922 -1634 0
-923 -1635 0
-914 -1648 0
-918 -1649 0
-919 -1650 0
-920 -1651 0
-922 -1652 0
-923 -1653 0
-915 -1668 0
-918 -1669 0
-919 -1670 0
-920 -1671 0
-922 -1672 0
-923 -1673 0
-915 -1674 0
-917 -1675 0
-918 -1676 0
-919 -1677 0
-921 -1678 0
-922 -1679 0
-923 -1680 0
-916 -1687 0
-918 -1688 0
-919 -1689 0
-920 -1690 0
-921 -1691 0
-922 -1692 0
-923 -1693 0
-915 -1695 0
-917 -1696 0
-918 -1697 0
-920 -1698 0
-922 -1699 0
-923 -1700 0
-914 -1708 0
-917 -1709 0
-919 -1710 0
-921 -1711 0
-922 -1712 0
-923 -1713 0
-916 -1721 0
-919 -1722 0
-921 -1723 0
-922 -1724 0
-923 -1725 0
-916 -1738 0
-917 -1739 0
-919 -1740 0
-920 -1741 0
-922 -1742 0
-923 -1743 0
-915 -1751 0
-919 -1752 0
-920 -1753 0
-921 -1754 0
-922 -1755 0
-923 -1756 0
-916 -1757 0
-917 -1758 0
-918 -1759 0
-921 -1760 0
-922 -1761 0
-923 -1762 0
-914 -1771 0
-917 -1772 0
-918 -1773 0
-920 -1774 0
-921 -1775 0
-922 -1776 0
-923 -1777 0
-915 -1812 0
-917 -1813 0
-918 -1814 0
-920 -1815 0
-922 -1816 0
-923 -1817 0
-916 -1818 0
-917 -1819 0
-919 -1820 0
-920 -1821 0
-922 -1822 0
-923 -1823 0
-915 -1838 0
-919 -1839 0
-920 -1840 0
-921 -1841 0
-922 -1842 0
-923 -1843 0
-916 -1845 0
-918 -1846 0
-919 -1847 0
-920 -1848 0
-921 -1849 0
-922 -1850 0
-923 -1851 0
-926 -1045 0
-927 -1047 0
-928 -1048 0
-929 -1049 0
-930 -1050 0
-924 -1067 0
-929 -1071 0
-930 -1072 0
-924 -1107 0
-925 -1108 0
-927 -1111 0
-928 -1113 0
-929 -1114 0
-930 -1115 0
-925 -1117 0
-927 -1119 0
-929 -1120 0
-930 -1121 0
-924 -1129 0
-926 -1130 0
-928 -1132 0
-929 -1133 0
-930 -1134 0
-924 -1135 0
-927 -1137 0
-929 -1139 0
-930 -1140 0
-927 -1143 0
-929 -1145 0
-930 -1146 0
-926 -1148 0
-929 -1151 0
-930 -1152 0
-925 -1203 0
-928 -1205 0
-929 -1206 0
-930 -1207 0
-926 -1231 0
-927 -1234 0
-928 -1236 0
-929 -1237 0
-930 -1238 0
-925 -1275 0
-926 -1276 0
-928 -1279 0
-929 -1280 0
-930 -1281 0
-925 -1282 0
-927 -1285 0
-928 -1286 0
-929 -1287 0
-930 -1288 0
-924 -1332 0
-926 -1333 0
-927 -1336 0
-929 -1337 0
-930 -1338 0
-924 -1339 0
-928 -1343 0
-929 -1344 0
-930 -1345 0
-928 -1350 0
-929 -1351 0
-930 -1352 0
-926 -1354 0
-927 -1357 0
-928 -1359 0
-929 -1360 0
-930 -1361 0
-926 -1423 0
-929 -1427 0
-930 -1428 0
-926 -1495 0
-928 -1498 0
-929 -1499 0
-930 -1500 0
-926 -1501 0
-927 -1503 0
-929 -1505 0
-930 -1506 0
-928 -1510 0
-929 -1511 0
-930 -1512 0
-926 -1514 0
-927 -1515 0
-928 -1516 0
-929 -1517 0
-930 -1518 0
-925 -1541 0
-926 -1542 0
-927 -1544 0
-929 -1545 0
-930 -1546 0
-925 -1547 0
-927 -1548 0
-928 -1550 0
-929 -1551 0
-930 -1552 0
-926 -1553 0
-927 -1555 0
-929 -1557 0
-930 -1558 0
-926 -1559 0
-928 -1562 0
-929 -1563 0
-930 -1564 0
-924 -1605 0
-927 -1607 0
-928 -1608 0
-929 -1609 0
-930 -1610 0
-927 -1614 0
-929 -1616 0
-930 -1617 0
-928 -1645 0
-929 -1646 0
-930 -1647 0
-924 -1648 0
-927 -1650 0
-929 -1652 0
-930 -1653 0
-927 -1657 0
-929 -1659 0
-930 -1660 0
-927 -1664 0
-929 -1665 0
-930 -1666 0
-925 -1674 0
-927 -1677 0
-928 -1678 0
-929 -1679 0
-930 -1680 0
-928 -1684 0
-929 -1685 0
-930 -1686 0
-926 -1687 0
-927 -1689 0
-928 -1691 0
-929 -1692 0
-930 -1693 0
-927 -1716 0
-928 -1717 0
-929 -1718 0
-930 -1719 0
-927 -1735 0
-929 -1736 0
-930 -1737 0
-926 -1738 0
-927 -1740 0
-929 -1742 0
-930 -1743 0
-927 -1746 0
-928 -1748 0
-929 -1749 0
-930 -1750 0
-927 -1765 0
-928 -1767 0
-929 -1768 0
-930 -1769 0
-927 -1833 0
-928 -1835 0
-929 -1836 0
-930 -1837 0
-927 -1855 0
-928 -1857 0
-929 -1858 0
-930 -1859 0
-933 -1108 0
-935 -1109 0
-936 -1111 0
-937 -1113 0
-938 -1114 0
-939 -1115 0
-934 -1130 0
-937 -1132 0
-938 -1133 0
-939 -1134 0
-936 -1137 0
-938 -1139 0
-939 -1140 0
-931 -1169 0
-935 -1170 0
-937 -1172 0
-938 -1173 0
-939 -1174 0
-933 -1275 0
-934 -1276 0
-935 -1277 0
-937 -1279 0
-938 -1280 0
-939 -1281 0
-933 -1282 0
-935 -1283 0
-936 -1285 0
-937 -1286 0
-938 -1287 0
-939 -1288 0
-934 -1333 0
-935 -1334 0
-936 -1336 0
-938 -1337 0
-939 -1338 0
-935 -1340 0
-937 -1343 0
-938 -1344 0
-939 -1345 0
-934 -1495 0
-935 -1496 0
-937 -1498 0
-938 -1499 0
-939 -1500 0
-934 -1501 0
-935 -1502 0
-936 -1503 0
-938 -1505 0
-939 -1506 0
-932 -1535 0
-935 -1536 0
-936 -1538 0
-938 -1539 0
-939 -1540 0
-933 -1541 0
-934 -1542 0
-936 -1544 0
-938 -1545 0
-939 -1546 0
-933 -1547 0
-936 -1548 0
-937 -1550 0
-938 -1551 0
-939 -1552 0
-934 -1553 0
-935 -1554 0
-936 -1555 0
-938 -1557 0
-939 -1558 0
-934 -1559 0
-935 -1560 0
-937 -1562 0
-938 -1563 0
-939 -1564 0
-935 -1606 0
-936 -1607 0
-937 -1608 0
-938 -1609 0
-939 -1610 0
-936 -1626 0
-938 -1628 0
-939 -1629 0
-931 -1642 0
-935 -1643 0
-937 -1645 0
-938 -1646 0
-939 -1647 0
-936 -1650 0
-938 -1652 0
-939 -1653 0
-931 -1654 0
-935 -1655 0
-936 -1657 0
-938 -1659 0
-939 -1660 0
-933 -1674 0
-935 -1675 0
-936 -1677 0
-937 -1678 0
-938 -1679 0
-939 -1680 0
-932 -1681 0
-937 -1684 0
-938 -1685 0
-939 -1686 0
-934 -1687 0
-936 -1689 0
-937 -1691 0
-938 -1692 0
-939 -1693 0
-933 -1695 0
-935 -1696 0
-938 -1699 0
-939 -1700 0
-935 -1709 0
-936 -1710 0
-937 -1711 0
-938 -1712 0
-939 -1713 0
-931 -1714 0
-936 -1716 0
-937 -1717 0
-938 -1718 0
-939 -1719 0
-932 -1732 0
-935 -1733 0
-936 -1735 0
-938 -1736 0
-939 -1737 0
-934 -1738 0
-935 -1739 0
-936 -1740 0
-938 -1742 0
-939 -1743 0
-935 -1744 0
-936 -1746 0
-937 -1748 0
-938 -1749 0
-939 -1750 0
-933 -1751 0
-936 -1752 0
-937 -1754 0
-938 -1755 0
-939 -1756 0
-934 -1757 0
-935 -1758 0
-937 -1760 0
-938 -1761 0
-939 -1762 0
-932 -1763 0
-935 -1764 0
-936 -1765 0
-937 -1767 0
-938 -1768 0
-939 -1769 0
-935 -1853 0
-936 -1855 0
-937 -1857 0
-938 -1858 0
-939 -1859 0
-941 -1037 0
-942 -1038 0
-944 -1039 0
-945 -1041 0
-946 -1042 0
-947 -1043 0
-940 -1087 0
-941 -1088 0
-944 -1089 0
-945 -1090 0
-946 -1091 0
-947 -1092 0
-940 -1093 0
-941 -1094 0
-943 -1095 0
-945 -1097 0
-946 -1098 0
-947 -1099 0
-941 -1102 0
-945 -1104 0
-946 -1105 0
-947 -1106 0
-940 -1135 0
-944 -1136 0
-946 -1139 0
-947 -1140 0
-946 -1145 0
-947 -1146 0
-942 -1148 0
-944 -1149 0
-946 -1151 0
-947 -1152 0
-941 -1154 0
-942 -1155 0
-943 -1156 0
-946 -1158 0
-947 -1159 0
-941 -1196 0
-944 -1197 0
-945 -1199 0
-946 -1200 0
-947 -1201 0
-941 -1248 0
-944 -1249 0
-946 -1252 0
-947 -1253 0
-941 -1261 0
-942 -1262 0
-944 -1263 0
-946 -1265 0
-947 -1266 0
-941 -1267 0
-942 -1268 0
-943 -1269 0
-944 -1270 0
-946 -1273 0
-947 -1274 0
-940 -1297 0
-944 -1299 0
-945 -1301 0
-946 -1302 0
-947 -1303 0
-940 -1311 0
-942 -1312 0
-945 -1314 0
-946 -1315 0
-947 -1316 0
-940 -1317 0
-941 -1318 0
-942 -1319 0
-943 -1320 0
-944 -1321 0
-945 -1322 0
-946 -1323 0
-947 -1324 0
-942 -1327 0
-944 -1328 0
-945 -1329 0
-946 -1330 0
-947 -1331 0
-941 -1371 0
-944 -1372 0
-945 -1374 0
-946 -1375 0
-947 -1376 0
-942 -1378 0
-943 -1379 0
-944 -1380 0
-945 -1382 0
-946 -1383 0
-947 -1384 0
-941 -1415 0
-942 -1416 0
-945 -1419 0
-946 -1420 0
-947 -1421 0
-942 -1475 0
-945 -1477 0
-946 -1478 0
-947 -1479 0
-942 -1481 0
-944 -1482 0
-945 -1485 0
-946 -1486 0
-947 -1487 0
-941 -1488 0
-942 -1489 0
-943 -1490 0
-945 -1492 0
-946 -1493 0
-947 -1494 0
-944 -1508 0
-945 -1510 0
-946 -1511 0
-947 -1512 0
-942 -1514 0
-945 -1516 0
-946 -1517 0
-947 -1518 0
-941 -1520 0
-942 -1521 0
-943 -1522 0
-944 -1523 0
-945 -1526 0
-946 -1527 0
-947 -1528 0
-941 -1547 0
-945 -1550 0
-946 -1551 0
-947 -1552 0
-942 -1553 0
-943 -1554 0
-946 -1557 0
-947 -1558 0
-940 -1565 0
-945 -1569 0
-946 -1570 0
-947 -1571 0
-940 -1585 0
-943 -1586 0
-944 -1587 0
-945 -1589 0
-946 -1590 0
-947 -1591 0
-940 -1592 0
-941 -1593 0
-944 -1594 0
-945 -1595 0
-946 -1596 0
-947 -1597 0
-943 -1600 0
-944 -1601 0
-945 -1602 0
-946 -1603 0
-947 -1604 0
-940 -1624 0
-944 -1625 0
-946 -1628 0
-947 -1629 0
-942 -1631 0
-944 -1632 0
-946 -1634 0
-947 -1635 0
-940 -1648 0
-944 -1649 0
-946 -1652 0
-947 -1653 0
-943 -1662 0
-944 -1663 0
-946 -1665 0
-947 -1666 0
-941 -1668 0
-944 -1669 0
-946 -1672 0
-947 -1673 0
-944 -1682 0
-945 -1684 0
-946 -1685 0
-947 -1686 0
-942 -1687 0
-944 -1688 0
-945 -1691 0
-946 -1692 0
-947 -1693 0
-944 -1715 0
-945 -1717 0
-946 -1718 0
-947 -1719 0
-942 -1721 0
-945 -1723 0
-946 -1724 0
-947 -1725 0
-943 -1744 0
-944 -1745 0
-945 -1748 0
-946 -1749 0
-947 -1750 0
-941 -1751 0
-945 -1754 0
-946 -1755 0
-947 -1756 0
-943 -1779 0
-945 -1781 0
-946 -1782 0
-947 -1783 0
-941 -1804 0
-943 -1805 0
-944 -1806 0
-945 -1808 0
-946 -1809 0
-947 -1810 0
-943 -1824 0
-944 -1825 0
-945 -1828 0
-946 -1829 0
-947 -1830 0
-943 -1831 0
-944 -1832 0
-945 -1835 0
-946 -1836 0
-947 -1837 0
-941 -1838 0
-945 -1841 0
-946 -1842 0
-947 -1843 0
-942 -1845 0
-944 -1846 0
-945 -1849 0
-946 -1850 0
-947 -1851 0
-949 -1030 0
-951 -1032 0
-952 -1033 0
-953 -1034 0
-954 -1035 0
-948 -1073 0
-949 -1075 0
-952 -1077 0
-953 -1078 0
-954 -1079 0
-948 -1080 0
-949 -1081 0
-951 -1083 0
-952 -1084 0
-953 -1085 0
-954 -1086 0
-948 -1093 0
-949 -1094 0
-950 -1095 0
-952 -1096 0
-953 -1098 0
-954 -1099 0
-949 -1102 0
-952 -1103 0
-953 -1105 0
-954 -1106 0
-949 -1123 0
-951 -1125 0
-952 -1126 0
-953 -1127 0
-954 -1128 0
-948 -1129 0
-952 -1131 0
-953 -1133 0
-954 -1134 0
-951 -1143 0
-952 -1144 0
-953 -1145 0
-954 -1146 0
-952 -1150 0
-953 -1151 0
-954 -1152 0
-949 -1161 0
-950 -1162 0
-951 -1164 0
-952 -1165 0
-953 -1167 0
-954 -1168 0
-949 -1190 0
-952 -1192 0
-953 -1193 0
-954 -1194 0
-949 -1240 0
-951 -1242 0
-952 -1243 0
-953 -1245 0
-954 -1246 0
-949 -1254 0
-952 -1257 0
-953 -1259 0
-954 -1260 0
-949 -1267 0
-950 -1269 0
-951 -1271 0
-952 -1272 0
-953 -1273 0
-954 -1274 0
-948 -1289 0
-952 -1293 0
-953 -1295 0
-954 -1296 0
-948 -1304 0
-951 -1307 0
-953 -1309 0
-954 -1310 0
-948 -1317 0
-949 -1318 0
-950 -1320 0
-953 -1323 0
-954 -1324 0
-953 -1330 0
-954 -1331 0
-949 -1363 0
-951 -1366 0
-953 -1368 0
-954 -1369 0
-950 -1387 0
-951 -1388 0
-953 -1390 0
-954 -1391 0
-949 -1408 0
-953 -1412 0
-954 -1413 0
-951 -1470 0
-952 -1471 0
-953 -1472 0
-954 -1473 0
-949 -1488 0
-950 -1490 0
-951 -1491 0
-953 -1493 0
-954 -1494 0
-952 -1509 0
-953 -1511 0
-954 -1512 0
-951 -1515 0
-953 -1517 0
-954 -1518 0
-949 -1530 0
-950 -1531 0
-953 -1533 0
-954 -1534 0
-949 -1541 0
-951 -1544 0
-953 -1545 0
-954 -1546 0
-950 -1560 0
-953 -1563 0
-954 -1564 0
-948 -1572 0
-950 -1574 0
-952 -1575 0
-953 -1576 0
-954 -1577 0
-948 -1578 0
-950 -1580 0
-951 -1582 0
-953 -1583 0
-954 -1584 0
-948 -1592 0
-949 -1593 0
-953 -1596 0
-954 -1597 0
-950 -1600 0
-953 -1603 0
-954 -1604 0
-949 -1619 0
-950 -1620 0
-951 -1621 0
-953 -1622 0
-954 -1623 0
-948 -1624 0
-951 -1626 0
-952 -1627 0
-953 -1628 0
-954 -1629 0
-951 -1638 0
-953 -1640 0
-954 -1641 0
-950 -1643 0
-952 -1644 0
-953 -1646 0
-954 -1647 0
-950 -1662 0
-951 -1664 0
-953 -1665 0
-954 -1666 0
-949 -1674 0
-950 -1675 0
-951 -1677 0
-953 -1679 0
-954 -1680 0
-950 -1701 0
-951 -1703 0
-952 -1704 0
-953 -1706 0
-954 -1707 0
-952 -1728 0
-953 -1730 0
-954 -1731 0
-950 -1733 0
-951 -1735 0
-953 -1736 0
-954 -1737 0
-950 -1739 0
-951 -1740 0
-952 -1741 0
-953 -1742 0
-954 -1743 0
-949 -1751 0
-951 -1752 0
-952 -1753 0
-953 -1755 0
-954 -1756 0
-948 -1771 0
-950 -1772 0
-952 -1774 0
-953 -1776 0
-954 -1777 0
-950 -1779 0
-952 -1780 0
-953 -1782 0
-954 -1783 0
-949 -1797 0
-950 -1799 0
-952 -1800 0
-953 -1802 0
-954 -1803 0
-950 -1819 0
-951 -1820 0
-952 -1821 0
-953 -1822 0
-954 -1823 0
-950 -1831 0
-951 -1833 0
-952 -1834 0
-953 -1836 0
-954 -1837 0
-950 -1853 0
-951 -1855 0
-952 -1856 0
-953 -1858 0
-954 -1859 0
-957 -1024 0
-958 -1025 0
-959 -1026 0
-960 -1027 0
-961 -1028 0
-955 -1067 0
-957 -1069 0
-960 -1071 0
-961 -1072 0
-955 -1080 0
-956 -1081 0
-959 -1083 0
-960 -1085 0
-961 -1086 0
-955 -1087 0
-956 -1088 0
-958 -1089 0
-960 -1091 0
-961 -1092 0
-956 -1102 0
-960 -1105 0
-961 -1106 0
-956 -1117 0
-957 -1118 0
-959 -1119 0
-960 -1120 0
-961 -1121 0
-955 -1129 0
-960 -1133 0
-961 -1134 0
-955 -1135 0
-958 -1136 0
-959 -1137 0
-960 -1139 0
-961 -1140 0
-959 -1143 0
-960 -1145 0
-961 -1146 0
-956 -1154 0
-957 -1156 0
-960 -1158 0
-961 -1159 0
-956 -1161 0
-957 -1162 0
-958 -1163 0
-959 -1164 0
-960 -1167 0
-961 -1168 0
-957 -1170 0
-960 -1173 0
-961 -1174 0
-956 -1183 0
-957 -1185 0
-958 -1186 0
-960 -1187 0
-961 -1188 0
-957 -1232 0
-958 -1233 0
-959 -1234 0
-960 -1237 0
-961 -1238 0
-956 -1254 0
-958 -1256 0
-960 -1259 0
-961 -1260 0
-956 -1261 0
-958 -1263 0
-959 -1264 0
-960 -1265 0
-961 -1266 0
-955 -1304 0
-958 -1306 0
-959 -1307 0
-960 -1309 0
-961 -1310 0
-955 -1311 0
-960 -1315 0
-961 -1316 0
-958 -1328 0
-960 -1330 0
-961 -1331 0
-957 -1355 0
-958 -1356 0
-959 -1357 0
-960 -1360 0
-961 -1361 0
-957 -1379 0
-958 -1380 0
-960 -1383 0
-961 -1384 0
-957 -1387 0
-959 -1388 0
-960 -1390 0
-961 -1391 0
-957 -1402 0
-960 -1405 0
-961 -1406 0
-958 -1482 0
-959 -1483 0
-960 -1486 0
-961 -1487 0
-958 -1508 0
-960 -1511 0
-961 -1512 0
-956 -1520 0
-957 -1522 0
-958 -1523 0
-959 -1524 0
-960 -1527 0
-961 -1528 0
-956 -1530 0
-957 -1531 0
-960 -1533 0
-961 -1534 0
-957 -1536 0
-958 -1537 0
-959 -1538 0
-960 -1539 0
-961 -1540 0
-956 -1541 0
-958 -1543 0
-959 -1544 0
-960 -1545 0
-961 -1546 0
-956 -1547 0
-959 -1548 0
-960 -1551 0
-961 -1552 0
-955 -1565 0
-959 -1567 0
-960 -1570 0
-961 -1571 0
-955 -1578 0
-957 -1580 0
-958 -1581 0
-959 -1582 0
-960 -1583 0
-961 -1584 0
-955 -1585 0
-957 -1586 0
-958 -1587 0
-960 -1590 0
-961 -1591 0
-957 -1600 0
-958 -1601 0
-960 -1603 0
-961 -1604 0
-957 -1612 0
-958 -1613 0
-959 -1614 0
-960 -1616 0
-961 -1617 0
-958 -1632 0
-960 -1634 0
-961 -1635 0
-958 -1637 0
-959 -1638 0
-960 -1640 0
-961 -1641 0
-956 -1668 0
-958 -1669 0
-959 -1670 0
-960 -1672 0
-961 -1673 0
-956 -1674 0
-957 -1675 0
-958 -1676 0
-959 -1677 0
-960 -1679 0
-961 -1680 0
-958 -1682 0
-960 -1685 0
-961 -1686 0
-956 -1695 0
-957 -1696 0
-958 -1697 0
-960 -1699 0
-961 -1700 0
-957 -1701 0
-958 -1702 0
-959 -1703 0
-960 -1706 0
-961 -1707 0
-955 -1708 0
-957 -1709 0
-959 -1710 0
-960 -1712 0
-961 -1713 0
-958 -1715 0
-959 -1716 0
-960 -1718 0
-961 -1719 0
-959 -1722 0
-960 -1724 0
-961 -1725 0
-958 -1727 0
-960 -1730 0
-961 -1731 0
-957 -1739 0
-959 -1740 0
-960 -1742 0
-961 -1743 0
-957 -1744 0
-958 -1745 0
-959 -1746 0
-960 -1749 0
-961 -1750 0
-957 -1758 0
-958 -1759 0
-960 -1761 0
-961 -1762 0
-957 -1779 0
-960 -1782 0
-961 -1783 0
-957 -1792 0
-958 -1793 0
-960 -1795 0
-961 -1796 0
-956 -1838 0
-959 -1839 0
-960 -1842 0
-961 -1843 0
-958 -1846 0
-959 -1847 0
-960 -1850 0
-961 -1851 0
-964 -1081 0
-967 -1083 0
-968 -1085 0
-969 -1086 0
-964 -1088 0
-966 -1089 0
-968 -1091 0
-969 -1092 0
-964 -1094 0
-965 -1095 0
-968 -1098 0
-969 -1099 0
-968 -1133 0
-969 -1134 0
-966 -1136 0
-967 -1137 0
-968 -1139 0
-969 -1140 0
-962 -1147 0
-966 -1149 0
-968 -1151 0
-969 -1152 0
-962 -1153 0
-964 -1154 0
-965 -1156 0
-968 -1158 0
-969 -1159 0
-962 -1160 0
-964 -1161 0
-965 -1162 0
-966 -1163 0
-967 -1164 0
-968 -1167 0
-969 -1168 0
-964 -1254 0
-966 -1256 0
-968 -1259 0
-969 -1260 0
-964 -1261 0
-966 -1263 0
-967 -1264 0
-968 -1265 0
-969 -1266 0
-964 -1267 0
-965 -1269 0
-966 -1270 0
-967 -1271 0
-968 -1273 0
-969 -1274 0
-966 -1306 0
-967 -1307 0
-968 -1309 0
-969 -1310 0
-968 -1315 0
-969 -1316 0
-964 -1318 0
-965 -1320 0
-966 -1321 0
-968 -1323 0
-969 -1324 0
-962 -1377 0
-965 -1379 0
-966 -1380 0
-968 -1383 0
-969 -1384 0
-962 -1385 0
-965 -1387 0
-967 -1388 0
-968 -1390 0
-969 -1391 0
-966 -1482 0
-967 -1483 0
-968 -1486 0
-969 -1487 0
-964 -1488 0
-965 -1490 0
-967 -1491 0
-968 -1493 0
-969 -1494 0
-963 -1513 0
-967 -1515 0
-968 -1517 0
-969 -1518 0
-963 -1519 0
-964 -1520 0
-965 -1522 0
-966 -1523 0
-967 -1524 0
-968 -1527 0
-969 -1528 0
-963 -1529 0
-964 -1530 0
-965 -1531 0
-968 -1533 0
-969 -1534 0
-964 -1541 0
-966 -1543 0
-967 -1544 0
-968 -1545 0
-969 -1546 0
-964 -1547 0
-967 -1548 0
-968 -1551 0
-969 -1552 0
-962 -1566 0
-967 -1567 0
-968 -1570 0
-969 -1571 0
-965 -1580 0
-966 -1581 0
-967 -1582 0
-968 -1583 0
-969 -1584 0
-965 -1586 0
-966 -1587 0
-968 -1590 0
-969 -1591 0
-964 -1593 0
-966 -1594 0
-968 -1596 0
-969 -1597 0
-966 -1625 0
-967 -1626 0
-968 -1628 0
-969 -1629 0
-962 -1630 0
-966 -1632 0
-968 -1634 0
-969 -1635 0
-962 -1636 0
-966 -1637 0
-967 -1638 0
-968 -1640 0
-969 -1641 0
-963 -1661 0
-965 -1662 0
-966 -1663 0
-967 -1664 0
-968 -1665 0
-969 -1666 0
-963 -1667 0
-964 -1668 0
-966 -1669 0
-967 -1670 0
-968 -1672 0
-969 -1673 0
-964 -1674 0
-965 -1675 0
-966 -1676 0
-967 -1677 0
-968 -1679 0
-969 -1680 0
-963 -1681 0
-966 -1682 0
-968 -1685 0
-969 -1686 0
-965 -1701 0
-966 -1702 0
-967 -1703 0
-968 -1706 0
-969 -1707 0
-962 -1714 0
-966 -1715 0
-967 -1716 0
-968 -1718 0
-969 -1719 0
-963 -1720 0
-967 -1722 0
-968 -1724 0
-969 -1725 0
-963 -1726 0
-966 -1727 0
-968 -1730 0
-969 -1731 0
-965 -1739 0
-967 -1740 0
-968 -1742 0
-969 -1743 0
-965 -1744 0
-966 -1745 0
-967 -1746 0
-968 -1749 0
-969 -1750 0
-964 -1751 0
-967 -1752 0
-968 -1755 0
-969 -1756 0
-965 -1831 0
-966 -1832 0
-967 -1833 0
-968 -1836 0
-969 -1837 0
-964 -1838 0
-967 -1839 0
-968 -1842 0
-969 -1843 0
-966 -1846 0
-967 -1847 0
-968 -1850 0
-969 -1851 0
-971 -1008 0
-972 -1009 0
-974 -1011 0
-975 -1012 0
-976 -1013 0
-971 -1075 0
-974 -1077 0
-975 -1078 0
-976 -1079 0
-971 -1094 0
-973 -1095 0
-974 -1096 0
-975 -1098 0
-976 -1099 0
-972 -1130 0
-974 -1131 0
-975 -1133 0
-976 -1134 0
-974 -1138 0
-975 -1139 0
-976 -1140 0
-970 -1141 0
-974 -1144 0
-975 -1145 0
-976 -1146 0
-970 -1153 0
-971 -1154 0
-972 -1155 0
-973 -1156 0
-974 -1157 0
-975 -1158 0
-976 -1159 0
-970 -1160 0
-971 -1161 0
-973 -1162 0
-974 -1165 0
-975 -1167 0
-976 -1168 0
-971 -1240 0
-972 -1241 0
-974 -1243 0
-975 -1245 0
-976 -1246 0
-971 -1248 0
-974 -1251 0
-975 -1252 0
-976 -1253 0
-971 -1267 0
-972 -1268 0
-973 -1269 0
-974 -1272 0
-975 -1273 0
-976 -1274 0
-972 -1291 0
-974 -1293 0
-975 -1295 0
-976 -1296 0
-975 -1302 0
-976 -1303 0
-971 -1318 0
-972 -1319 0
-973 -1320 0
-975 -1323 0
-976 -1324 0
-970 -1377 0
-972 -1378 0
-973 -1379 0
-974 -1381 0
-975 -1383 0
-976 -1384 0
-970 -1385 0
-972 -1386 0
-973 -1387 0
-975 -1390 0
-976 -1391 0
-972 -1468 0
-974 -1471 0
-975 -1472 0
-976 -1473 0
-972 -1475 0
-975 -1478 0
-976 -1479 0
-971 -1488 0
-972 -1489 0
-973 -1490 0
-975 -1493 0
-976 -1494 0
-974 -1509 0
-975 -1511 0
-976 -1512 0
-971 -1520 0
-972 -1521 0
-973 -1522 0
-974 -1525 0
-975 -1527 0
-976 -1528 0
-971 -1530 0
-973 -1531 0
-975 -1533 0
-976 -1534 0
-972 -1553 0
-973 -1554 0
-974 -1556 0
-975 -1557 0
-976 -1558 0
-972 -1559 0
-973 -1560 0
-975 -1563 0
-976 -1564 0
-970 -1566 0
-974 -1568 0
-975 -1570 0
-976 -1571 0
-973 -1574 0
-974 -1575 0
-975 -1576 0
-976 -1577 0
-971 -1593 0
-975 -1596 0
-976 -1597 0
-970 -1630 0
-972 -1631 0
-974 -1633 0
-975 -1634 0
-976 -1635 0
-970 -1636 0
-975 -1640 0
-976 -1641 0
-970 -1642 0
-973 -1643 0
-974 -1644 0
-975 -1646 0
-976 -1647 0
-974 -1651 0
-975 -1652 0
-976 -1653 0
-971 -1668 0
-974 -1671 0
-975 -1672 0
-976 -1673 0
-972 -1687 0
-974 -1690 0
-975 -1692 0
-976 -1693 0
-973 -1701 0
-974 -1704 0
-975 -1706 0
-976 -1707 0
-970 -1714 0
-975 -1718 0
-976 -1719 0
-972 -1721 0
-975 -1724 0
-976 -1725 0
-974 -1728 0
-975 -1730 0
-976 -1731 0
-973 -1733 0
-975 -1736 0
-976 -1737 0
-971 -1751 0
-974 -1753 0
-975 -1755 0
-976 -1756 0
-973 -1772 0
-974 -1774 0
-975 -1776 0
-976 -1777 0
-972 -1818 0
-973 -1819 0
-974 -1821 0
-975 -1822 0
-976 -1823 0
-973 -1824 0
-974 -1827 0
-975 -1829 0
-976 -1830 0
-971 -1838 0
-974 -1840 0
-975 -1842 0
-976 -1843 0
-972 -1845 0
-974 -1848 0
-975 -1850 0
-976 -1851 0
-973 -1853 0
-974 -1856 0
-975 -1858 0
-976 -1859 0
-979 -1001 0
-980 -1002 0
-981 -1003 0
-982 -1005 0
-983 -1006 0
-980 -1069 0
-982 -1071 0
-983 -1072 0
-978 -1088 0
-981 -1089 0
-982 -1091 0
-983 -1092 0
-979 -1130 0
-982 -1133 0
-983 -1134 0
-977 -1141 0
-982 -1145 0
-983 -1146 0
-977 -1147 0
-979 -1148 0
-981 -1149 0
-982 -1151 0
-983 -1152 0
-977 -1160 0
-978 -1161 0
-980 -1162 0
-981 -1163 0
-982 -1167 0
-983 -1168 0
-977 -1169 0
-980 -1170 0
-982 -1173 0
-983 -1174 0
-979 -1231 0
-980 -1232 0
-981 -1233 0
-982 -1237 0
-983 -1238 0
-978 -1248 0
-981 -1249 0
-982 -1252 0
-983 -1253 0
-978 -1261 0
-979 -1262 0
-981 -1263 0
-982 -1265 0
-983 -1266 0
-978 -1282 0
-980 -1283 0
-981 -1284 0
-982 -1287 0
-983 -1288 0
-981 -1299 0
-982 -1302 0
-983 -1303 0
-979 -1312 0
-982 -1315 0
-983 -1316 0
-980 -1340 0
-981 -1341 0
-982 -1344 0
-983 -1345 0
-977 -1385 0
-979 -1386 0
-980 -1387 0
-982 -1390 0
-983 -1391 0
-979 -1475 0
-982 -1478 0
-983 -1479 0
-979 -1481 0
-981 -1482 0
-982 -1486 0
-983 -1487 0
-979 -1501 0
-980 -1502 0
-982 -1505 0
-983 -1506 0
-981 -1508 0
-982 -1511 0
-983 -1512 0
-979 -1514 0
-982 -1517 0
-983 -1518 0
-978 -1530 0
-980 -1531 0
-982 -1533 0
-983 -1534 0
-980 -1536 0
-981 -1537 0
-982 -1539 0
-983 -1540 0
-978 -1547 0
-982 -1551 0
-983 -1552 0
-979 -1553 0
-980 -1554 0
-982 -1557 0
-983 -1558 0
-980 -1586 0
-981 -1587 0
-982 -1590 0
-983 -1591 0
-981 -1625 0
-982 -1628 0
-983 -1629 0
-977 -1636 0
-981 -1637 0
-982 -1640 0
-983 -1641 0
-981 -1649 0
-982 -1652 0
-983 -1653 0
-977 -1654 0
-980 -1655 0
-981 -1656 0
-982 -1659 0
-983 -1660 0
-980 -1662 0
-981 -1663 0
-982 -1665 0
-983 -1666 0
-981 -1682 0
-982 -1685 0
-983 -1686 0
-979 -1687 0
-981 -1688 0
-982 -1692 0
-983 -1693 0
-978 -1695 0
-980 -1696 0
-981 -1697 0
-982 -1699 0
-983 -1700 0
-980 -1701 0
-981 -1702 0
-982 -1706 0
-983 -1707 0
-980 -1709 0
-982 -1712 0
-983 -1713 0
-981 -1727 0
-982 -1730 0
-983 -1731 0
-980 -1744 0
-981 -1745 0
-982 -1749 0
-983 -1750 0
-979 -1757 0
-980 -1758 0
-981 -1759 0
-982 -1761 0
-983 -1762 0
-980 -1764 0
-982 -1768 0
-983 -1769 0
-980 -1824 0
-981 -1825 0
-982 -1829 0
-983 -1830 0
-980 -1831 0
-981 -1832 0
-982 -1836 0
-983 -1837 0
-986 -994 0
-987 -995 0
-988 -996 0
-989 -997 0
-990 -998 0
-991 -999 0
-986 -1069 0
-988 -1070 0
-990 -1071 0
-991 -1072 0
-985 -1075 0
-988 -1077 0
-990 -1078 0
-991 -1079 0
-985 -1081 0
-987 -1083 0
-988 -1084 0
-990 -1085 0
-991 -1086 0
-985 -1108 0
-986 -1109 0
-987 -1111 0
-988 -1112 0
-989 -1113 0
-990 -1114 0
-991 -1115 0
-987 -1137 0
-988 -1138 0
-990 -1139 0
-991 -1140 0
-984 -1141 0
-987 -1143 0
-988 -1144 0
-990 -1145 0
-991 -1146 0
-984 -1147 0
-988 -1150 0
-990 -1151 0
-991 -1152 0
-984 -1153 0
-985 -1154 0
-986 -1156 0
-988 -1157 0
-990 -1158 0
-991 -1159 0
-984 -1169 0
-986 -1170 0
-988 -1171 0
-989 -1172 0
-990 -1173 0
-991 -1174 0
-986 -1232 0
-987 -1234 0
-988 -1235 0
-989 -1236 0
-990 -1237 0
-991 -1238 0
-985 -1240 0
-987 -1242 0
-988 -1243 0
-989 -1244 0
-990 -1245 0
-991 -1246 0
-985 -1254 0
-988 -1257 0
-989 -1258 0
-990 -1259 0
-991 -1260 0
-985 -1275 0
-986 -1277 0
-988 -1278 0
-989 -1279 0
-990 -1280 0
-991 -1281 0
-988 -1293 0
-989 -1294 0
-990 -1295 0
-991 -1296 0
-987 -1307 0
-989 -1308 0
-990 -1309 0
-991 -1310 0
-986 -1334 0
-987 -1336 0
-990 -1337 0
-991 -1338 0
-984 -1377 0
-986 -1379 0
-988 -1381 0
-989 -1382 0
-990 -1383 0
-991 -1384 0
-987 -1470 0
-988 -1471 0
-990 -1472 0
-991 -1473 0
-986 -1496 0
-989 -1498 0
-990 -1499 0
-991 -1500 0
-988 -1509 0
-989 -1510 0
-990 -1511 0
-991 -1512 0
-987 -1515 0
-989 -1516 0
-990 -1517 0
-991 -1518 0
-985 -1520 0
-986 -1522 0
-987 -1524 0
-988 -1525 0
-989 -1526 0
-990 -1527 0
-991 -1528 0
-986 -1536 0
-987 -1538 0
-990 -1539 0
-991 -1540 0
-985 -1541 0
-987 -1544 0
-990 -1545 0
-991 -1546 0
-986 -1560 0
-989 -1562 0
-990 -1563 0
-991 -1564 0
-984 -1566 0
-987 -1567 0
-988 -1568 0
-989 -1569 0
-990 -1570 0
-991 -1571 0
-986 -1574 0
-988 -1575 0
-990 -1576 0
-991 -1577 0
-986 -1580 0
-987 -1582 0
-990 -1583 0
-991 -1584 0
-986 -1606 0
-987 -1607 0
-989 -1608 0
-990 -1609 0
-991 -1610 0
-987 -1626 0
-988 -1627 0
-990 -1628 0
-991 -1629 0
-984 -1630 0
-988 -1633 0
-990 -1634 0
-991 -1635 0
-984 -1642 0
-986 -1643 0
-988 -1644 0
-989 -1645 0
-990 -1646 0
-991 -1647 0
-986 -1662 0
-987 -1664 0
-990 -1665 0
-991 -1666 0
-985 -1668 0
-987 -1670 0
-988 -1671 0
-990 -1672 0
-991 -1673 0
-985 -1674 0
-986 -1675 0
-987 -1677 0
-989 -1678 0
-990 -1679 0
-991 -1680 0
-985 -1695 0
-986 -1696 0
-988 -1698 0
-990 -1699 0
-991 -1700 0
-986 -1709 0
-987 -1710 0
-989 -1711 0
-990 -1712 0
-991 -1713 0
-984 -1714 0
-987 -1716 0
-989 -1717 0
-990 -1718 0
-991 -1719 0
-987 -1722 0
-989 -1723 0
-990 -1724 0
-991 -1725 0
-986 -1733 0
-987 -1735 0
-990 -1736 0
-991 -1737 0
-986 -1739 0
-987 -1740 0
-988 -1741 0
-990 -1742 0
-991 -1743 0
-986 -1758 0
-989 -1760 0
-990 -1761 0
-991 -1762 0
-986 -1772 0
-988 -1774 0
-989 -1775 0
-990 -1776 0
-991 -1777 0
-986 -1819 0
-987 -1820 0
-988 -1821 0
-990 -1822 0
-991 -1823 0
-986 -1831 0
-987 -1833 0
-988 -1834 0
-989 -1835 0
-990 -1836 0
-991 -1837 0
-985 -1838 0
-987 -1839 0
-988 -1840 0
-989 -1841 0
-990 -1842 0
-991 -1843 0
-987 -1847 0
-988 -1848 0
-989 -1849 0
-990 -1850 0
-991 -1851 0
-986 -1853 0
-987 -1855 0
-988 -1856 0
-989 -1857 0
-990 -1858 0
-991 -1859 0
-992 -1087 0
-997 -1090 0
-998 -1091 0
-999 -1092 0
-992 -1093 0
-994 -1095 0
-996 -1096 0
-997 -1097 0
-998 -1098 0
-999 -1099 0
-996 -1103 0
-997 -1104 0
-998 -1105 0
-999 -1106 0
-994 -1118 0
-995 -1119 0
-998 -1120 0
-999 -1121 0
-995 -1125 0
-996 -1126 0
-998 -1127 0
-999 -1128 0
-994 -1162 0
-995 -1164 0
-996 -1165 0
-997 -1166 0
-998 -1167 0
-999 -1168 0
-995 -1198 0
-997 -1199 0
-998 -1200 0
-999 -1201 0
-994 -1224 0
-996 -1226 0
-998 -1227 0
-999 -1228 0
-992 -1297 0
-995 -1300 0
-997 -1301 0
-998 -1302 0
-999 -1303 0
-992 -1311 0
-993 -1312 0
-996 -1313 0
-997 -1314 0
-998 -1315 0
-999 -1316 0
-992 -1317 0
-993 -1319 0
-994 -1320 0
-997 -1322 0
-998 -1323 0
-999 -1324 0
-993 -1327 0
-997 -1329 0
-998 -1330 0
-999 -1331 0
-992 -1339 0
-994 -1340 0
-996 -1342 0
-997 -1343 0
-998 -1344 0
-999 -1345 0
-994 -1348 0
-997 -1350 0
-998 -1351 0
-999 -1352 0
-993 -1354 0
-994 -1355 0
-995 -1357 0
-996 -1358 0
-997 -1359 0
-998 -1360 0
-999 -1361 0
-993 -1364 0
-995 -1366 0
-997 -1367 0
-998 -1368 0
-999 -1369 0
-993 -1386 0
-994 -1387 0
-995 -1388 0
-997 -1389 0
-998 -1390 0
-999 -1391 0
-993 -1416 0
-995 -1417 0
-996 -1418 0
-997 -1419 0
-998 -1420 0
-999 -1421 0
-994 -1438 0
-995 -1440 0
-996 -1441 0
-997 -1442 0
-998 -1443 0
-999 -1444 0
-993 -1454 0
-994 -1455 0
-996 -1456 0
-997 -1457 0
-998 -1458 0
-999 -1459 0
-993 -1461 0
-996 -1463 0
-997 -1464 0
-998 -1465 0
-999 -1466 0
-996 -1509 0
-997 -1510 0
-998 -1511 0
-999 -1512 0
-993 -1514 0
-995 -1515 0
-997 -1516 0
-998 -1517 0
-999 -1518 0
-993 -1521 0
-994 -1522 0
-995 -1524 0
-996 -1525 0
-997 -1526 0
-998 -1527 0
-999 -1528 0
-994 -1536 0
-995 -1538 0
-998 -1539 0
-999 -1540 0
-993 -1542 0
-995 -1544 0
-998 -1545 0
-999 -1546 0
-993 -1559 0
-994 -1560 0
-997 -1562 0
-998 -1563 0
-999 -1564 0
-992 -1565 0
-995 -1567 0
-996 -1568 0
-997 -1569 0
-998 -1570 0
-999 -1571 0
-992 -1585 0
-994 -1586 0
-996 -1588 0
-997 -1589 0
-998 -1590 0
-999 -1591 0
-992 -1592 0
-997 -1595 0
-998 -1596 0
-999 -1597 0
-994 -1600 0
-997 -1602 0
-998 -1603 0
-999 -1604 0
-994 -1612 0
-995 -1614 0
-996 -1615 0
-998 -1616 0
-999 -1617 0
-994 -1620 0
-995 -1621 0
-998 -1622 0
-999 -1623 0
-995 -1638 0
-997 -1639 0
-998 -1640 0
-999 -1641 0
-992 -1648 0
-995 -1650 0
-996 -1651 0
-998 -1652 0
-999 -1653 0
-994 -1655 0
-995 -1657 0
-996 -1658 0
-998 -1659 0
-999 -1660 0
-994 -1662 0
-995 -1664 0
-998 -1665 0
-999 -1666 0
-995 -1670 0
-996 -1671 0
-998 -1672 0
-999 -1673 0
-994 -1675 0
-995 -1677 0
-997 -1678 0
-998 -1679 0
-999 -1680 0
-994 -1696 0
-996 -1698 0
-998 -1699 0
-999 -1700 0
-993 -1721 0
-995 -1722 0
-997 -1723 0
-998 -1724 0
-999 -1725 0
-994 -1733 0
-995 -1735 0
-998 -1736 0
-999 -1737 0
-993 -1738 0
-994 -1739 0
-995 -1740 0
-996 -1741 0
-998 -1742 0
-999 -1743 0
-993 -1757 0
-994 -1758 0
-997 -1760 0
-998 -1761 0
-999 -1762 0
-994 -1779 0
-996 -1780 0
-997 -1781 0
-998 -1782 0
-999 -1783 0
-994 -1805 0
-995 -1807 0
-997 -1808 0
-998 -1809 0
-999 -1810 0
-994 -1831 0
-995 -1833 0
-996 -1834 0
-997 -1835 0
-998 -1836 0
-999 -1837 0
-995 -1839 0
-996 -1840 0
-997 -1841 0
-998 -1842 0
-999 -1843 0
-993 -1845 0
-995 -1847 0
-996 -1848 0
-997 -1849 0
-998 -1850 0
-999 -1851 0
-994 -1853 0
-995 -1855 0
-996 -1856 0
-997 -1857 0
-998 -1858 0
-999 -1859 0
-1000 -1073 0
-1003 -1076 0
-1005 -1078 0
-1006 -1079 0
-1000 -1080 0
-1001 -1082 0
-1004 -1083 0
-1005 -1085 0
-1006 -1086 0
-1000 -1093 0
-1002 -1095 0
-1005 -1098 0
-1006 -1099 0
-1005 -1105 0
-1006 -1106 0
-1000 -1107 0
-1002 -1109 0
-1003 -1110 0
-1004 -1111 0
-1005 -1114 0
-1006 -1115 0
-1002 -1118 0
-1004 -1119 0
-1005 -1120 0
-1006 -1121 0
-1001 -1155 0
-1002 -1156 0
-1005 -1158 0
-1006 -1159 0
-1001 -1191 0
-1005 -1193 0
-1006 -1194 0
-1002 -1210 0
-1003 -1211 0
-1005 -1214 0
-1006 -1215 0
-1001 -1217 0
-1002 -1218 0
-1004 -1219 0
-1005 -1221 0
-1006 -1222 0
-1000 -1289 0
-1001 -1291 0
-1003 -1292 0
-1005 -1295 0
-1006 -1296 0
-1000 -1304 0
-1001 -1305 0
-1003 -1306 0
-1004 -1307 0
-1005 -1309 0
-1006 -1310 0
-1000 -1317 0
-1001 -1319 0
-1002 -1320 0
-1003 -1321 0
-1005 -1323 0
-1006 -1324 0
-1001 -1327 0
-1003 -1328 0
-1005 -1330 0
-1006 -1331 0
-1000 -1332 0
-1001 -1333 0
-1002 -1334 0
-1003 -1335 0
-1004 -1336 0
-1005 -1337 0
-1006 -1338 0
-1002 -1348 0
-1003 -1349 0
-1005 -1351 0
-1006 -1352 0
-1001 -1354 0
-1002 -1355 0
-1003 -1356 0
-1004 -1357 0
-1005 -1360 0
-1006 -1361 0
-1003 -1372 0
-1005 -1375 0
-1006 -1376 0
-1001 -1378 0
-1002 -1379 0
-1003 -1380 0
-1005 -1383 0
-1006 -1384 0
-1001 -1409 0
-1003 -1410 0
-1005 -1412 0
-1006 -1413 0
-1001 -1431 0
-1002 -1432 0
-1003 -1433 0
-1005 -1434 0
-1006 -1435 0
-1001 -1446 0
-1002 -1447 0
-1003 -1448 0
-1004 -1449 0
-1005 -1451 0
-1006 -1452 0
-1001 -1461 0
-1003 -1462 0
-1005 -1465 0
-1006 -1466 0
-1003 -1508 0
-1005 -1511 0
-1006 -1512 0
-1001 -1514 0
-1004 -1515 0
-1005 -1517 0
-1006 -1518 0
-1002 -1531 0
-1005 -1533 0
-1006 -1534 0
-1002 -1536 0
-1003 -1537 0
-1004 -1538 0
-1005 -1539 0
-1006 -1540 0
-1004 -1548 0
-1005 -1551 0
-1006 -1552 0
-1001 -1553 0
-1002 -1554 0
-1004 -1555 0
-1005 -1557 0
-1006 -1558 0
-1000 -1572 0
-1002 -1574 0
-1005 -1576 0
-1006 -1577 0
-1000 -1578 0
-1001 -1579 0
-1002 -1580 0
-1003 -1581 0
-1004 -1582 0
-1005 -1583 0
-1006 -1584 0
-1000 -1592 0
-1003 -1594 0
-1005 -1596 0
-1006 -1597 0
-1002 -1600 0
-1003 -1601 0
-1005 -1603 0
-1006 -1604 0
-1000 -1605 0
-1002 -1606 0
-1004 -1607 0
-1005 -1609 0
-1006 -1610 0
-1002 -1612 0
-1003 -1613 0
-1004 -1614 0
-1005 -1616 0
-1006 -1617 0
-1001 -1631 0
-1003 -1632 0
-1005 -1634 0
-1006 -1635 0
-1002 -1643 0
-1005 -1646 0
-1006 -1647 0
-1002 -1662 0
-1003 -1663 0
-1004 -1664 0
-1005 -1665 0
-1006 -1666 0
-1003 -1682 0
-1005 -1685 0
-1006 -1686 0
-1001 -1687 0
-1003 -1688 0
-1004 -1689 0
-1005 -1692 0
-1006 -1693 0
-1002 -1696 0
-1003 -1697 0
-1005 -1699 0
-1006 -1700 0
-1002 -1701 0
-1003 -1702 0
-1004 -1703 0
-1005 -1706 0
-1006 -1707 0
-1003 -1727 0
-1005 -1730 0
-1006 -1731 0
-1002 -1744 0
-1003 -1745 0
-1004 -1746 0
-1005 -1749 0
-1006 -1750 0
-1001 -1757 0
-1002 -1758 0
-1003 -1759 0
-1005 -1761 0
-1006 -1762 0
-1000 -1771 0
-1002 -1772 0
-1003 -1773 0
-1005 -1776 0
-1006 -1777 0
-1002 -1779 0
-1005 -1782 0
-1006 -1783 0
-1001 -1798 0
-1002 -1799 0
-1005 -1802 0
-1006 -1803 0
-1002 -1813 0
-1003 -1814 0
-1005 -1816 0
-1006 -1817 0
-1002 -1831 0
-1003 -1832 0
-1004 -1833 0
-1005 -1836 0
-1006 -1837 0
-1007 -1067 0
-1011 -1070 0
-1012 -1071 0
-1013 -1072 0
-1007 -1080 0
-1008 -1081 0
-1009 -1082 0
-1010 -1083 0
-1011 -1084 0
-1012 -1085 0
-1013 -1086 0
-1007 -1087 0
-1008 -1088 0
-1012 -1091 0
-1013 -1092 0
-1008 -1102 0
-1011 -1103 0
-1012 -1105 0
-1013 -1106 0
-1007 -1107 0
-1008 -1108 0
-1010 -1111 0
-1011 -1112 0
-1012 -1114 0
-1013 -1115 0
-1008 -1123 0
-1010 -1125 0
-1011 -1126 0
-1012 -1127 0
-1013 -1128 0
-1009 -1148 0
-1011 -1150 0
-1012 -1151 0
-1013 -1152 0
-1011 -1171 0
-1012 -1173 0
-1013 -1174 0
-1008 -1183 0
-1009 -1184 0
-1012 -1187 0
-1013 -1188 0
-1008 -1203 0
-1012 -1206 0
-1013 -1207 0
-1008 -1216 0
-1009 -1217 0
-1010 -1219 0
-1012 -1221 0
-1013 -1222 0
-1008 -1223 0
-1011 -1226 0
-1012 -1227 0
-1013 -1228 0
-1007 -1304 0
-1009 -1305 0
-1010 -1307 0
-1012 -1309 0
-1013 -1310 0
-1007 -1311 0
-1009 -1312 0
-1011 -1313 0
-1012 -1315 0
-1013 -1316 0
-1009 -1327 0
-1012 -1330 0
-1013 -1331 0
-1007 -1332 0
-1009 -1333 0
-1010 -1336 0
-1012 -1337 0
-1013 -1338 0
-1007 -1339 0
-1011 -1342 0
-1012 -1344 0
-1013 -1345 0
-1012 -1351 0
-1013 -1352 0
-1008 -1363 0
-1009 -1364 0
-1010 -1366 0
-1012 -1368 0
-1013 -1369 0
-1008 -1371 0
-1011 -1373 0
-1012 -1375 0
-1013 -1376 0
-1009 -1401 0
-1011 -1403 0
-1012 -1405 0
-1013 -1406 0
-1009 -1423 0
-1011 -1426 0
-1012 -1427 0
-1013 -1428 0
-1008 -1445 0
-1009 -1446 0
-1010 -1449 0
-1011 -1450 0
-1012 -1451 0
-1013 -1452 0
-1008 -1453 0
-1009 -1454 0
-1011 -1456 0
-1012 -1458 0
-1013 -1459 0
-1011 -1509 0
-1012 -1511 0
-1013 -1512 0
-1008 -1520 0
-1009 -1521 0
-1010 -1524 0
-1011 -1525 0
-1012 -1527 0
-1013 -1528 0
-1008 -1530 0
-1012 -1533 0
-1013 -1534 0
-1009 -1553 0
-1010 -1555 0
-1011 -1556 0
-1012 -1557 0
-1013 -1558 0
-1009 -1559 0
-1012 -1563 0
-1013 -1564 0
-1007 -1565 0
-1010 -1567 0
-1011 -1568 0
-1012 -1570 0
-1013 -1571 0
-1007 -1578 0
-1009 -1579 0
-1010 -1582 0
-1012 -1583 0
-1013 -1584 0
-1007 -1585 0
-1011 -1588 0
-1012 -1590 0
-1013 -1591 0
-1012 -1603 0
-1013 -1604 0
-1007 -1605 0
-1010 -1607 0
-1012 -1609 0
-1013 -1610 0
-1008 -1619 0
-1010 -1621 0
-1012 -1622 0
-1013 -1623 0
-1010 -1657 0
-1011 -1658 0
-1012 -1659 0
-1013 -1660 0
-1008 -1668 0
-1010 -1670 0
-1011 -1671 0
-1012 -1672 0
-1013 -1673 0
-1009 -1687 0
-1010 -1689 0
-1011 -1690 0
-1012 -1692 0
-1013 -1693 0
-1010 -1703 0
-1011 -1704 0
-1012 -1706 0
-1013 -1707 0
-1007 -1708 0
-1010 -1710 0
-1012 -1712 0
-1013 -1713 0
-1009 -1721 0
-1010 -1722 0
-1012 -1724 0
-1013 -1725 0
-1011 -1728 0
-1012 -1730 0
-1013 -1731 0
-1010 -1735 0
-1012 -1736 0
-1013 -1737 0
-1008 -1751 0
-1010 -1752 0
-1011 -1753 0
-1012 -1755 0
-1013 -1756 0
-1011 -1780 0
-1012 -1782 0
-1013 -1783 0
-1009 -1791 0
-1012 -1795 0
-1013 -1796 0
-1008 -1838 0
-1010 -1839 0
-1011 -1840 0
-1012 -1842 0
-1013 -1843 0
-1009 -1845 0
-1010 -1847 0
-1011 -1848 0
-1012 -1850 0
-1013 -1851 0
-1010 -1855 0
-1011 -1856 0
-1012 -1858 0
-1013 -1859 0
-1016 -1082 0
-1018 -1083 0
-1019 -1084 0
-1020 -1085 0
-1021 -1086 0
-1020 -1091 0
-1021 -1092 0
-1017 -1095 0
-1019 -1096 0
-1020 -1098 0
-1021 -1099 0
-1017 -1109 0
-1018 -1111 0
-1019 -1112 0
-1020 -1114 0
-1021 -1115 0
-1014 -1116 0
-1017 -1118 0
-1018 -1119 0
-1020 -1120 0
-1021 -1121 0
-1014 -1122 0
-1018 -1125 0
-1019 -1126 0
-1020 -1127 0
-1021 -1128 0
-1016 -1217 0
-1017 -1218 0
-1018 -1219 0
-1020 -1221 0
-1021 -1222 0
-1017 -1224 0
-1019 -1226 0
-1020 -1227 0
-1021 -1228 0
-1016 -1305 0
-1018 -1307 0
-1020 -1309 0
-1021 -1310 0
-1016 -1312 0
-1019 -1313 0
-1020 -1315 0
-1021 -1316 0
-1016 -1319 0
-1017 -1320 0
-1020 -1323 0
-1021 -1324 0
-1016 -1333 0
-1017 -1334 0
-1018 -1336 0
-1020 -1337 0
-1021 -1338 0
-1017 -1340 0
-1019 -1342 0
-1020 -1344 0
-1021 -1345 0
-1014 -1353 0
-1016 -1354 0
-1017 -1355 0
-1018 -1357 0
-1019 -1358 0
-1020 -1360 0
-1021 -1361 0
-1014 -1362 0
-1016 -1364 0
-1018 -1366 0
-1020 -1368 0
-1021 -1369 0
-1014 -1370 0
-1019 -1373 0
-1020 -1375 0
-1021 -1376 0
-1016 -1446 0
-1017 -1447 0
-1018 -1449 0
-1019 -1450 0
-1020 -1451 0
-1021 -1452 0
-1016 -1454 0
-1017 -1455 0
-1019 -1456 0
-1020 -1458 0
-1021 -1459 0
-1016 -1461 0
-1019 -1463 0
-1020 -1465 0
-1021 -1466 0
-1015 -1513 0
-1016 -1514 0
-1018 -1515 0
-1020 -1517 0
-1021 -1518 0
-1015 -1519 0
-1016 -1521 0
-1017 -1522 0
-1018 -1524 0
-1019 -1525 0
-1020 -1527 0
-1021 -1528 0
-1015 -1529 0
-1017 -1531 0
-1020 -1533 0
-1021 -1534 0
-1015 -1535 0
-1017 -1536 0
-1018 -1538 0
-1020 -1539 0
-1021 -1540 0
-1016 -1553 0
-1017 -1554 0
-1018 -1555 0
-1019 -1556 0
-1020 -1557 0
-1021 -1558 0
-1016 -1559 0
-1017 -1560 0
-1020 -1563 0
-1021 -1564 0
-1014 -1566 0
-1018 -1567 0
-1019 -1568 0
-1020 -1570 0
-1021 -1571 0
-1016 -1579 0
-1017 -1580 0
-1018 -1582 0
-1020 -1583 0
-1021 -1584 0
-1017 -1586 0
-1019 -1588 0
-1020 -1590 0
-1021 -1591 0
-1020 -1596 0
-1021 -1597 0
-1017 -1606 0
-1018 -1607 0
-1020 -1609 0
-1021 -1610 0
-1014 -1611 0
-1017 -1612 0
-1018 -1614 0
-1019 -1615 0
-1020 -1616 0
-1021 -1617 0
-1014 -1618 0
-1017 -1620 0
-1018 -1621 0
-1020 -1622 0
-1021 -1623 0
-1014 -1654 0
-1017 -1655 0
-1018 -1657 0
-1019 -1658 0
-1020 -1659 0
-1021 -1660 0
-1015 -1661 0
-1017 -1662 0
-1018 -1664 0
-1020 -1665 0
-1021 -1666 0
-1015 -1667 0
-1018 -1670 0
-1019 -1671 0
-1020 -1672 0
-1021 -1673 0
-1016 -1687 0
-1018 -1689 0
-1019 -1690 0
-1020 -1692 0
-1021 -1693 0
-1017 -1696 0
-1019 -1698 0
-1020 -1699 0
-1021 -1700 0
-1017 -1701 0
-1018 -1703 0
-1019 -1704 0
-1020 -1706 0
-1021 -1707 0
-1015 -1720 0
-1016 -1721 0
-1018 -1722 0
-1020 -1724 0
-1021 -1725 0
-1015 -1726 0
-1019 -1728 0
-1020 -1730 0
-1021 -1731 0
-1015 -1732 0
-1017 -1733 0
-1018 -1735 0
-1020 -1736 0
-1021 -1737 0
-1016 -1757 0
-1017 -1758 0
-1020 -1761 0
-1021 -1762 0
-1017 -1831 0
-1018 -1833 0
-1019 -1834 0
-1020 -1836 0
-1021 -1837 0
-1018 -1839 0
-1019 -1840 0
-1020 -1842 0
-1021 -1843 0
-1016 -1845 0
-1018 -1847 0
-1019 -1848 0
-1020 -1850 0
-1021 -1851 0
-1017 -1853 0
-1018 -1855 0
-1019 -1856 0
-1020 -1858 0
-1021 -1859 0
-1025 -1076 0
-1027 -1078 0
-1028 -1079 0
-1024 -1095 0
-1027 -1098 0
-1028 -1099 0
-1024 -1109 0
-1025 -1110 0
-1026 -1111 0
-1027 -1114 0
-1028 -1115 0
-1022 -1122 0
-1025 -1124 0
-1026 -1125 0
-1027 -1127 0
-1028 -1128 0
-1024 -1210 0
-1025 -1211 0
-1027 -1214 0
-1028 -1215 0
-1023 -1291 0
-1025 -1292 0
-1027 -1295 0
-1028 -1296 0
-1025 -1299 0
-1026 -1300 0
-1027 -1302 0
-1028 -1303 0
-1023 -1319 0
-1024 -1320 0
-1025 -1321 0
-1027 -1323 0
-1028 -1324 0
-1023 -1333 0
-1024 -1334 0
-1025 -1335 0
-1026 -1336 0
-1027 -1337 0
-1028 -1338 0
-1024 -1340 0
-1025 -1341 0
-1027 -1344 0
-1028 -1345 0
-1022 -1346 0
-1024 -1348 0
-1025 -1349 0
-1027 -1351 0
-1028 -1352 0
-1022 -1362 0
-1023 -1364 0
-1025 -1365 0
-1026 -1366 0
-1027 -1368 0
-1028 -1369 0
-1022 -1370 0
-1025 -1372 0
-1027 -1375 0
-1028 -1376 0
-1023 -1431 0
-1024 -1432 0
-1025 -1433 0
-1027 -1434 0
-1028 -1435 0
-1024 -1438 0
-1025 -1439 0
-1026 -1440 0
-1027 -1443 0
-1028 -1444 0
-1023 -1461 0
-1025 -1462 0
-1027 -1465 0
-1028 -1466 0
-1025 -1508 0
-1027 -1511 0
-1028 -1512 0
-1023 -1521 0
-1024 -1522 0
-1025 -1523 0
-1026 -1524 0
-1027 -1527 0
-1028 -1528 0
-1024 -1531 0
-1027 -1533 0
-1028 -1534 0
-1024 -1536 0
-1025 -1537 0
-1026 -1538 0
-1027 -1539 0
-1028 -1540 0
-1023 -1542 0
-1025 -1543 0
-1026 -1544 0
-1027 -1545 0
-1028 -1546 0
-1026 -1548 0
-1027 -1551 0
-1028 -1552 0
-1022 -1566 0
-1026 -1567 0
-1027 -1570 0
-1028 -1571 0
-1024 -1574 0
-1027 -1576 0
-1028 -1577 0
-1025 -1594 0
-1027 -1596 0
-1028 -1597 0
-1024 -1606 0
-1026 -1607 0
-1027 -1609 0
-1028 -1610 0
-1022 -1618 0
-1024 -1620 0
-1026 -1621 0
-1027 -1622 0
-1028 -1623 0
-1025 -1625 0
-1026 -1626 0
-1027 -1628 0
-1028 -1629 0
-1022 -1642 0
-1024 -1643 0
-1027 -1646 0
-1028 -1647 0
-1025 -1649 0
-1026 -1650 0
-1027 -1652 0
-1028 -1653 0
-1022 -1654 0
-1024 -1655 0
-1025 -1656 0
-1026 -1657 0
-1027 -1659 0
-1028 -1660 0
-1025 -1669 0
-1026 -1670 0
-1027 -1672 0
-1028 -1673 0
-1024 -1675 0
-1025 -1676 0
-1026 -1677 0
-1027 -1679 0
-1028 -1680 0
-1025 -1682 0
-1027 -1685 0
-1028 -1686 0
-1024 -1696 0
-1025 -1697 0
-1027 -1699 0
-1028 -1700 0
-1024 -1701 0
-1025 -1702 0
-1026 -1703 0
-1027 -1706 0
-1028 -1707 0
-1023 -1721 0
-1026 -1722 0
-1027 -1724 0
-1028 -1725 0
-1025 -1727 0
-1027 -1730 0
-1028 -1731 0
-1023 -1738 0
-1024 -1739 0
-1026 -1740 0
-1027 -1742 0
-1028 -1743 0
-1024 -1744 0
-1025 -1745 0
-1026 -1746 0
-1027 -1749 0
-1028 -1750 0
-1023 -1757 0
-1024 -1758 0
-1025 -1759 0
-1027 -1761 0
-1028 -1762 0
-1024 -1772 0
-1025 -1773 0
-1027 -1776 0
-1028 -1777 0
-1024 -1813 0
-1025 -1814 0
-1027 -1816 0
-1028 -1817 0
-1026 -1839 0
-1027 -1842 0
-1028 -1843 0
-1023 -1845 0
-1025 -1846 0
-1026 -1847 0
-1027 -1850 0
-1028 -1851 0
-1033 -1070 0
-1034 -1071 0
-1035 -1072 0
-1030 -1088 0
-1034 -1091 0
-1035 -1092 0
-1030 -1108 0
-1032 -1111 0
-1033 -1112 0
-1034 -1114 0
-1035 -1115 0
-1029 -1116 0
-1030 -1117 0
-1032 -1119 0
-1034 -1120 0
-1035 -1121 0
-1032 -1137 0
-1033 -1138 0
-1034 -1139 0
-1035 -1140 0
-1029 -1169 0
-1033 -1171 0
-1034 -1173 0
-1035 -1174 0
-1030 -1203 0
-1034 -1206 0
-1035 -1207 0
-1030 -1223 0
-1033 -1226 0
-1034 -1227 0
-1035 -1228 0
-1030 -1282 0
-1032 -1285 0
-1034 -1287 0
-1035 -1288 0
-1032 -1300 0
-1034 -1302 0
-1035 -1303 0
-1031 -1312 0
-1033 -1313 0
-1034 -1315 0
-1035 -1316 0
-1031 -1333 0
-1032 -1336 0
-1034 -1337 0
-1035 -1338 0
-1029 -1346 0
-1034 -1351 0
-1035 -1352 0
-1029 -1353 0
-1031 -1354 0
-1032 -1357 0
-1033 -1358 0
-1034 -1360 0
-1035 -1361 0
-1029 -1370 0
-1030 -1371 0
-1033 -1373 0
-1034 -1375 0
-1035 -1376 0
-1031 -1423 0
-1033 -1426 0
-1034 -1427 0
-1035 -1428 0
-1030 -1437 0
-1032 -1440 0
-1033 -1441 0
-1034 -1443 0
-1035 -1444 0
-1030 -1453 0
-1031 -1454 0
-1033 -1456 0
-1034 -1458 0
-1035 -1459 0
-1031 -1501 0
-1032 -1503 0
-1033 -1504 0
-1034 -1505 0
-1035 -1506 0
-1033 -1509 0
-1034 -1511 0
-1035 -1512 0
-1031 -1514 0
-1032 -1515 0
-1034 -1517 0
-1035 -1518 0
-1030 -1530 0
-1034 -1533 0
-1035 -1534 0
-1030 -1541 0
-1031 -1542 0
-1032 -1544 0
-1034 -1545 0
-1035 -1546 0
-1031 -1559 0
-1034 -1563 0
-1035 -1564 0
-1033 -1588 0
-1034 -1590 0
-1035 -1591 0
-1032 -1607 0
-1034 -1609 0
-1035 -1610 0
-1029 -1611 0
-1032 -1614 0
-1033 -1615 0
-1034 -1616 0
-1035 -1617 0
-1032 -1650 0
-1033 -1651 0
-1034 -1652 0
-1035 -1653 0
-1032 -1664 0
-1034 -1665 0
-1035 -1666 0
-1030 -1674 0
-1032 -1677 0
-1034 -1679 0
-1035 -1680 0
-1032 -1703 0
-1033 -1704 0
-1034 -1706 0
-1035 -1707 0
-1032 -1710 0
-1034 -1712 0
-1035 -1713 0
-1029 -1714 0
-1032 -1716 0
-1034 -1718 0
-1035 -1719 0
-1033 -1728 0
-1034 -1730 0
-1035 -1731 0
-1032 -1735 0
-1034 -1736 0
-1035 -1737 0
-1031 -1738 0
-1032 -1740 0
-1033 -1741 0
-1034 -1742 0
-1035 -1743 0
-1030 -1751 0
-1032 -1752 0
-1033 -1753 0
-1034 -1755 0
-1035 -1756 0
-1032 -1765 0
-1033 -1766 0
-1034 -1768 0
-1035 -1769 0
-1032 -1833 0
-1033 -1834 0
-1034 -1836 0
-1035 -1837 0
-1032 -1855 0
-1033 -1856 0
-1034 -1858 0
-1035 -1859 0
-1042 -1071 0
-1043 -1072 0
-1037 -1075 0
-1039 -1076 0
-1042 -1078 0
-1043 -1079 0
-1037 -1081 0
-1038 -1082 0
-1040 -1083 0
-1042 -1085 0
-1043 -1086 0
-1036 -1116 0
-1037 -1117 0
-1040 -1119 0
-1042 -1120 0
-1043 -1121 0
-1036 -1122 0
-1037 -1123 0
-1039 -1124 0
-1040 -1125 0
-1042 -1127 0
-1043 -1128 0
-1038 -1130 0
-1041 -1132 0
-1042 -1133 0
-1043 -1134 0
-1036 -1169 0
-1041 -1172 0
-1042 -1173 0
-1043 -1174 0
-1037 -1203 0
-1041 -1205 0
-1042 -1206 0
-1043 -1207 0
-1037 -1209 0
-1039 -1211 0
-1041 -1213 0
-1042 -1214 0
-1043 -1215 0
-1037 -1216 0
-1038 -1217 0
-1040 -1219 0
-1041 -1220 0
-1042 -1221 0
-1043 -1222 0
-1037 -1275 0
-1038 -1276 0
-1041 -1279 0
-1042 -1280 0
-1043 -1281 0
-1038 -1291 0
-1039 -1292 0
-1041 -1294 0
-1042 -1295 0
-1043 -1296 0
-1038 -1305 0
-1039 -1306 0
-1040 -1307 0
-1041 -1308 0
-1042 -1309 0
-1043 -1310 0
-1039 -1341 0
-1041 -1343 0
-1042 -1344 0
-1043 -1345 0
-1036 -1346 0
-1039 -1349 0
-1041 -1350 0
-1042 -1351 0
-1043 -1352 0
-1036 -1353 0
-1038 -1354 0
-1039 -1356 0
-1040 -1357 0
-1041 -1359 0
-1042 -1360 0
-1043 -1361 0
-1036 -1362 0
-1037 -1363 0
-1038 -1364 0
-1039 -1365 0
-1040 -1366 0
-1041 -1367 0
-1042 -1368 0
-1043 -1369 0
-1038 -1423 0
-1039 -1425 0
-1042 -1427 0
-1043 -1428 0
-1037 -1430 0
-1038 -1431 0
-1039 -1433 0
-1042 -1434 0
-1043 -1435 0
-1037 -1445 0
-1038 -1446 0
-1039 -1448 0
-1040 -1449 0
-1042 -1451 0
-1043 -1452 0
-1038 -1495 0
-1039 -1497 0
-1041 -1498 0
-1042 -1499 0
-1043 -1500 0
-1039 -1508 0
-1041 -1510 0
-1042 -1511 0
-1043 -1512 0
-1038 -1514 0
-1040 -1515 0
-1041 -1516 0
-1042 -1517 0
-1043 -1518 0
-1037 -1520 0
-1038 -1521 0
-1039 -1523 0
-1040 -1524 0
-1041 -1526 0
-1042 -1527 0
-1043 -1528 0
-1037 -1547 0
-1040 -1548 0
-1041 -1550 0
-1042 -1551 0
-1043 -1552 0
-1038 -1553 0
-1040 -1555 0
-1042 -1557 0
-1043 -1558 0
-1036 -1566 0
-1040 -1567 0
-1041 -1569 0
-1042 -1570 0
-1043 -1571 0
-1042 -1576 0
-1043 -1577 0
-1038 -1579 0
-1039 -1581 0
-1040 -1582 0
-1042 -1583 0
-1043 -1584 0
-1036 -1611 0
-1039 -1613 0
-1040 -1614 0
-1042 -1616 0
-1043 -1617 0
-1036 -1618 0
-1037 -1619 0
-1040 -1621 0
-1042 -1622 0
-1043 -1623 0
-1036 -1642 0
-1041 -1645 0
-1042 -1646 0
-1043 -1647 0
-1036 -1654 0
-1039 -1656 0
-1040 -1657 0
-1042 -1659 0
-1043 -1660 0
-1039 -1663 0
-1040 -1664 0
-1042 -1665 0
-1043 -1666 0
-1037 -1668 0
-1039 -1669 0
-1040 -1670 0
-1042 -1672 0
-1043 -1673 0
-1039 -1682 0
-1041 -1684 0
-1042 -1685 0
-1043 -1686 0
-1038 -1687 0
-1039 -1688 0
-1040 -1689 0
-1041 -1691 0
-1042 -1692 0
-1043 -1693 0
-1040 -1710 0
-1041 -1711 0
-1042 -1712 0
-1043 -1713 0
-1038 -1721 0
-1040 -1722 0
-1041 -1723 0
-1042 -1724 0
-1043 -1725 0
-1039 -1745 0
-1040 -1746 0
-1041 -1748 0
-1042 -1749 0
-1043 -1750 0
-1037 -1751 0
-1040 -1752 0
-1041 -1754 0
-1042 -1755 0
-1043 -1756 0
-1039 -1773 0
-1041 -1775 0
-1042 -1776 0
-1043 -1777 0
-1037 -1812 0
-1039 -1814 0
-1042 -1816 0
-1043 -1817 0
-1039 -1832 0
-1040 -1833 0
-1041 -1835 0
-1042 -1836 0
-1043 -1837 0
-1037 -1838 0
-1040 -1839 0
-1041 -1841 0
-1042 -1842 0
-1043 -1843 0
-1038 -1845 0
-1039 -1846 0
-1040 -1847 0
-1041 -1849 0
-1042 -1850 0
-1043 -1851 0
-1049 -1078 0
-1050 -1079 0
-1045 -1082 0
-1047 -1083 0
-1049 -1085 0
-1050 -1086 0
-1048 -1090 0
-1049 -1091 0
-1050 -1092 0
-1044 -1100 0
-1048 -1104 0
-1049 -1105 0
-1050 -1106 0
-1044 -1122 0
-1047 -1125 0
-1049 -1127 0
-1050 -1128 0
-1044 -1153 0
-1045 -1155 0
-1046 -1156 0
-1049 -1158 0
-1050 -1159 0
-1044 -1160 0
-1046 -1162 0
-1047 -1164 0
-1048 -1166 0
-1049 -1167 0
-1050 -1168 0
-1045 -1191 0
-1049 -1193 0
-1050 -1194 0
-1047 -1198 0
-1048 -1199 0
-1049 -1200 0
-1050 -1201 0
-1045 -1268 0
-1046 -1269 0
-1047 -1271 0
-1049 -1273 0
-1050 -1274 0
-1045 -1291 0
-1048 -1294 0
-1049 -1295 0
-1050 -1296 0
-1047 -1300 0
-1048 -1301 0
-1049 -1302 0
-1050 -1303 0
-1045 -1305 0
-1047 -1307 0
-1048 -1308 0
-1049 -1309 0
-1050 -1310 0
-1045 -1312 0
-1048 -1314 0
-1049 -1315 0
-1050 -1316 0
-1044 -1325 0
-1045 -1327 0
-1048 -1329 0
-1049 -1330 0
-1050 -1331 0
-1044 -1362 0
-1045 -1364 0
-1047 -1366 0
-1048 -1367 0
-1049 -1368 0
-1050 -1369 0
-1044 -1370 0
-1048 -1374 0
-1049 -1375 0
-1050 -1376 0
-1044 -1377 0
-1045 -1378 0
-1046 -1379 0
-1048 -1382 0
-1049 -1383 0
-1050 -1384 0
-1044 -1385 0
-1045 -1386 0
-1046 -1387 0
-1047 -1388 0
-1048 -1389 0
-1049 -1390 0
-1050 -1391 0
-1045 -1409 0
-1048 -1411 0
-1049 -1412 0
-1050 -1413 0
-1045 -1416 0
-1047 -1417 0
-1048 -1419 0
-1049 -1420 0
-1050 -1421 0
-1045 -1461 0
-1048 -1464 0
-1049 -1465 0
-1050 -1466 0
-1045 -1489 0
-1046 -1490 0
-1047 -1491 0
-1048 -1492 0
-1049 -1493 0
-1050 -1494 0
-1048 -1510 0
-1049 -1511 0
-1050 -1512 0
-1045 -1514 0
-1047 -1515 0
-1048 -1516 0
-1049 -1517 0
-1050 -1518 0
-1045 -1542 0
-1047 -1544 0
-1049 -1545 0
-1050 -1546 0
-1047 -1548 0
-1048 -1550 0
-1049 -1551 0
-1050 -1552 0
-1045 -1553 0
-1046 -1554 0
-1047 -1555 0
-1049 -1557 0
-1050 -1558 0
-1045 -1559 0
-1046 -1560 0
-1048 -1562 0
-1049 -1563 0
-1050 -1564 0
-1046 -1574 0
-1049 -1576 0
-1050 -1577 0
-1045 -1579 0
-1046 -1580 0
-1047 -1582 0
-1049 -1583 0
-1050 -1584 0
-1046 -1586 0
-1048 -1589 0
-1049 -1590 0
-1050 -1591 0
-1044 -1598 0
-1046 -1600 0
-1048 -1602 0
-1049 -1603 0
-1050 -1604 0
-1044 -1618 0
-1046 -1620 0
-1047 -1621 0
-1049 -1622 0
-1050 -1623 0
-1047 -1626 0
-1049 -1628 0
-1050 -1629 0
-1044 -1630 0
-1045 -1631 0
-1049 -1634 0
-1050 -1635 0
-1044 -1636 0
-1047 -1638 0
-1048 -1639 0
-1049 -1640 0
-1050 -1641 0
-1046 -1662 0
-1047 -1664 0
-1049 -1665 0
-1050 -1666 0
-1046 -1675 0
-1047 -1677 0
-1048 -1678 0
-1049 -1679 0
-1050 -1680 0
-1048 -1684 0
-1049 -1685 0
-1050 -1686 0
-1045 -1687 0
-1047 -1689 0
-1048 -1691 0
-1049 -1692 0
-1050 -1693 0
-1046 -1733 0
-1047 -1735 0
-1049 -1736 0
-1050 -1737 0
-1045 -1738 0
-1046 -1739 0
-1047 -1740 0
-1049 -1742 0
-1050 -1743 0
-1046 -1744 0
-1047 -1746 0
-1048 -1748 0
-1049 -1749 0
-1050 -1750 0
-1046 -1772 0
-1048 -1775 0
-1049 -1776 0
-1050 -1777 0
-1044 -1778 0
-1046 -1779 0
-1048 -1781 0
-1049 -1782 0
-1050 -1783 0
-1045 -1798 0
-1046 -1799 0
-1048 -1801 0
-1049 -1802 0
-1050 -1803 0
-1046 -1805 0
-1047 -1807 0
-1048 -1808 0
-1049 -1809 0
-1050 -1810 0
-1046 -1831 0
-1047 -1833 0
-1048 -1835 0
-1049 -1836 0
-1050 -1837 0
-1046 -1853 0
-1047 -1855 0
-1048 -1857 0
-1049 -1858 0
-1050 -1859 0
-1054 -1069 0
-1057 -1070 0
-1059 -1071 0
-1060 -1072 0
-1052 -1081 0
-1053 -1082 0
-1056 -1083 0
-1057 -1084 0
-1059 -1085 0
-1060 -1086 0
-1052 -1094 0
-1054 -1095 0
-1057 -1096 0
-1058 -1097 0
-1059 -1098 0
-1060 -1099 0
-1051 -1100 0
-1052 -1102 0
-1057 -1103 0
-1058 -1104 0
-1059 -1105 0
-1060 -1106 0
-1051 -1116 0
-1052 -1117 0
-1054 -1118 0
-1056 -1119 0
-1059 -1120 0
-1060 -1121 0
-1055 -1136 0
-1056 -1137 0
-1057 -1138 0
-1059 -1139 0
-1060 -1140 0
-1051 -1147 0
-1053 -1148 0
-1055 -1149 0
-1057 -1150 0
-1059 -1151 0
-1060 -1152 0
-1051 -1160 0
-1052 -1161 0
-1054 -1162 0
-1055 -1163 0
-1056 -1164 0
-1057 -1165 0
-1058 -1166 0
-1059 -1167 0
-1060 -1168 0
-1052 -1183 0
-1053 -1184 0
-1054 -1185 0
-1055 -1186 0
-1059 -1187 0
-1060 -1188 0
-1052 -1196 0
-1055 -1197 0
-1056 -1198 0
-1058 -1199 0
-1059 -1200 0
-1060 -1201 0
-1052 -1223 0
-1054 -1224 0
-1055 -1225 0
-1057 -1226 0
-1059 -1227 0
-1060 -1228 0
-1052 -1261 0
-1053 -1262 0
-1055 -1263 0
-1056 -1264 0
-1059 -1265 0
-1060 -1266 0
-1055 -1299 0
-1056 -1300 0
-1058 -1301 0
-1059 -1302 0
-1060 -1303 0
-1053 -1305 0
-1055 -1306 0
-1056 -1307 0
-1058 -1308 0
-1059 -1309 0
-1060 -1310 0
-1052 -1318 0
-1053 -1319 0
-1054 -1320 0
-1055 -1321 0
-1058 -1322 0
-1059 -1323 0
-1060 -1324 0
-1051 -1325 0
-1053 -1327 0
-1055 -1328 0
-1058 -1329 0
-1059 -1330 0
-1060 -1331 0
-1054 -1340 0
-1055 -1341 0
-1057 -1342 0
-1058 -1343 0
-1059 -1344 0
-1060 -1345 0
-1051 -1353 0
-1053 -1354 0
-1054 -1355 0
-1055 -1356 0
-1056 -1357 0
-1057 -1358 0
-1058 -1359 0
-1059 -1360 0
-1060 -1361 0
-1051 -1370 0
-1052 -1371 0
-1055 -1372 0
-1057 -1373 0
-1058 -1374 0
-1059 -1375 0
-1060 -1376 0
-1051 -1385 0
-1053 -1386 0
-1054 -1387 0
-1056 -1388 0
-1058 -1389 0
-1059 -1390 0
-1060 -1391 0
-1053 -1401 0
-1054 -1402 0
-1057 -1403 0
-1058 -1404 0
-1059 -1405 0
-1060 -1406 0
-1052 -1415 0
-1053 -1416 0
-1056 -1417 0
-1057 -1418 0
-1058 -1419 0
-1059 -1420 0
-1060 -1421 0
-1052 -1453 0
-1053 -1454 0
-1054 -1455 0
-1057 -1456 0
-1058 -1457 0
-1059 -1458 0
-1060 -1459 0
-1053 -1481 0
-1055 -1482 0
-1056 -1483 0
-1057 -1484 0
-1058 -1485 0
-1059 -1486 0
-1060 -1487 0
-1055 -1508 0
-1057 -1509 0
-1058 -1510 0
-1059 -1511 0
-1060 -1512 0
-1052 -1520 0
-1053 -1521 0
-1054 -1522 0
-1055 -1523 0
-1056 -1524 0
-1057 -1525 0
-1058 -1526 0
-1059 -1527 0
-1060 -1528 0
-1054 -1536 0
-1055 -1537 0
-1056 -1538 0
-1059 -1539 0
-1060 -1540 0
-1052 -1541 0
-1053 -1542 0
-1055 -1543 0
-1056 -1544 0
-1059 -1545 0
-1060 -1546 0
-1053 -1553 0
-1054 -1554 0
-1056 -1555 0
-1057 -1556 0
-1059 -1557 0
-1060 -1558 0
-1051 -1566 0
-1056 -1567 0
-1057 -1568 0
-1058 -1569 0
-1059 -1570 0
-1060 -1571 0
-1053 -1579 0
-1054 -1580 0
-1055 -1581 0
-1056 -1582 0
-1059 -1583 0
-1060 -1584 0
-1052 -1593 0
-1055 -1594 0
-1058 -1595 0
-1059 -1596 0
-1060 -1597 0
-1051 -1598 0
-1054 -1600 0
-1055 -1601 0
-1058 -1602 0
-1059 -1603 0
-1060 -1604 0
-1051 -1611 0
-1054 -1612 0
-1055 -1613 0
-1056 -1614 0
-1057 -1615 0
-1059 -1616 0
-1060 -1617 0
-1051 -1636 0
-1055 -1637 0
-1056 -1638 0
-1058 -1639 0
-1059 -1640 0
-1060 -1641 0
-1051 -1654 0
-1054 -1655 0
-1055 -1656 0
-1056 -1657 0
-1057 -1658 0
-1059 -1659 0
-1060 -1660 0
-1052 -1668 0
-1055 -1669 0
-1056 -1670 0
-1057 -1671 0
-1059 -1672 0
-1060 -1673 0
-1052 -1674 0
-1054 -1675 0
-1055 -1676 0
-1056 -1677 0
-1058 -1678 0
-1059 -1679 0
-1060 -1680 0
-1053 -1687 0
-1055 -1688 0
-1056 -1689 0
-1057 -1690 0
-1058 -1691 0
-1059 -1692 0
-1060 -1693 0
-1052 -1695 0
-1054 -1696 0
-1055 -1697 0
-1057 -1698 0
-1059 -1699 0
-1060 -1700 0
-1051 -1714 0
-1055 -1715 0
-1056 -1716 0
-1058 -1717 0
-1059 -1718 0
-1060 -1719 0
-1053 -1721 0
-1056 -1722 0
-1058 -1723 0
-1059 -1724 0
-1060 -1725 0
-1053 -1738 0
-1054 -1739 0
-1056 -1740 0
-1057 -1741 0
-1059 -1742 0
-1060 -1743 0
-1052 -1751 0
-1056 -1752 0
-1057 -1753 0
-1058 -1754 0
-1059 -1755 0
-1060 -1756 0
-1053 -1757 0
-1054 -1758 0
-1055 -1759 0
-1058 -1760 0
-1059 -1761 0
-1060 -1762 0
-1051 -1778 0
-1054 -1779 0
-1057 -1780 0
-1058 -1781 0
-1059 -1782 0
-1060 -1783 0
-1053 -1791 0
-1054 -1792 0
-1055 -1793 0
-1058 -1794 0
-1059 -1795 0
-1060 -1796 0
-1052 -1804 0
-1054 -1805 0
-1055 -1806 0
-1056 -1807 0
-1058 -1808 0
-1059 -1809 0
-1060 -1810 0
-1052 -1838 0
-1056 -1839 0
-1057 -1840 0
-1058 -1841 0
-1059 -1842 0
-1060 -1843 0
-1053 -1845 0
-1055 -1846 0
-1056 -1847 0
-1057 -1848 0
-1058 -1849 0
-1059 -1850 0
-1060 -1851 0
-1063 -1069 0
-1065 -1071 0
-1066 -1072 0
-1062 -1075 0
-1065 -1078 0
-1066 -1079 0
-1062 -1088 0
-1065 -1091 0
-1066 -1092 0
-1062 -1094 0
-1063 -1095 0
-1065 -1098 0
-1066 -1099 0
-1061 -1100 0
-1062 -1102 0
-1065 -1105 0
-1066 -1106 0
-1062 -1108 0
-1063 -1109 0
-1064 -1111 0
-1065 -1114 0
-1066 -1115 0
-1061 -1116 0
-1062 -1117 0
-1063 -1118 0
-1064 -1119 0
-1065 -1120 0
-1066 -1121 0
-1061 -1122 0
-1062 -1123 0
-1064 -1125 0
-1065 -1127 0
-1066 -1128 0
-1065 -1133 0
-1066 -1134 0
-1061 -1147 0
-1065 -1151 0
-1066 -1152 0
-1061 -1153 0
-1062 -1154 0
-1063 -1156 0
-1065 -1158 0
-1066 -1159 0
-1062 -1183 0
-1063 -1185 0
-1065 -1187 0
-1066 -1188 0
-1062 -1190 0
-1065 -1193 0
-1066 -1194 0
-1062 -1216 0
-1063 -1218 0
-1064 -1219 0
-1065 -1221 0
-1066 -1222 0
-1062 -1254 0
-1065 -1259 0
-1066 -1260 0
-1065 -1295 0
-1066 -1296 0
-1065 -1315 0
-1066 -1316 0
-1062 -1318 0
-1063 -1320 0
-1065 -1323 0
-1066 -1324 0
-1061 -1325 0
-1065 -1330 0
-1066 -1331 0
-1063 -1334 0
-1064 -1336 0
-1065 -1337 0
-1066 -1338 0
-1061 -1353 0
-1063 -1355 0
-1064 -1357 0
-1065 -1360 0
-1066 -1361 0
-1061 -1362 0
-1062 -1363 0
-1064 -1366 0
-1065 -1368 0
-1066 -1369 0
-1061 -1377 0
-1063 -1379 0
-1065 -1383 0
-1066 -1384 0
-1063 -1402 0
-1065 -1405 0
-1066 -1406 0
-1062 -1408 0
-1065 -1412 0
-1066 -1413 0
-1062 -1445 0
-1063 -1447 0
-1064 -1449 0
-1065 -1451 0
-1066 -1452 0
-1065 -1511 0
-1066 -1512 0
-1062 -1530 0
-1063 -1531 0
-1065 -1533 0
-1066 -1534 0
-1063 -1536 0
-1064 -1538 0
-1065 -1539 0
-1066 -1540 0
-1062 -1547 0
-1064 -1548 0
-1065 -1551 0
-1066 -1552 0
-1063 -1560 0
-1065 -1563 0
-1066 -1564 0
-1063 -1574 0
-1065 -1576 0
-1066 -1577 0
-1063 -1586 0
-1065 -1590 0
-1066 -1591 0
-1062 -1593 0
-1065 -1596 0
-1066 -1597 0
-1061 -1598 0
-1063 -1600 0
-1065 -1603 0
-1066 -1604 0
-1063 -1606 0
-1064 -1607 0
-1065 -1609 0
-1066 -1610 0
-1061 -1611 0
-1063 -1612 0
-1064 -1614 0
-1065 -1616 0
-1066 -1617 0
-1061 -1618 0
-1062 -1619 0
-1063 -1620 0
-1064 -1621 0
-1065 -1622 0
-1066 -1623 0
-1061 -1630 0
-1065 -1634 0
-1066 -1635 0
-1065 -1685 0
-1066 -1686 0
-1062 -1695 0
-1063 -1696 0
-1065 -1699 0
-1066 -1700 0
-1063 -1701 0
-1064 -1703 0
-1065 -1706 0
-1066 -1707 0
-1065 -1730 0
-1066 -1731 0
-1063 -1733 0
-1064 -1735 0
-1065 -1736 0
-1066 -1737 0
-1063 -1744 0
-1064 -1746 0
-1065 -1749 0
-1066 -1750 0
-1062 -1751 0
-1064 -1752 0
-1065 -1755 0
-1066 -1756 0
-1063 -1758 0
-1065 -1761 0
-1066 -1762 0
-1063 -1772 0
-1065 -1776 0
-1066 -1777 0
-1061 -1778 0
-1063 -1779 0
-1065 -1782 0
-1066 -1783 0
-1063 -1792 0
-1065 -1795 0
-1066 -1796 0
-1062 -1797 0
-1063 -1799 0
-1065 -1802 0
-1066 -1803 0
-1063 -1853 0
-1064 -1855 0
-1065 -1858 0
-1066 -1859 0
-1069 -1269 0
-1070 -1272 0
-1071 -1273 0
-1072 -1274 0
-1067 -1317 0
-1069 -1320 0
-1071 -1323 0
-1072 -1324 0
-1071 -1368 0
-1072 -1369 0
-1070 -1373 0
-1071 -1375 0
-1072 -1376 0
-1069 -1379 0
-1070 -1381 0
-1071 -1383 0
-1072 -1384 0
-1069 -1387 0
-1071 -1390 0
-1072 -1391 0
-1068 -1407 0
-1071 -1412 0
-1072 -1413 0
-1068 -1414 0
-1070 -1418 0
-1071 -1420 0
-1072 -1421 0
-1068 -1429 0
-1069 -1432 0
-1071 -1434 0
-1072 -1435 0
-1068 -1436 0
-1069 -1438 0
-1070 -1441 0
-1071 -1443 0
-1072 -1444 0
-1069 -1447 0
-1070 -1450 0
-1071 -1451 0
-1072 -1452 0
-1069 -1455 0
-1070 -1456 0
-1071 -1458 0
-1072 -1459 0
-1068 -1467 0
-1070 -1471 0
-1071 -1472 0
-1072 -1473 0
-1068 -1474 0
-1071 -1478 0
-1072 -1479 0
-1070 -1484 0
-1071 -1486 0
-1072 -1487 0
-1069 -1496 0
-1071 -1499 0
-1072 -1500 0
-1069 -1502 0
-1070 -1504 0
-1071 -1505 0
-1072 -1506 0
-1067 -1565 0
-1070 -1568 0
-1071 -1570 0
-1072 -1571 0
-1067 -1572 0
-1068 -1573 0
-1069 -1574 0
-1070 -1575 0
-1071 -1576 0
-1072 -1577 0
-1067 -1578 0
-1069 -1580 0
-1071 -1583 0
-1072 -1584 0
-1067 -1585 0
-1069 -1586 0
-1070 -1588 0
-1071 -1590 0
-1072 -1591 0
-1068 -1599 0
-1069 -1600 0
-1071 -1603 0
-1072 -1604 0
-1067 -1605 0
-1069 -1606 0
-1071 -1609 0
-1072 -1610 0
-1069 -1612 0
-1070 -1615 0
-1071 -1616 0
-1072 -1617 0
-1069 -1655 0
-1070 -1658 0
-1071 -1659 0
-1072 -1660 0
-1068 -1667 0
-1070 -1671 0
-1071 -1672 0
-1072 -1673 0
-1069 -1675 0
-1071 -1679 0
-1072 -1680 0
-1068 -1681 0
-1070 -1683 0
-1071 -1685 0
-1072 -1686 0
-1070 -1690 0
-1071 -1692 0
-1072 -1693 0
-1069 -1701 0
-1070 -1704 0
-1071 -1706 0
-1072 -1707 0
-1068 -1763 0
-1069 -1764 0
-1070 -1766 0
-1071 -1768 0
-1072 -1769 0
-1069 -1799 0
-1070 -1800 0
-1071 -1802 0
-1072 -1803 0
-1069 -1805 0
-1071 -1809 0
-1072 -1810 0
-1069 -1813 0
-1070 -1815 0
-1071 -1816 0
-1072 -1817 0
-1069 -1819 0
-1070 -1821 0
-1071 -1822 0
-1072 -1823 0
-1069 -1824 0
-1070 -1827 0
-1071 -1829 0
-1072 -1830 0
-1070 -1848 0
-1071 -1850 0
-1072 -1851 0
-1069 -1853 0
-1070 -1856 0
-1071 -1858 0
-1072 -1859 0
-1075 -1223 0
-1076 -1225 0
-1077 -1226 0
-1078 -1227 0
-1079 -1228 0
-1075 -1261 0
-1076 -1263 0
-1078 -1265 0
-1079 -1266 0
-1075 -1282 0
-1076 -1284 0
-1078 -1287 0
-1079 -1288 0
-1073 -1311 0
-1077 -1313 0
-1078 -1315 0
-1079 -1316 0
-1073 -1339 0
-1076 -1341 0
-1077 -1342 0
-1078 -1344 0
-1079 -1345 0
-1076 -1356 0
-1077 -1358 0
-1078 -1360 0
-1079 -1361 0
-1075 -1371 0
-1076 -1372 0
-1077 -1373 0
-1078 -1375 0
-1079 -1376 0
-1078 -1390 0
-1079 -1391 0
-1074 -1400 0
-1077 -1403 0
-1078 -1405 0
-1079 -1406 0
-1074 -1414 0
-1075 -1415 0
-1077 -1418 0
-1078 -1420 0
-1079 -1421 0
-1074 -1422 0
-1076 -1425 0
-1077 -1426 0
-1078 -1427 0
-1079 -1428 0
-1074 -1436 0
-1075 -1437 0
-1076 -1439 0
-1077 -1441 0
-1078 -1443 0
-1079 -1444 0
-1075 -1445 0
-1076 -1448 0
-1077 -1450 0
-1078 -1451 0
-1079 -1452 0
-1075 -1460 0
-1076 -1462 0
-1077 -1463 0
-1078 -1465 0
-1079 -1466 0
-1074 -1474 0
-1078 -1478 0
-1079 -1479 0
-1075 -1488 0
-1078 -1493 0
-1079 -1494 0
-1076 -1497 0
-1078 -1499 0
-1079 -1500 0
-1075 -1547 0
-1077 -1549 0
-1078 -1551 0
-1079 -1552 0
-1076 -1561 0
-1078 -1563 0
-1079 -1564 0
-1073 -1578 0
-1076 -1581 0
-1078 -1583 0
-1079 -1584 0
-1073 -1592 0
-1075 -1593 0
-1076 -1594 0
-1078 -1596 0
-1079 -1597 0
-1074 -1599 0
-1076 -1601 0
-1078 -1603 0
-1079 -1604 0
-1073 -1605 0
-1078 -1609 0
-1079 -1610 0
-1075 -1619 0
-1078 -1622 0
-1079 -1623 0
-1073 -1624 0
-1076 -1625 0
-1077 -1627 0
-1078 -1628 0
-1079 -1629 0
-1076 -1632 0
-1077 -1633 0
-1078 -1634 0
-1079 -1635 0
-1077 -1644 0
-1078 -1646 0
-1079 -1647 0
-1074 -1661 0
-1076 -1663 0
-1078 -1665 0
-1079 -1666 0
-1075 -1674 0
-1076 -1676 0
-1078 -1679 0
-1079 -1680 0
-1076 -1688 0
-1077 -1690 0
-1078 -1692 0
-1079 -1693 0
-1075 -1695 0
-1076 -1697 0
-1077 -1698 0
-1078 -1699 0
-1079 -1700 0
-1076 -1702 0
-1077 -1704 0
-1078 -1706 0
-1079 -1707 0
-1073 -1708 0
-1078 -1712 0
-1079 -1713 0
-1076 -1715 0
-1078 -1718 0
-1079 -1719 0
-1074 -1720 0
-1078 -1724 0
-1079 -1725 0
-1074 -1732 0
-1076 -1734 0
-1078 -1736 0
-1079 -1737 0
-1076 -1793 0
-1078 -1795 0
-1079 -1796 0
-1075 -1804 0
-1076 -1806 0
-1078 -1809 0
-1079 -1810 0
-1076 -1825 0
-1077 -1827 0
-1078 -1829 0
-1079 -1830 0
-1081 -1248 0
-1083 -1250 0
-1084 -1251 0
-1085 -1252 0
-1086 -1253 0
-1081 -1282 0
-1083 -1285 0
-1085 -1287 0
-1086 -1288 0
-1080 -1297 0
-1083 -1300 0
-1085 -1302 0
-1086 -1303 0
-1080 -1339 0
-1084 -1342 0
-1085 -1344 0
-1086 -1345 0
-1085 -1351 0
-1086 -1352 0
-1081 -1371 0
-1084 -1373 0
-1085 -1375 0
-1086 -1376 0
-1082 -1386 0
-1083 -1388 0
-1085 -1390 0
-1086 -1391 0
-1082 -1393 0
-1083 -1396 0
-1085 -1398 0
-1086 -1399 0
-1081 -1415 0
-1082 -1416 0
-1083 -1417 0
-1084 -1418 0
-1085 -1420 0
-1086 -1421 0
-1082 -1423 0
-1084 -1426 0
-1085 -1427 0
-1086 -1428 0
-1081 -1430 0
-1082 -1431 0
-1085 -1434 0
-1086 -1435 0
-1081 -1453 0
-1082 -1454 0
-1084 -1456 0
-1085 -1458 0
-1086 -1459 0
-1081 -1460 0
-1082 -1461 0
-1084 -1463 0
-1085 -1465 0
-1086 -1466 0
-1082 -1468 0
-1083 -1470 0
-1084 -1471 0
-1085 -1472 0
-1086 -1473 0
-1082 -1481 0
-1083 -1483 0
-1084 -1484 0
-1085 -1486 0
-1086 -1487 0
-1081 -1488 0
-1082 -1489 0
-1083 -1491 0
-1085 -1493 0
-1086 -1494 0
-1082 -1495 0
-1085 -1499 0
-1086 -1500 0
-1080 -1572 0
-1084 -1575 0
-1085 -1576 0
-1086 -1577 0
-1080 -1585 0
-1084 -1588 0
-1085 -1590 0
-1086 -1591 0
-1080 -1592 0
-1081 -1593 0
-1085 -1596 0
-1086 -1597 0
-1085 -1603 0
-1086 -1604 0
-1080 -1605 0
-1083 -1607 0
-1085 -1609 0
-1086 -1610 0
-1083 -1614 0
-1084 -1615 0
-1085 -1616 0
-1086 -1617 0
-1081 -1619 0
-1083 -1621 0
-1085 -1622 0
-1086 -1623 0
-1082 -1631 0
-1084 -1633 0
-1085 -1634 0
-1086 -1635 0
-1084 -1683 0
-1085 -1685 0
-1086 -1686 0
-1081 -1695 0
-1084 -1698 0
-1085 -1699 0
-1086 -1700 0
-1083 -1703 0
-1084 -1704 0
-1085 -1706 0
-1086 -1707 0
-1080 -1708 0
-1083 -1710 0
-1085 -1712 0
-1086 -1713 0
-1083 -1716 0
-1085 -1718 0
-1086 -1719 0
-1082 -1721 0
-1083 -1722 0
-1085 -1724 0
-1086 -1725 0
-1082 -1738 0
-1083 -1740 0
-1084 -1741 0
-1085 -1742 0
-1086 -1743 0
-1083 -1786 0
-1084 -1787 0
-1085 -1789 0
-1086 -1790 0
-1081 -1804 0
-1083 -1807 0
-1085 -1809 0
-1086 -1810 0
-1081 -1812 0
-1084 -1815 0
-1085 -1816 0
-1086 -1817 0
-1082 -1818 0
-1083 -1820 0
-1084 -1821 0
-1085 -1822 0
-1086 -1823 0
-1083 -1855 0
-1084 -1856 0
-1085 -1858 0
-1086 -1859 0
-1088 -1209 0
-1089 -1211 0
-1090 -1213 0
-1091 -1214 0
-1092 -1215 0
-1088 -1240 0
-1090 -1244 0
-1091 -1245 0
-1092 -1246 0
-1088 -1275 0
-1090 -1279 0
-1091 -1280 0
-1092 -1281 0
-1087 -1289 0
-1089 -1292 0
-1090 -1294 0
-1091 -1295 0
-1092 -1296 0
-1087 -1332 0
-1089 -1335 0
-1091 -1337 0
-1092 -1338 0
-1089 -1349 0
-1090 -1350 0
-1091 -1351 0
-1092 -1352 0
-1088 -1363 0
-1089 -1365 0
-1090 -1367 0
-1091 -1368 0
-1092 -1369 0
-1089 -1380 0
-1090 -1382 0
-1091 -1383 0
-1092 -1384 0
-1089 -1395 0
-1090 -1397 0
-1091 -1398 0
-1092 -1399 0
-1088 -1408 0
-1089 -1410 0
-1090 -1411 0
-1091 -1412 0
-1092 -1413 0
-1089 -1425 0
-1091 -1427 0
-1092 -1428 0
-1088 -1437 0
-1089 -1439 0
-1090 -1442 0
-1091 -1443 0
-1092 -1444 0
-1088 -1445 0
-1089 -1448 0
-1091 -1451 0
-1092 -1452 0
-1088 -1460 0
-1089 -1462 0
-1090 -1464 0
-1091 -1465 0
-1092 -1466 0
-1090 -1477 0
-1091 -1478 0
-1092 -1479 0
-1088 -1488 0
-1090 -1492 0
-1091 -1493 0
-1092 -1494 0
-1091 -1505 0
-1092 -1506 0
-1087 -1565 0
-1090 -1569 0
-1091 -1570 0
-1092 -1571 0
-1087 -1578 0
-1089 -1581 0
-1091 -1583 0
-1092 -1584 0
-1087 -1592 0
-1088 -1593 0
-1089 -1594 0
-1090 -1595 0
-1091 -1596 0
-1092 -1597 0
-1089 -1601 0
-1090 -1602 0
-1091 -1603 0
-1092 -1604 0
-1089 -1613 0
-1091 -1616 0
-1092 -1617 0
-1089 -1637 0
-1090 -1639 0
-1091 -1640 0
-1092 -1641 0
-1089 -1656 0
-1091 -1659 0
-1092 -1660 0
-1088 -1668 0
-1089 -1669 0
-1091 -1672 0
-1092 -1673 0
-1088 -1674 0
-1089 -1676 0
-1090 -1678 0
-1091 -1679 0
-1092 -1680 0
-1089 -1688 0
-1090 -1691 0
-1091 -1692 0
-1092 -1693 0
-1088 -1695 0
-1089 -1697 0
-1091 -1699 0
-1092 -1700 0
-1087 -1708 0
-1090 -1711 0
-1091 -1712 0
-1092 -1713 0
-1089 -1727 0
-1090 -1729 0
-1091 -1730 0
-1092 -1731 0
-1089 -1745 0
-1090 -1748 0
-1091 -1749 0
-1092 -1750 0
-1090 -1767 0
-1091 -1768 0
-1092 -1769 0
-1087 -1771 0
-1089 -1773 0
-1090 -1775 0
-1091 -1776 0
-1092 -1777 0
-1090 -1788 0
-1091 -1789 0
-1092 -1790 0
-1088 -1797 0
-1090 -1801 0
-1091 -1802 0
-1092 -1803 0
-1089 -1825 0
-1090 -1828 0
-1091 -1829 0
-1092 -1830 0
-1089 -1846 0
-1090 -1849 0
-1091 -1850 0
-1092 -1851 0
-1095 -1170 0
-1096 -1171 0
-1097 -1172 0
-1098 -1173 0
-1099 -1174 0
-1094 -1203 0
-1095 -1204 0
-1097 -1205 0
-1098 -1206 0
-1099 -1207 0
-1095 -1232 0
-1096 -1235 0
-1097 -1236 0
-1098 -1237 0
-1099 -1238 0
-1094 -1275 0
-1095 -1277 0
-1096 -1278 0
-1097 -1279 0
-1098 -1280 0
-1099 -1281 0
-1094 -1282 0
-1095 -1283 0
-1097 -1286 0
-1098 -1287 0
-1099 -1288 0
-1093 -1332 0
-1095 -1334 0
-1098 -1337 0
-1099 -1338 0
-1093 -1339 0
-1095 -1340 0
-1096 -1342 0
-1097 -1343 0
-1098 -1344 0
-1099 -1345 0
-1095 -1348 0
-1097 -1350 0
-1098 -1351 0
-1099 -1352 0
-1095 -1355 0
-1096 -1358 0
-1097 -1359 0
-1098 -1360 0
-1099 -1361 0
-1095 -1394 0
-1097 -1397 0
-1098 -1398 0
-1099 -1399 0
-1095 -1402 0
-1096 -1403 0
-1097 -1404 0
-1098 -1405 0
-1099 -1406 0
-1094 -1430 0
-1095 -1432 0
-1098 -1434 0
-1099 -1435 0
-1094 -1437 0
-1095 -1438 0
-1096 -1441 0
-1097 -1442 0
-1098 -1443 0
-1099 -1444 0
-1094 -1445 0
-1095 -1447 0
-1096 -1450 0
-1098 -1451 0
-1099 -1452 0
-1094 -1453 0
-1095 -1455 0
-1096 -1456 0
-1097 -1457 0
-1098 -1458 0
-1099 -1459 0
-1096 -1471 0
-1098 -1472 0
-1099 -1473 0
-1097 -1477 0
-1098 -1478 0
-1099 -1479 0
-1096 -1484 0
-1097 -1485 0
-1098 -1486 0
-1099 -1487 0
-1095 -1536 0
-1098 -1539 0
-1099 -1540 0
-1093 -1572 0
-1095 -1574 0
-1096 -1575 0
-1098 -1576 0
-1099 -1577 0
-1093 -1578 0
-1095 -1580 0
-1098 -1583 0
-1099 -1584 0
-1093 -1585 0
-1095 -1586 0
-1096 -1588 0
-1097 -1589 0
-1098 -1590 0
-1099 -1591 0
-1095 -1600 0
-1097 -1602 0
-1098 -1603 0
-1099 -1604 0
-1094 -1619 0
-1095 -1620 0
-1098 -1622 0
-1099 -1623 0
-1093 -1624 0
-1096 -1627 0
-1098 -1628 0
-1099 -1629 0
-1096 -1633 0
-1098 -1634 0
-1099 -1635 0
-1097 -1639 0
-1098 -1640 0
-1099 -1641 0
-1095 -1662 0
-1098 -1665 0
-1099 -1666 0
-1094 -1674 0
-1095 -1675 0
-1097 -1678 0
-1098 -1679 0
-1099 -1680 0
-1096 -1683 0
-1097 -1684 0
-1098 -1685 0
-1099 -1686 0
-1096 -1690 0
-1097 -1691 0
-1098 -1692 0
-1099 -1693 0
-1097 -1717 0
-1098 -1718 0
-1099 -1719 0
-1097 -1723 0
-1098 -1724 0
-1099 -1725 0
-1096 -1728 0
-1097 -1729 0
-1098 -1730 0
-1099 -1731 0
-1094 -1751 0
-1096 -1753 0
-1097 -1754 0
-1098 -1755 0
-1099 -1756 0
-1095 -1758 0
-1097 -1760 0
-1098 -1761 0
-1099 -1762 0
-1095 -1785 0
-1096 -1787 0
-1097 -1788 0
-1098 -1789 0
-1099 -1790 0
-1095 -1792 0
-1097 -1794 0
-1098 -1795 0
-1099 -1796 0
-1094 -1812 0
-1095 -1813 0
-1096 -1815 0
-1098 -1816 0
-1099 -1817 0
-1095 -1819 0
-1096 -1821 0
-1098 -1822 0
-1099 -1823 0
-1095 -1824 0
-1096 -1827 0
-1097 -1828 0
-1098 -1829 0
-1099 -1830 0
-1095 -1853 0
-1096 -1856 0
-1097 -1857 0
-1098 -1858 0
-1099 -1859 0
-1102 -1275 0
-1103 -1278 0
-1104 -1279 0
-1105 -1280 0
-1106 -1281 0
-1102 -1282 0
-1104 -1286 0
-1105 -1287 0
-1106 -1288 0
-1105 -1337 0
-1106 -1338 0
-1103 -1342 0
-1104 -1343 0
-1105 -1344 0
-1106 -1345 0
-1101 -1422 0
-1103 -1426 0
-1105 -1427 0
-1106 -1428 0
-1101 -1429 0
-1102 -1430 0
-1105 -1434 0
-1106 -1435 0
-1101 -1436 0
-1102 -1437 0
-1103 -1441 0
-1104 -1442 0
-1105 -1443 0
-1106 -1444 0
-1102 -1445 0
-1103 -1450 0
-1105 -1451 0
-1106 -1452 0
-1102 -1453 0
-1103 -1456 0
-1104 -1457 0
-1105 -1458 0
-1106 -1459 0
-1102 -1460 0
-1103 -1463 0
-1104 -1464 0
-1105 -1465 0
-1106 -1466 0
-1101 -1467 0
-1103 -1471 0
-1105 -1472 0
-1106 -1473 0
-1101 -1474 0
-1104 -1477 0
-1105 -1478 0
-1106 -1479 0
-1103 -1484 0
-1104 -1485 0
-1105 -1486 0
-1106 -1487 0
-1102 -1488 0
-1104 -1492 0
-1105 -1493 0
-1106 -1494 0
-1101 -1573 0
-1103 -1575 0
-1105 -1576 0
-1106 -1577 0
-1105 -1583 0
-1106 -1584 0
-1103 -1588 0
-1104 -1589 0
-1105 -1590 0
-1106 -1591 0
-1102 -1593 0
-1104 -1595 0
-1105 -1596 0
-1106 -1597 0
-1100 -1611 0
-1103 -1615 0
-1105 -1616 0
-1106 -1617 0
-1100 -1618 0
-1102 -1619 0
-1105 -1622 0
-1106 -1623 0
-1100 -1630 0
-1103 -1633 0
-1105 -1634 0
-1106 -1635 0
-1100 -1636 0
-1104 -1639 0
-1105 -1640 0
-1106 -1641 0
-1102 -1674 0
-1104 -1678 0
-1105 -1679 0
-1106 -1680 0
-1101 -1681 0
-1103 -1683 0
-1104 -1684 0
-1105 -1685 0
-1106 -1686 0
-1103 -1690 0
-1104 -1691 0
-1105 -1692 0
-1106 -1693 0
-1102 -1695 0
-1103 -1698 0
-1105 -1699 0
-1106 -1700 0
-1104 -1711 0
-1105 -1712 0
-1106 -1713 0
-1100 -1714 0
-1104 -1717 0
-1105 -1718 0
-1106 -1719 0
-1101 -1720 0
-1104 -1723 0
-1105 -1724 0
-1106 -1725 0
-1101 -1726 0
-1103 -1728 0
-1104 -1729 0
-1105 -1730 0
-1106 -1731 0
-1102 -1812 0
-1103 -1815 0
-1105 -1816 0
-1106 -1817 0
-1103 -1821 0
-1105 -1822 0
-1106 -1823 0
-1103 -1827 0
-1104 -1828 0
-1105 -1829 0
-1106 -1830 0
-1103 -1856 0
-1104 -1857 0
-1105 -1858 0
-1106 -1859 0
-1108 -1161 0
-1109 -1162 0
-1110 -1163 0
-1111 -1164 0
-1112 -1165 0
-1113 -1166 0
-1114 -1167 0
-1115 -1168 0
-1108 -1196 0
-1110 -1197 0
-1111 -1198 0
-1113 -1199 0
-1114 -1200 0
-1115 -1201 0
-1108 -1248 0
-1110 -1249 0
-1111 -1250 0
-1112 -1251 0
-1114 -1252 0
-1115 -1253 0
-1108 -1261 0
-1110 -1263 0
-1111 -1264 0
-1114 -1265 0
-1115 -1266 0
-1108 -1267 0
-1109 -1269 0
-1110 -1270 0
-1111 -1271 0
-1112 -1272 0
-1114 -1273 0
-1115 -1274 0
-1107 -1297 0
-1110 -1299 0
-1111 -1300 0
-1113 -1301 0
-1114 -1302 0
-1115 -1303 0
-1107 -1311 0
-1112 -1313 0
-1113 -1314 0
-1114 -1315 0
-1115 -1316 0
-1107 -1317 0
-1108 -1318 0
-1109 -1320 0
-1110 -1321 0
-1113 -1322 0
-1114 -1323 0
-1115 -1324 0
-1110 -1328 0
-1113 -1329 0
-1114 -1330 0
-1115 -1331 0
-1108 -1371 0
-1110 -1372 0
-1112 -1373 0
-1113 -1374 0
-1114 -1375 0
-1115 -1376 0
-1109 -1379 0
-1110 -1380 0
-1112 -1381 0
-1113 -1382 0
-1114 -1383 0
-1115 -1384 0
-1109 -1394 0
-1110 -1395 0
-1111 -1396 0
-1113 -1397 0
-1114 -1398 0
-1115 -1399 0
-1109 -1402 0
-1112 -1403 0
-1113 -1404 0
-1114 -1405 0
-1115 -1406 0
-1108 -1408 0
-1110 -1410 0
-1113 -1411 0
-1114 -1412 0
-1115 -1413 0
-1108 -1437 0
-1109 -1438 0
-1110 -1439 0
-1111 -1440 0
-1112 -1441 0
-1113 -1442 0
-1114 -1443 0
-1115 -1444 0
-1108 -1453 0
-1109 -1455 0
-1112 -1456 0
-1113 -1457 0
-1114 -1458 0
-1115 -1459 0
-1108 -1460 0
-1110 -1462 0
-1112 -1463 0
-1113 -1464 0
-1114 -1465 0
-1115 -1466 0
-1110 -1469 0
-1111 -1470 0
-1112 -1471 0
-1114 -1472 0
-1115 -1473 0
-1109 -1502 0
-1111 -1503 0
-1112 -1504 0
-1114 -1505 0
-1115 -1506 0
-1108 -1530 0
-1109 -1531 0
-1113 -1532 0
-1114 -1533 0
-1115 -1534 0
-1109 -1560 0
-1110 -1561 0
-1113 -1562 0
-1114 -1563 0
-1115 -1564 0
-1107 -1565 0
-1111 -1567 0
-1112 -1568 0
-1113 -1569 0
-1114 -1570 0
-1115 -1571 0
-1107 -1572 0
-1109 -1574 0
-1112 -1575 0
-1114 -1576 0
-1115 -1577 0
-1107 -1578 0
-1109 -1580 0
-1110 -1581 0
-1111 -1582 0
-1114 -1583 0
-1115 -1584 0
-1109 -1612 0
-1110 -1613 0
-1111 -1614 0
-1112 -1615 0
-1114 -1616 0
-1115 -1617 0
-1108 -1619 0
-1109 -1620 0
-1111 -1621 0
-1114 -1622 0
-1115 -1623 0
-1109 -1643 0
-1112 -1644 0
-1113 -1645 0
-1114 -1646 0
-1115 -1647 0
-1109 -1655 0
-1110 -1656 0
-1111 -1657 0
-1112 -1658 0
-1114 -1659 0
-1115 -1660 0
-1109 -1662 0
-1110 -1663 0
-1111 -1664 0
-1114 -1665 0
-1115 -1666 0
-1108 -1668 0
-1110 -1669 0
-1111 -1670 0
-1112 -1671 0
-1114 -1672 0
-1115 -1673 0
-1110 -1682 0
-1112 -1683 0
-1113 -1684 0
-1114 -1685 0
-1115 -1686 0
-1110 -1688 0
-1111 -1689 0
-1112 -1690 0
-1113 -1691 0
-1114 -1692 0
-1115 -1693 0
-1110 -1715 0
-1111 -1716 0
-1113 -1717 0
-1114 -1718 0
-1115 -1719 0
-1109 -1733 0
-1110 -1734 0
-1111 -1735 0
-1114 -1736 0
-1115 -1737 0
-1109 -1739 0
-1111 -1740 0
-1112 -1741 0
-1114 -1742 0
-1115 -1743 0
-1109 -1764 0
-1111 -1765 0
-1112 -1766 0
-1113 -1767 0
-1114 -1768 0
-1115 -1769 0
-1109 -1779 0
-1112 -1780 0
-1113 -1781 0
-1114 -1782 0
-1115 -1783 0
-1109 -1785 0
-1111 -1786 0
-1112 -1787 0
-1113 -1788 0
-1114 -1789 0
-1115 -1790 0
-1109 -1792 0
-1110 -1793 0
-1113 -1794 0
-1114 -1795 0
-1115 -1796 0
-1108 -1797 0
-1109 -1799 0
-1112 -1800 0
-1113 -1801 0
-1114 -1802 0
-1115 -1803 0
-1109 -1819 0
-1111 -1820 0
-1112 -1821 0
-1114 -1822 0
-1115 -1823 0
-1110 -1846 0
-1111 -1847 0
-1112 -1848 0
-1113 -1849 0
-1114 -1850 0
-1115 -1851 0
-1117 -1240 0
-1119 -1242 0
-1120 -1245 0
-1121 -1246 0
-1117 -1248 0
-1119 -1250 0
-1120 -1252 0
-1121 -1253 0
-1117 -1267 0
-1118 -1269 0
-1119 -1271 0
-1120 -1273 0
-1121 -1274 0
-1120 -1295 0
-1121 -1296 0
-1119 -1300 0
-1120 -1302 0
-1121 -1303 0
-1117 -1318 0
-1118 -1320 0
-1120 -1323 0
-1121 -1324 0
-1116 -1377 0
-1118 -1379 0
-1120 -1383 0
-1121 -1384 0
-1116 -1385 0
-1118 -1387 0
-1119 -1388 0
-1120 -1390 0
-1121 -1391 0
-1118 -1394 0
-1119 -1396 0
-1120 -1398 0
-1121 -1399 0
-1117 -1408 0
-1120 -1412 0
-1121 -1413 0
-1117 -1415 0
-1119 -1417 0
-1120 -1420 0
-1121 -1421 0
-1117 -1430 0
-1118 -1432 0
-1120 -1434 0
-1121 -1435 0
-1117 -1437 0
-1118 -1438 0
-1119 -1440 0
-1120 -1443 0
-1121 -1444 0
-1117 -1460 0
-1120 -1465 0
-1121 -1466 0
-1119 -1483 0
-1120 -1486 0
-1121 -1487 0
-1118 -1496 0
-1120 -1499 0
-1121 -1500 0
-1118 -1502 0
-1119 -1503 0
-1120 -1505 0
-1121 -1506 0
-1116 -1566 0
-1119 -1567 0
-1120 -1570 0
-1121 -1571 0
-1118 -1580 0
-1119 -1582 0
-1120 -1583 0
-1121 -1584 0
-1118 -1586 0
-1120 -1590 0
-1121 -1591 0
-1116 -1598 0
-1118 -1600 0
-1120 -1603 0
-1121 -1604 0
-1118 -1606 0
-1119 -1607 0
-1120 -1609 0
-1121 -1610 0
-1116 -1618 0
-1117 -1619 0
-1118 -1620 0
-1119 -1621 0
-1120 -1622 0
-1121 -1623 0
-1116 -1654 0
-1118 -1655 0
-1119 -1657 0
-1120 -1659 0
-1121 -1660 0
-1117 -1668 0
-1119 -1670 0
-1120 -1672 0
-1121 -1673 0
-1119 -1689 0
-1120 -1692 0
-1121 -1693 0
-1118 -1701 0
-1119 -1703 0
-1120 -1706 0
-1121 -1707 0
-1116 -1714 0
-1119 -1716 0
-1120 -1718 0
-1121 -1719 0
-1118 -1739 0
-1119 -1740 0
-1120 -1742 0
-1121 -1743 0
-1118 -1744 0
-1119 -1746 0
-1120 -1749 0
-1121 -1750 0
-1118 -1764 0
-1119 -1765 0
-1120 -1768 0
-1121 -1769 0
-1118 -1772 0
-1120 -1776 0
-1121 -1777 0
-1118 -1785 0
-1119 -1786 0
-1120 -1789 0
-1121 -1790 0
-1117 -1797 0
-1118 -1799 0
-1120 -1802 0
-1121 -1803 0
-1117 -1804 0
-1118 -1805 0
-1119 -1807 0
-1120 -1809 0
-1121 -1810 0
-1117 -1812 0
-1118 -1813 0
-1120 -1816 0
-1121 -1817 0
-1119 -1847 0
-1120 -1850 0
-1121 -1851 0
-1118 -1853 0
-1119 -1855 0
-1120 -1858 0
-1121 -1859 0
-1124 -1136 0
-1125 -1137 0
-1126 -1138 0
-1127 -1139 0
-1128 -1140 0
-1124 -1233 0
-1125 -1234 0
-1126 -1235 0
-1127 -1237 0
-1128 -1238 0
-1123 -1248 0
-1124 -1249 0
-1125 -1250 0
-1126 -1251 0
-1127 -1252 0
-1128 -1253 0
-1123 -1261 0
-1124 -1263 0
-1125 -1264 0
-1127 -1265 0
-1128 -1266 0
-1123 -1282 0
-1124 -1284 0
-1125 -1285 0
-1127 -1287 0
-1128 -1288 0
-1124 -1299 0
-1125 -1300 0
-1127 -1302 0
-1128 -1303 0
-1126 -1313 0
-1127 -1315 0
-1128 -1316 0
-1124 -1341 0
-1126 -1342 0
-1127 -1344 0
-1128 -1345 0
-1122 -1385 0
-1125 -1388 0
-1127 -1390 0
-1128 -1391 0
-1124 -1395 0
-1125 -1396 0
-1127 -1398 0
-1128 -1399 0
-1126 -1403 0
-1127 -1405 0
-1128 -1406 0
-1123 -1415 0
-1125 -1417 0
-1126 -1418 0
-1127 -1420 0
-1128 -1421 0
-1124 -1425 0
-1126 -1426 0
-1127 -1427 0
-1128 -1428 0
-1123 -1437 0
-1124 -1439 0
-1125 -1440 0
-1126 -1441 0
-1127 -1443 0
-1128 -1444 0
-1123 -1453 0
-1126 -1456 0
-1127 -1458 0
-1128 -1459 0
-1124 -1469 0
-1125 -1470 0
-1126 -1471 0
-1127 -1472 0
-1128 -1473 0
-1123 -1488 0
-1125 -1491 0
-1127 -1493 0
-1128 -1494 0
-1124 -1497 0
-1127 -1499 0
-1128 -1500 0
-1124 -1561 0
-1127 -1563 0
-1128 -1564 0
-1126 -1575 0
-1127 -1576 0
-1128 -1577 0
-1124 -1581 0
-1125 -1582 0
-1127 -1583 0
-1128 -1584 0
-1123 -1593 0
-1124 -1594 0
-1127 -1596 0
-1128 -1597 0
-1122 -1598 0
-1124 -1601 0
-1127 -1603 0
-1128 -1604 0
-1125 -1607 0
-1127 -1609 0
-1128 -1610 0
-1122 -1611 0
-1124 -1613 0
-1125 -1614 0
-1126 -1615 0
-1127 -1616 0
-1128 -1617 0
-1122 -1630 0
-1124 -1632 0
-1126 -1633 0
-1127 -1634 0
-1128 -1635 0
-1122 -1642 0
-1126 -1644 0
-1127 -1646 0
-1128 -1647 0
-1124 -1663 0
-1125 -1664 0
-1127 -1665 0
-1128 -1666 0
-1124 -1682 0
-1126 -1683 0
-1127 -1685 0
-1128 -1686 0
-1124 -1688 0
-1125 -1689 0
-1126 -1690 0
-1127 -1692 0
-1128 -1693 0
-1123 -1695 0
-1124 -1697 0
-1126 -1698 0
-1127 -1699 0
-1128 -1700 0
-1124 -1702 0
-1125 -1703 0
-1126 -1704 0
-1127 -1706 0
-1128 -1707 0
-1125 -1710 0
-1127 -1712 0
-1128 -1713 0
-1125 -1722 0
-1127 -1724 0
-1128 -1725 0
-1124 -1734 0
-1125 -1735 0
-1127 -1736 0
-1128 -1737 0
-1125 -1740 0
-1126 -1741 0
-1127 -1742 0
-1128 -1743 0
-1123 -1751 0
-1125 -1752 0
-1126 -1753 0
-1127 -1755 0
-1128 -1756 0
-1125 -1786 0
-1126 -1787 0
-1127 -1789 0
-1128 -1790 0
-1124 -1793 0
-1127 -1795 0
-1128 -1796 0
-1123 -1804 0
-1124 -1806 0
-1125 -1807 0
-1127 -1809 0
-1128 -1810 0
-1125 -1820 0
-1126 -1821 0
-1127 -1822 0
-1128 -1823 0
-1132 -1199 0
-1133 -1200 0
-1134 -1201 0
-1131 -1226 0
-1133 -1227 0
-1134 -1228 0
-1129 -1297 0
-1132 -1301 0
-1133 -1302 0
-1134 -1303 0
-1129 -1311 0
-1130 -1312 0
-1131 -1313 0
-1132 -1314 0
-1133 -1315 0
-1134 -1316 0
-1129 -1317 0
-1130 -1319 0
-1132 -1322 0
-1133 -1323 0
-1134 -1324 0
-1130 -1327 0
-1132 -1329 0
-1133 -1330 0
-1134 -1331 0
-1129 -1339 0
-1131 -1342 0
-1132 -1343 0
-1133 -1344 0
-1134 -1345 0
-1132 -1350 0
-1133 -1351 0
-1134 -1352 0
-1130 -1354 0
-1131 -1358 0
-1132 -1359 0
-1133 -1360 0
-1134 -1361 0
-1130 -1364 0
-1132 -1367 0
-1133 -1368 0
-1134 -1369 0
-1130 -1386 0
-1132 -1389 0
-1133 -1390 0
-1134 -1391 0
-1130 -1393 0
-1132 -1397 0
-1133 -1398 0
-1134 -1399 0
-1130 -1401 0
-1131 -1403 0
-1132 -1404 0
-1133 -1405 0
-1134 -1406 0
-1130 -1409 0
-1132 -1411 0
-1133 -1412 0
-1134 -1413 0
-1130 -1423 0
-1131 -1426 0
-1133 -1427 0
-1134 -1428 0
-1130 -1431 0
-1133 -1434 0
-1134 -1435 0
-1130 -1446 0
-1131 -1450 0
-1133 -1451 0
-1134 -1452 0
-1130 -1475 0
-1132 -1477 0
-1133 -1478 0
-1134 -1479 0
-1130 -1481 0
-1131 -1484 0
-1132 -1485 0
-1133 -1486 0
-1134 -1487 0
-1130 -1489 0
-1132 -1492 0
-1133 -1493 0
-1134 -1494 0
-1130 -1501 0
-1131 -1504 0
-1133 -1505 0
-1134 -1506 0
-1132 -1532 0
-1133 -1533 0
-1134 -1534 0
-1131 -1549 0
-1132 -1550 0
-1133 -1551 0
-1134 -1552 0
-1129 -1565 0
-1131 -1568 0
-1132 -1569 0
-1133 -1570 0
-1134 -1571 0
-1129 -1572 0
-1131 -1575 0
-1133 -1576 0
-1134 -1577 0
-1129 -1578 0
-1130 -1579 0
-1133 -1583 0
-1134 -1584 0
-1129 -1605 0
-1132 -1608 0
-1133 -1609 0
-1134 -1610 0
-1129 -1624 0
-1131 -1627 0
-1133 -1628 0
-1134 -1629 0
-1130 -1631 0
-1131 -1633 0
-1133 -1634 0
-1134 -1635 0
-1131 -1644 0
-1132 -1645 0
-1133 -1646 0
-1134 -1647 0
-1133 -1665 0
-1134 -1666 0
-1131 -1671 0
-1133 -1672 0
-1134 -1673 0
-1132 -1678 0
-1133 -1679 0
-1134 -1680 0
-1131 -1698 0
-1133 -1699 0
-1134 -1700 0
-1131 -1766 0
-1132 -1767 0
-1133 -1768 0
-1134 -1769 0
-1131 -1780 0
-1132 -1781 0
-1133 -1782 0
-1134 -1783 0
-1131 -1787 0
-1132 -1788 0
-1133 -1789 0
-1134 -1790 0
-1130 -1791 0
-1132 -1794 0
-1133 -1795 0
-1134 -1796 0
-1130 -1798 0
-1131 -1800 0
-1132 -1801 0
-1133 -1802 0
-1134 -1803 0
-1131 -1815 0
-1133 -1816 0
-1134 -1817 0
-1131 -1827 0
-1132 -1828 0
-1133 -1829 0
-1134 -1830 0
-1130 -1845 0
-1131 -1848 0
-1132 -1849 0
-1133 -1850 0
-1134 -1851 0
-1131 -1856 0
-1132 -1857 0
-1133 -1858 0
-1134 -1859 0
-1138 -1192 0
-1139 -1193 0
-1140 -1194 0
-1136 -1211 0
-1138 -1212 0
-1139 -1214 0
-1140 -1215 0
-1137 -1219 0
-1139 -1221 0
-1140 -1222 0
-1135 -1289 0
-1136 -1292 0
-1138 -1293 0
-1139 -1295 0
-1140 -1296 0
-1135 -1304 0
-1136 -1306 0
-1137 -1307 0
-1139 -1309 0
-1140 -1310 0
-1135 -1317 0
-1136 -1321 0
-1139 -1323 0
-1140 -1324 0
-1136 -1328 0
-1139 -1330 0
-1140 -1331 0
-1135 -1332 0
-1136 -1335 0
-1137 -1336 0
-1139 -1337 0
-1140 -1338 0
-1136 -1349 0
-1139 -1351 0
-1140 -1352 0
-1136 -1356 0
-1137 -1357 0
-1138 -1358 0
-1139 -1360 0
-1140 -1361 0
-1136 -1372 0
-1138 -1373 0
-1139 -1375 0
-1140 -1376 0
-1136 -1380 0
-1138 -1381 0
-1139 -1383 0
-1140 -1384 0
-1136 -1395 0
-1137 -1396 0
-1139 -1398 0
-1140 -1399 0
-1138 -1403 0
-1139 -1405 0
-1140 -1406 0
-1137 -1417 0
-1138 -1418 0
-1139 -1420 0
-1140 -1421 0
-1136 -1425 0
-1138 -1426 0
-1139 -1427 0
-1140 -1428 0
-1136 -1439 0
-1137 -1440 0
-1138 -1441 0
-1139 -1443 0
-1140 -1444 0
-1138 -1456 0
-1139 -1458 0
-1140 -1459 0
-1136 -1469 0
-1137 -1470 0
-1138 -1471 0
-1139 -1472 0
-1140 -1473 0
-1137 -1491 0
-1139 -1493 0
-1140 -1494 0
-1136 -1497 0
-1139 -1499 0
-1140 -1500 0
-1136 -1523 0
-1137 -1524 0
-1138 -1525 0
-1139 -1527 0
-1140 -1528 0
-1136 -1543 0
-1137 -1544 0
-1139 -1545 0
-1140 -1546 0
-1135 -1585 0
-1136 -1587 0
-1138 -1588 0
-1139 -1590 0
-1140 -1591 0
-1135 -1624 0
-1136 -1625 0
-1137 -1626 0
-1138 -1627 0
-1139 -1628 0
-1140 -1629 0
-1136 -1637 0
-1137 -1638 0
-1139 -1640 0
-1140 -1641 0
-1135 -1648 0
-1136 -1649 0
-1137 -1650 0
-1138 -1651 0
-1139 -1652 0
-1140 -1653 0
-1136 -1656 0
-1137 -1657 0
-1138 -1658 0
-1139 -1659 0
-1140 -1660 0
-1136 -1663 0
-1137 -1664 0
-1139 -1665 0
-1140 -1666 0
-1136 -1682 0
-1138 -1683 0
-1139 -1685 0
-1140 -1686 0
-1136 -1688 0
-1137 -1689 0
-1138 -1690 0
-1139 -1692 0
-1140 -1693 0
-1136 -1697 0
-1138 -1698 0
-1139 -1699 0
-1140 -1700 0
-1136 -1702 0
-1137 -1703 0
-1138 -1704 0
-1139 -1706 0
-1140 -1707 0
-1135 -1771 0
-1136 -1773 0
-1138 -1774 0
-1139 -1776 0
-1140 -1777 0
-1138 -1780 0
-1139 -1782 0
-1140 -1783 0
-1137 -1786 0
-1138 -1787 0
-1139 -1789 0
-1140 -1790 0
-1136 -1793 0
-1139 -1795 0
-1140 -1796 0
-1136 -1806 0
-1137 -1807 0
-1139 -1809 0
-1140 -1810 0
-1137 -1820 0
-1138 -1821 0
-1139 -1822 0
-1140 -1823 0
-1137 -1839 0
-1138 -1840 0
-1139 -1842 0
-1140 -1843 0
-1143 -1219 0
-1145 -1221 0
-1146 -1222 0
-1144 -1226 0
-1145 -1227 0
-1146 -1228 0
-1143 -1307 0
-1145 -1309 0
-1146 -1310 0
-1144 -1313 0
-1145 -1315 0
-1146 -1316 0
-1145 -1323 0
-1146 -1324 0
-1143 -1336 0
-1145 -1337 0
-1146 -1338 0
-1144 -1342 0
-1145 -1344 0
-1146 -1345 0
-1141 -1353 0
-1143 -1357 0
-1144 -1358 0
-1145 -1360 0
-1146 -1361 0
-1141 -1362 0
-1143 -1366 0
-1145 -1368 0
-1146 -1369 0
-1141 -1370 0
-1144 -1373 0
-1145 -1375 0
-1146 -1376 0
-1142 -1400 0
-1144 -1403 0
-1145 -1405 0
-1146 -1406 0
-1142 -1407 0
-1145 -1412 0
-1146 -1413 0
-1142 -1414 0
-1143 -1417 0
-1144 -1418 0
-1145 -1420 0
-1146 -1421 0
-1142 -1422 0
-1144 -1426 0
-1145 -1427 0
-1146 -1428 0
-1142 -1429 0
-1145 -1434 0
-1146 -1435 0
-1142 -1436 0
-1143 -1440 0
-1144 -1441 0
-1145 -1443 0
-1146 -1444 0
-1143 -1483 0
-1144 -1484 0
-1145 -1486 0
-1146 -1487 0
-1143 -1491 0
-1145 -1493 0
-1146 -1494 0
-1145 -1499 0
-1146 -1500 0
-1143 -1503 0
-1144 -1504 0
-1145 -1505 0
-1146 -1506 0
-1143 -1544 0
-1145 -1545 0
-1146 -1546 0
-1143 -1548 0
-1144 -1549 0
-1145 -1551 0
-1146 -1552 0
-1141 -1566 0
-1143 -1567 0
-1144 -1568 0
-1145 -1570 0
-1146 -1571 0
-1142 -1573 0
-1144 -1575 0
-1145 -1576 0
-1146 -1577 0
-1141 -1598 0
-1142 -1599 0
-1145 -1603 0
-1146 -1604 0
-1143 -1626 0
-1144 -1627 0
-1145 -1628 0
-1146 -1629 0
-1141 -1630 0
-1144 -1633 0
-1145 -1634 0
-1146 -1635 0
-1141 -1636 0
-1143 -1638 0
-1145 -1640 0
-1146 -1641 0
-1141 -1642 0
-1144 -1644 0
-1145 -1646 0
-1146 -1647 0
-1143 -1650 0
-1144 -1651 0
-1145 -1652 0
-1146 -1653 0
-1142 -1661 0
-1143 -1664 0
-1145 -1665 0
-1146 -1666 0
-1142 -1667 0
-1143 -1670 0
-1144 -1671 0
-1145 -1672 0
-1146 -1673 0
-1143 -1689 0
-1144 -1690 0
-1145 -1692 0
-1146 -1693 0
-1144 -1698 0
-1145 -1699 0
-1146 -1700 0
-1143 -1703 0
-1144 -1704 0
-1145 -1706 0
-1146 -1707 0
-1142 -1763 0
-1143 -1765 0
-1144 -1766 0
-1145 -1768 0
-1146 -1769 0
-1145 -1795 0
-1146 -1796 0
-1144 -1800 0
-1145 -1802 0
-1146 -1803 0
-1143 -1807 0
-1145 -1809 0
-1146 -1810 0
-1144 -1815 0
-1145 -1816 0
-1146 -1817 0
-1143 -1847 0
-1144 -1848 0
-1145 -1850 0
-1146 -1851 0
-1143 -1855 0
-1144 -1856 0
-1145 -1858 0
-1146 -1859 0
-1149 -1211 0
-1150 -1212 0
-1151 -1214 0
-1152 -1215 0
-1148 -1291 0
-1149 -1292 0
-1150 -1293 0
-1151 -1295 0
-1152 -1296 0
-1149 -1299 0
-1151 -1302 0
-1152 -1303 0
-1148 -1319 0
-1149 -1321 0
-1151 -1323 0
-1152 -1324 0
-1148 -1333 0
-1149 -1335 0
-1151 -1337 0
-1152 -1338 0
-1149 -1341 0
-1150 -1342 0
-1151 -1344 0
-1152 -1345 0
-1147 -1346 0
-1149 -1349 0
-1151 -1351 0
-1152 -1352 0
-1147 -1362 0
-1148 -1364 0
-1149 -1365 0
-1151 -1368 0
-1152 -1369 0
-1147 -1370 0
-1149 -1372 0
-1150 -1373 0
-1151 -1375 0
-1152 -1376 0
-1148 -1393 0
-1149 -1395 0
-1151 -1398 0
-1152 -1399 0
-1148 -1409 0
-1149 -1410 0
-1151 -1412 0
-1152 -1413 0
-1148 -1416 0
-1150 -1418 0
-1151 -1420 0
-1152 -1421 0
-1148 -1423 0
-1149 -1425 0
-1150 -1426 0
-1151 -1427 0
-1152 -1428 0
-1148 -1446 0
-1149 -1448 0
-1150 -1450 0
-1151 -1451 0
-1152 -1452 0
-1148 -1454 0
-1150 -1456 0
-1151 -1458 0
-1152 -1459 0
-1148 -1468 0
-1149 -1469 0
-1150 -1471 0
-1151 -1472 0
-1152 -1473 0
-1148 -1475 0
-1151 -1478 0
-1152 -1479 0
-1148 -1489 0
-1151 -1493 0
-1152 -1494 0
-1148 -1495 0
-1149 -1497 0
-1151 -1499 0
-1152 -1500 0
-1148 -1501 0
-1150 -1504 0
-1151 -1505 0
-1152 -1506 0
-1147 -1566 0
-1150 -1568 0
-1151 -1570 0
-1152 -1571 0
-1148 -1579 0
-1149 -1581 0
-1151 -1583 0
-1152 -1584 0
-1149 -1587 0
-1150 -1588 0
-1151 -1590 0
-1152 -1591 0
-1147 -1598 0
-1149 -1601 0
-1151 -1603 0
-1152 -1604 0
-1147 -1611 0
-1149 -1613 0
-1150 -1615 0
-1151 -1616 0
-1152 -1617 0
-1147 -1630 0
-1148 -1631 0
-1149 -1632 0
-1150 -1633 0
-1151 -1634 0
-1152 -1635 0
-1147 -1636 0
-1149 -1637 0
-1151 -1640 0
-1152 -1641 0
-1149 -1669 0
-1150 -1671 0
-1151 -1672 0
-1152 -1673 0
-1149 -1676 0
-1151 -1679 0
-1152 -1680 0
-1149 -1682 0
-1150 -1683 0
-1151 -1685 0
-1152 -1686 0
-1149 -1697 0
-1150 -1698 0
-1151 -1699 0
-1152 -1700 0
-1149 -1702 0
-1150 -1704 0
-1151 -1706 0
-1152 -1707 0
-1150 -1766 0
-1151 -1768 0
-1152 -1769 0
-1149 -1773 0
-1150 -1774 0
-1151 -1776 0
-1152 -1777 0
-1150 -1787 0
-1151 -1789 0
-1152 -1790 0
-1148 -1798 0
-1150 -1800 0
-1151 -1802 0
-1152 -1803 0
-1149 -1806 0
-1151 -1809 0
-1152 -1810 0
-1148 -1818 0
-1150 -1821 0
-1151 -1822 0
-1152 -1823 0
-1149 -1825 0
-1150 -1827 0
-1151 -1829 0
-1152 -1830 0
-1148 -1845 0
-1149 -1846 0
-1150 -1848 0
-1151 -1850 0
-1152 -1851 0
-1154 -1203 0
-1156 -1204 0
-1158 -1206 0
-1159 -1207 0
-1154 -1223 0
-1156 -1224 0
-1157 -1226 0
-1158 -1227 0
-1159 -1228 0
-1154 -1282 0
-1156 -1283 0
-1158 -1287 0
-1159 -1288 0
-1158 -1302 0
-1159 -1303 0
-1155 -1312 0
-1157 -1313 0
-1158 -1315 0
-1159 -1316 0
-1155 -1333 0
-1156 -1334 0
-1158 -1337 0
-1159 -1338 0
-1153 -1346 0
-1156 -1348 0
-1158 -1351 0
-1159 -1352 0
-1153 -1353 0
-1155 -1354 0
-1156 -1355 0
-1157 -1358 0
-1158 -1360 0
-1159 -1361 0
-1153 -1370 0
-1154 -1371 0
-1157 -1373 0
-1158 -1375 0
-1159 -1376 0
-1155 -1393 0
-1156 -1394 0
-1158 -1398 0
-1159 -1399 0
-1155 -1401 0
-1156 -1402 0
-1157 -1403 0
-1158 -1405 0
-1159 -1406 0
-1154 -1415 0
-1155 -1416 0
-1157 -1418 0
-1158 -1420 0
-1159 -1421 0
-1154 -1430 0
-1155 -1431 0
-1156 -1432 0
-1158 -1434 0
-1159 -1435 0
-1154 -1445 0
-1155 -1446 0
-1156 -1447 0
-1157 -1450 0
-1158 -1451 0
-1159 -1452 0
-1154 -1460 0
-1155 -1461 0
-1157 -1463 0
-1158 -1465 0
-1159 -1466 0
-1155 -1475 0
-1158 -1478 0
-1159 -1479 0
-1155 -1481 0
-1157 -1484 0
-1158 -1486 0
-1159 -1487 0
-1155 -1495 0
-1156 -1496 0
-1158 -1499 0
-1159 -1500 0
-1156 -1536 0
-1158 -1539 0
-1159 -1540 0
-1154 -1547 0
-1157 -1549 0
-1158 -1551 0
-1159 -1552 0
-1156 -1574 0
-1157 -1575 0
-1158 -1576 0
-1159 -1577 0
-1155 -1579 0
-1156 -1580 0
-1158 -1583 0
-1159 -1584 0
-1154 -1593 0
-1158 -1596 0
-1159 -1597 0
-1153 -1598 0
-1156 -1600 0
-1158 -1603 0
-1159 -1604 0
-1153 -1618 0
-1154 -1619 0
-1156 -1620 0
-1158 -1622 0
-1159 -1623 0
-1157 -1627 0
-1158 -1628 0
-1159 -1629 0
-1153 -1636 0
-1158 -1640 0
-1159 -1641 0
-1153 -1642 0
-1156 -1643 0
-1157 -1644 0
-1158 -1646 0
-1159 -1647 0
-1156 -1662 0
-1158 -1665 0
-1159 -1666 0
-1154 -1674 0
-1156 -1675 0
-1158 -1679 0
-1159 -1680 0
-1156 -1701 0
-1157 -1704 0
-1158 -1706 0
-1159 -1707 0
-1156 -1709 0
-1158 -1712 0
-1159 -1713 0
-1153 -1714 0
-1158 -1718 0
-1159 -1719 0
-1155 -1721 0
-1158 -1724 0
-1159 -1725 0
-1155 -1757 0
-1156 -1758 0
-1158 -1761 0
-1159 -1762 0
-1156 -1785 0
-1157 -1787 0
-1158 -1789 0
-1159 -1790 0
-1155 -1791 0
-1156 -1792 0
-1158 -1795 0
-1159 -1796 0
-1154 -1804 0
-1156 -1805 0
-1158 -1809 0
-1159 -1810 0
-1154 -1812 0
-1156 -1813 0
-1157 -1815 0
-1158 -1816 0
-1159 -1817 0
-1156 -1824 0
-1157 -1827 0
-1158 -1829 0
-1159 -1830 0
-1156 -1853 0
-1157 -1856 0
-1158 -1858 0
-1159 -1859 0
-1161 -1203 0
-1162 -1204 0
-1166 -1205 0
-1167 -1206 0
-1168 -1207 0
-1161 -1209 0
-1162 -1210 0
-1163 -1211 0
-1165 -1212 0
-1166 -1213 0
-1167 -1214 0
-1168 -1215 0
-1161 -1216 0
-1162 -1218 0
-1164 -1219 0
-1166 -1220 0
-1167 -1221 0
-1168 -1222 0
-1161 -1275 0
-1162 -1277 0
-1165 -1278 0
-1166 -1279 0
-1167 -1280 0
-1168 -1281 0
-1163 -1292 0
-1165 -1293 0
-1166 -1294 0
-1167 -1295 0
-1168 -1296 0
-1163 -1306 0
-1164 -1307 0
-1166 -1308 0
-1167 -1309 0
-1168 -1310 0
-1162 -1340 0
-1163 -1341 0
-1165 -1342 0
-1166 -1343 0
-1167 -1344 0
-1168 -1345 0
-1160 -1346 0
-1162 -1348 0
-1163 -1349 0
-1166 -1350 0
-1167 -1351 0
-1168 -1352 0
-1160 -1353 0
-1162 -1355 0
-1163 -1356 0
-1164 -1357 0
-1165 -1358 0
-1166 -1359 0
-1167 -1360 0
-1168 -1361 0
-1160 -1362 0
-1161 -1363 0
-1163 -1365 0
-1164 -1366 0
-1166 -1367 0
-1167 -1368 0
-1168 -1369 0
-1162 -1394 0
-1163 -1395 0
-1164 -1396 0
-1166 -1397 0
-1167 -1398 0
-1168 -1399 0
-1162 -1402 0
-1165 -1403 0
-1166 -1404 0
-1167 -1405 0
-1168 -1406 0
-1161 -1408 0
-1163 -1410 0
-1166 -1411 0
-1167 -1412 0
-1168 -1413 0
-1161 -1437 0
-1162 -1438 0
-1163 -1439 0
-1164 -1440 0
-1165 -1441 0
-1166 -1442 0
-1167 -1443 0
-1168 -1444 0
-1161 -1453 0
-1162 -1455 0
-1165 -1456 0
-1166 -1457 0
-1167 -1458 0
-1168 -1459 0
-1161 -1460 0
-1163 -1462 0
-1165 -1463 0
-1166 -1464 0
-1167 -1465 0
-1168 -1466 0
-1163 -1469 0
-1164 -1470 0
-1165 -1471 0
-1167 -1472 0
-1168 -1473 0
-1162 -1502 0
-1164 -1503 0
-1165 -1504 0
-1167 -1505 0
-1168 -1506 0
-1162 -1536 0
-1163 -1537 0
-1164 -1538 0
-1167 -1539 0
-1168 -1540 0
-1161 -1541 0
-1163 -1543 0
-1164 -1544 0
-1167 -1545 0
-1168 -1546 0
-1160 -1566 0
-1164 -1567 0
-1165 -1568 0
-1166 -1569 0
-1167 -1570 0
-1168 -1571 0
-1162 -1586 0
-1163 -1587 0
-1165 -1588 0
-1166 -1589 0
-1167 -1590 0
-1168 -1591 0
-1161 -1593 0
-1163 -1594 0
-1166 -1595 0
-1167 -1596 0
-1168 -1597 0
-1160 -1598 0
-1162 -1600 0
-1163 -1601 0
-1166 -1602 0
-1167 -1603 0
-1168 -1604 0
-1163 -1625 0
-1164 -1626 0
-1165 -1627 0
-1167 -1628 0
-1168 -1629 0
-1160 -1630 0
-1163 -1632 0
-1165 -1633 0
-1167 -1634 0
-1168 -1635 0
-1163 -1649 0
-1164 -1650 0
-1165 -1651 0
-1167 -1652 0
-1168 -1653 0
-1162 -1662 0
-1163 -1663 0
-1164 -1664 0
-1167 -1665 0
-1168 -1666 0
-1161 -1668 0
-1163 -1669 0
-1164 -1670 0
-1165 -1671 0
-1167 -1672 0
-1168 -1673 0
-1163 -1682 0
-1165 -1683 0
-1166 -1684 0
-1167 -1685 0
-1168 -1686 0
-1163 -1688 0
-1164 -1689 0
-1165 -1690 0
-1166 -1691 0
-1167 -1692 0
-1168 -1693 0
-1162 -1709 0
-1164 -1710 0
-1166 -1711 0
-1167 -1712 0
-1168 -1713 0
-1163 -1727 0
-1165 -1728 0
-1166 -1729 0
-1167 -1730 0
-1168 -1731 0
-1162 -1758 0
-1163 -1759 0
-1166 -1760 0
-1167 -1761 0
-1168 -1762 0
-1162 -1764 0
-1164 -1765 0
-1165 -1766 0
-1166 -1767 0
-1167 -1768 0
-1168 -1769 0
-1162 -1772 0
-1163 -1773 0
-1165 -1774 0
-1166 -1775 0
-1167 -1776 0
-1168 -1777 0
-1162 -1785 0
-1164 -1786 0
-1165 -1787 0
-1166 -1788 0
-1167 -1789 0
-1168 -1790 0
-1162 -1792 0
-1163 -1793 0
-1166 -1794 0
-1167 -1795 0
-1168 -1796 0
-1161 -1797 0
-1162 -1799 0
-1165 -1800 0
-1166 -1801 0
-1167 -1802 0
-1168 -1803 0
-1162 -1819 0
-1164 -1820 0
-1165 -1821 0
-1167 -1822 0
-1168 -1823 0
-1163 -1846 0
-1164 -1847 0
-1165 -1848 0
-1166 -1849 0
-1167 -1850 0
-1168 -1851 0
-1171 -1192 0
-1173 -1193 0
-1174 -1194 0
-1172 -1199 0
-1173 -1200 0
-1174 -1201 0
-1170 -1269 0
-1171 -1272 0
-1173 -1273 0
-1174 -1274 0
-1171 -1293 0
-1172 -1294 0
-1173 -1295 0
-1174 -1296 0
-1172 -1301 0
-1173 -1302 0
-1174 -1303 0
-1172 -1308 0
-1173 -1309 0
-1174 -1310 0
-1171 -1313 0
-1172 -1314 0
-1173 -1315 0
-1174 -1316 0
-1169 -1325 0
-1172 -1329 0
-1173 -1330 0
-1174 -1331 0
-1169 -1362 0
-1172 -1367 0
-1173 -1368 0
-1174 -1369 0
-1169 -1370 0
-1171 -1373 0
-1172 -1374 0
-1173 -1375 0
-1174 -1376 0
-1169 -1377 0
-1170 -1379 0
-1171 -1381 0
-1172 -1382 0
-1173 -1383 0
-1174 -1384 0
-1169 -1385 0
-1170 -1387 0
-1172 -1389 0
-1173 -1390 0
-1174 -1391 0
-1170 -1394 0
-1172 -1397 0
-1173 -1398 0
-1174 -1399 0
-1170 -1402 0
-1171 -1403 0
-1172 -1404 0
-1173 -1405 0
-1174 -1406 0
-1170 -1432 0
-1173 -1434 0
-1174 -1435 0
-1170 -1438 0
-1171 -1441 0
-1172 -1442 0
-1173 -1443 0
-1174 -1444 0
-1170 -1447 0
-1171 -1450 0
-1173 -1451 0
-1174 -1452 0
-1170 -1455 0
-1171 -1456 0
-1172 -1457 0
-1173 -1458 0
-1174 -1459 0
-1171 -1471 0
-1173 -1472 0
-1174 -1473 0
-1172 -1477 0
-1173 -1478 0
-1174 -1479 0
-1171 -1484 0
-1172 -1485 0
-1173 -1486 0
-1174 -1487 0
-1170 -1522 0
-1171 -1525 0
-1172 -1526 0
-1173 -1527 0
-1174 -1528 0
-1170 -1531 0
-1172 -1532 0
-1173 -1533 0
-1174 -1534 0
-1170 -1606 0
-1172 -1608 0
-1173 -1609 0
-1174 -1610 0
-1169 -1611 0
-1170 -1612 0
-1171 -1615 0
-1173 -1616 0
-1174 -1617 0
-1169 -1642 0
-1170 -1643 0
-1171 -1644 0
-1172 -1645 0
-1173 -1646 0
-1174 -1647 0
-1171 -1651 0
-1173 -1652 0
-1174 -1653 0
-1169 -1654 0
-1170 -1655 0
-1171 -1658 0
-1173 -1659 0
-1174 -1660 0
-1170 -1662 0
-1173 -1665 0
-1174 -1666 0
-1170 -1675 0
-1172 -1678 0
-1173 -1679 0
-1174 -1680 0
-1171 -1683 0
-1172 -1684 0
-1173 -1685 0
-1174 -1686 0
-1171 -1690 0
-1172 -1691 0
-1173 -1692 0
-1174 -1693 0
-1170 -1772 0
-1171 -1774 0
-1172 -1775 0
-1173 -1776 0
-1174 -1777 0
-1169 -1778 0
-1170 -1779 0
-1171 -1780 0
-1172 -1781 0
-1173 -1782 0
-1174 -1783 0
-1170 -1785 0
-1171 -1787 0
-1172 -1788 0
-1173 -1789 0
-1174 -1790 0
-1170 -1792 0
-1172 -1794 0
-1173 -1795 0
-1174 -1796 0
-1170 -1813 0
-1171 -1815 0
-1173 -1816 0
-1174 -1817 0
-1170 -1819 0
-1171 -1821 0
-1173 -1822 0
-1174 -1823 0
-1170 -1824 0
-1171 -1827 0
-1172 -1828 0
-1173 -1829 0
-1174 -1830 0
-1171 -1840 0
-1172 -1841 0
-1173 -1842 0
-1174 -1843 0
-1170 -1853 0
-1171 -1856 0
-1172 -1857 0
-1173 -1858 0
-1174 -1859 0
-1178 -1307 0
-1180 -1309 0
-1181 -1310 0
-1179 -1313 0
-1180 -1315 0
-1181 -1316 0
-1176 -1318 0
-1177 -1320 0
-1180 -1323 0
-1181 -1324 0
-1177 -1334 0
-1178 -1336 0
-1180 -1337 0
-1181 -1338 0
-1177 -1340 0
-1179 -1342 0
-1180 -1344 0
-1181 -1345 0
-1177 -1355 0
-1178 -1357 0
-1179 -1358 0
-1180 -1360 0
-1181 -1361 0
-1176 -1363 0
-1178 -1366 0
-1180 -1368 0
-1181 -1369 0
-1176 -1371 0
-1179 -1373 0
-1180 -1375 0
-1181 -1376 0
-1177 -1379 0
-1179 -1381 0
-1180 -1383 0
-1181 -1384 0
-1177 -1387 0
-1178 -1388 0
-1180 -1390 0
-1181 -1391 0
-1176 -1445 0
-1177 -1447 0
-1178 -1449 0
-1179 -1450 0
-1180 -1451 0
-1181 -1452 0
-1176 -1453 0
-1177 -1455 0
-1179 -1456 0
-1180 -1458 0
-1181 -1459 0
-1176 -1460 0
-1179 -1463 0
-1180 -1465 0
-1181 -1466 0
-1178 -1483 0
-1179 -1484 0
-1180 -1486 0
-1181 -1487 0
-1176 -1488 0
-1177 -1490 0
-1178 -1491 0
-1180 -1493 0
-1181 -1494 0
-1177 -1496 0
-1180 -1499 0
-1181 -1500 0
-1177 -1502 0
-1178 -1503 0
-1179 -1504 0
-1180 -1505 0
-1181 -1506 0
-1176 -1541 0
-1178 -1544 0
-1180 -1545 0
-1181 -1546 0
-1176 -1547 0
-1178 -1548 0
-1179 -1549 0
-1180 -1551 0
-1181 -1552 0
-1177 -1554 0
-1178 -1555 0
-1179 -1556 0
-1180 -1557 0
-1181 -1558 0
-1177 -1560 0
-1180 -1563 0
-1181 -1564 0
-1178 -1567 0
-1179 -1568 0
-1180 -1570 0
-1181 -1571 0
-1177 -1580 0
-1178 -1582 0
-1180 -1583 0
-1181 -1584 0
-1177 -1586 0
-1179 -1588 0
-1180 -1590 0
-1181 -1591 0
-1176 -1593 0
-1180 -1596 0
-1181 -1597 0
-1177 -1606 0
-1178 -1607 0
-1180 -1609 0
-1181 -1610 0
-1177 -1612 0
-1178 -1614 0
-1179 -1615 0
-1180 -1616 0
-1181 -1617 0
-1176 -1619 0
-1177 -1620 0
-1178 -1621 0
-1180 -1622 0
-1181 -1623 0
-1178 -1626 0
-1179 -1627 0
-1180 -1628 0
-1181 -1629 0
-1179 -1633 0
-1180 -1634 0
-1181 -1635 0
-1178 -1638 0
-1180 -1640 0
-1181 -1641 0
-1177 -1643 0
-1179 -1644 0
-1180 -1646 0
-1181 -1647 0
-1178 -1650 0
-1179 -1651 0
-1180 -1652 0
-1181 -1653 0
-1177 -1655 0
-1178 -1657 0
-1179 -1658 0
-1180 -1659 0
-1181 -1660 0
-1176 -1674 0
-1177 -1675 0
-1178 -1677 0
-1180 -1679 0
-1181 -1680 0
-1178 -1689 0
-1179 -1690 0
-1180 -1692 0
-1181 -1693 0
-1176 -1695 0
-1177 -1696 0
-1179 -1698 0
-1180 -1699 0
-1181 -1700 0
-1177 -1701 0
-1178 -1703 0
-1179 -1704 0
-1180 -1706 0
-1181 -1707 0
-1175 -1720 0
-1178 -1722 0
-1180 -1724 0
-1181 -1725 0
-1175 -1726 0
-1179 -1728 0
-1180 -1730 0
-1181 -1731 0
-1175 -1732 0
-1177 -1733 0
-1178 -1735 0
-1180 -1736 0
-1181 -1737 0
-1175 -1763 0
-1177 -1764 0
-1178 -1765 0
-1179 -1766 0
-1180 -1768 0
-1181 -1769 0
-1178 -1847 0
-1179 -1848 0
-1180 -1850 0
-1181 -1851 0
-1177 -1853 0
-1178 -1855 0
-1179 -1856 0
-1180 -1858 0
-1181 -1859 0
-1182 -1290 0
-1184 -1291 0
-1186 -1292 0
-1187 -1295 0
-1188 -1296 0
-1182 -1298 0
-1186 -1299 0
-1187 -1302 0
-1188 -1303 0
-1183 -1318 0
-1184 -1319 0
-1185 -1320 0
-1186 -1321 0
-1187 -1323 0
-1188 -1324 0
-1184 -1333 0
-1185 -1334 0
-1186 -1335 0
-1187 -1337 0
-1188 -1338 0
-1185 -1340 0
-1186 -1341 0
-1187 -1344 0
-1188 -1345 0
-1182 -1347 0
-1185 -1348 0
-1186 -1349 0
-1187 -1351 0
-1188 -1352 0
-1183 -1363 0
-1184 -1364 0
-1186 -1365 0
-1187 -1368 0
-1188 -1369 0
-1183 -1371 0
-1186 -1372 0
-1187 -1375 0
-1188 -1376 0
-1184 -1378 0
-1185 -1379 0
-1186 -1380 0
-1187 -1383 0
-1188 -1384 0
-1184 -1386 0
-1185 -1387 0
-1187 -1390 0
-1188 -1391 0
-1182 -1429 0
-1183 -1430 0
-1184 -1431 0
-1185 -1432 0
-1186 -1433 0
-1187 -1434 0
-1188 -1435 0
-1182 -1436 0
-1183 -1437 0
-1185 -1438 0
-1186 -1439 0
-1187 -1443 0
-1188 -1444 0
-1183 -1460 0
-1184 -1461 0
-1186 -1462 0
-1187 -1465 0
-1188 -1466 0
-1182 -1467 0
-1184 -1468 0
-1186 -1469 0
-1187 -1472 0
-1188 -1473 0
-1182 -1474 0
-1184 -1475 0
-1187 -1478 0
-1188 -1479 0
-1183 -1488 0
-1184 -1489 0
-1185 -1490 0
-1187 -1493 0
-1188 -1494 0
-1184 -1495 0
-1185 -1496 0
-1186 -1497 0
-1187 -1499 0
-1188 -1500 0
-1184 -1501 0
-1185 -1502 0
-1187 -1505 0
-1188 -1506 0
-1187 -1570 0
-1188 -1571 0
-1182 -1573 0
-1185 -1574 0
-1187 -1576 0
-1188 -1577 0
-1183 -1593 0
-1186 -1594 0
-1187 -1596 0
-1188 -1597 0
-1185 -1606 0
-1187 -1609 0
-1188 -1610 0
-1183 -1619 0
-1185 -1620 0
-1187 -1622 0
-1188 -1623 0
-1184 -1631 0
-1186 -1632 0
-1187 -1634 0
-1188 -1635 0
-1186 -1637 0
-1187 -1640 0
-1188 -1641 0
-1185 -1655 0
-1186 -1656 0
-1187 -1659 0
-1188 -1660 0
-1182 -1681 0
-1186 -1682 0
-1187 -1685 0
-1188 -1686 0
-1183 -1695 0
-1185 -1696 0
-1186 -1697 0
-1187 -1699 0
-1188 -1700 0
-1185 -1701 0
-1186 -1702 0
-1187 -1706 0
-1188 -1707 0
-1182 -1720 0
-1184 -1721 0
-1187 -1724 0
-1188 -1725 0
-1182 -1726 0
-1186 -1727 0
-1187 -1730 0
-1188 -1731 0
-1184 -1738 0
-1185 -1739 0
-1187 -1742 0
-1188 -1743 0
-1185 -1744 0
-1186 -1745 0
-1187 -1749 0
-1188 -1750 0
-1182 -1763 0
-1185 -1764 0
-1187 -1768 0
-1188 -1769 0
-1185 -1772 0
-1186 -1773 0
-1187 -1776 0
-1188 -1777 0
-1183 -1812 0
-1185 -1813 0
-1186 -1814 0
-1187 -1816 0
-1188 -1817 0
-1184 -1818 0
-1185 -1819 0
-1187 -1822 0
-1188 -1823 0
-1185 -1824 0
-1186 -1825 0
-1187 -1829 0
-1188 -1830 0
-1184 -1845 0
-1186 -1846 0
-1187 -1850 0
-1188 -1851 0
-1190 -1282 0
-1193 -1287 0
-1194 -1288 0
-1189 -1298 0
-1193 -1302 0
-1194 -1303 0
-1191 -1312 0
-1192 -1313 0
-1193 -1315 0
-1194 -1316 0
-1191 -1333 0
-1193 -1337 0
-1194 -1338 0
-1189 -1347 0
-1193 -1351 0
-1194 -1352 0
-1191 -1354 0
-1192 -1358 0
-1193 -1360 0
-1194 -1361 0
-1190 -1371 0
-1192 -1373 0
-1193 -1375 0
-1194 -1376 0
-1191 -1386 0
-1193 -1390 0
-1194 -1391 0
-1189 -1422 0
-1191 -1423 0
-1192 -1426 0
-1193 -1427 0
-1194 -1428 0
-1189 -1436 0
-1190 -1437 0
-1192 -1441 0
-1193 -1443 0
-1194 -1444 0
-1190 -1453 0
-1191 -1454 0
-1192 -1456 0
-1193 -1458 0
-1194 -1459 0
-1189 -1474 0
-1191 -1475 0
-1193 -1478 0
-1194 -1479 0
-1191 -1481 0
-1192 -1484 0
-1193 -1486 0
-1194 -1487 0
-1191 -1495 0
-1193 -1499 0
-1194 -1500 0
-1189 -1535 0
-1193 -1539 0
-1194 -1540 0
-1190 -1547 0
-1192 -1549 0
-1193 -1551 0
-1194 -1552 0
-1191 -1559 0
-1193 -1563 0
-1194 -1564 0
-1192 -1588 0
-1193 -1590 0
-1194 -1591 0
-1193 -1609 0
-1194 -1610 0
-1192 -1615 0
-1193 -1616 0
-1194 -1617 0
-1192 -1627 0
-1193 -1628 0
-1194 -1629 0
-1193 -1640 0
-1194 -1641 0
-1192 -1644 0
-1193 -1646 0
-1194 -1647 0
-1192 -1704 0
-1193 -1706 0
-1194 -1707 0
-1193 -1712 0
-1194 -1713 0
-1193 -1718 0
-1194 -1719 0
-1189 -1726 0
-1192 -1728 0
-1193 -1730 0
-1194 -1731 0
-1189 -1732 0
-1193 -1736 0
-1194 -1737 0
-1191 -1738 0
-1192 -1741 0
-1193 -1742 0
-1194 -1743 0
-1190 -1751 0
-1192 -1753 0
-1193 -1755 0
-1194 -1756 0
-1191 -1757 0
-1193 -1761 0
-1194 -1762 0
-1192 -1827 0
-1193 -1829 0
-1194 -1830 0
-1192 -1856 0
-1193 -1858 0
-1194 -1859 0
-1196 -1275 0
-1199 -1279 0
-1200 -1280 0
-1201 -1281 0
-1195 -1290 0
-1197 -1292 0
-1199 -1294 0
-1200 -1295 0
-1201 -1296 0
-1197 -1306 0
-1198 -1307 0
-1199 -1308 0
-1200 -1309 0
-1201 -1310 0
-1197 -1341 0
-1199 -1343 0
-1200 -1344 0
-1201 -1345 0
-1195 -1347 0
-1197 -1349 0
-1199 -1350 0
-1200 -1351 0
-1201 -1352 0
-1197 -1356 0
-1198 -1357 0
-1199 -1359 0
-1200 -1360 0
-1201 -1361 0
-1196 -1363 0
-1197 -1365 0
-1198 -1366 0
-1199 -1367 0
-1200 -1368 0
-1201 -1369 0
-1197 -1380 0
-1199 -1382 0
-1200 -1383 0
-1201 -1384 0
-1195 -1422 0
-1197 -1425 0
-1200 -1427 0
-1201 -1428 0
-1195 -1429 0
-1196 -1430 0
-1197 -1433 0
-1200 -1434 0
-1201 -1435 0
-1196 -1445 0
-1197 -1448 0
-1198 -1449 0
-1200 -1451 0
-1201 -1452 0
-1195 -1467 0
-1197 -1469 0
-1198 -1470 0
-1200 -1472 0
-1201 -1473 0
-1198 -1503 0
-1200 -1505 0
-1201 -1506 0
-1195 -1535 0
-1197 -1537 0
-1198 -1538 0
-1200 -1539 0
-1201 -1540 0
-1196 -1541 0
-1197 -1543 0
-1198 -1544 0
-1200 -1545 0
-1201 -1546 0
-1198 -1555 0
-1200 -1557 0
-1201 -1558 0
-1198 -1567 0
-1199 -1569 0
-1200 -1570 0
-1201 -1571 0
-1195 -1573 0
-1200 -1576 0
-1201 -1577 0
-1197 -1581 0
-1198 -1582 0
-1200 -1583 0
-1201 -1584 0
-1197 -1613 0
-1198 -1614 0
-1200 -1616 0
-1201 -1617 0
-1196 -1619 0
-1198 -1621 0
-1200 -1622 0
-1201 -1623 0
-1197 -1625 0
-1198 -1626 0
-1200 -1628 0
-1201 -1629 0
-1197 -1632 0
-1200 -1634 0
-1201 -1635 0
-1197 -1649 0
-1198 -1650 0
-1200 -1652 0
-1201 -1653 0
-1197 -1656 0
-1198 -1657 0
-1200 -1659 0
-1201 -1660 0
-1196 -1674 0
-1197 -1676 0
-1198 -1677 0
-1199 -1678 0
-1200 -1679 0
-1201 -1680 0
-1195 -1681 0
-1197 -1682 0
-1199 -1684 0
-1200 -1685 0
-1201 -1686 0
-1197 -1688 0
-1198 -1689 0
-1199 -1691 0
-1200 -1692 0
-1201 -1693 0
-1198 -1710 0
-1199 -1711 0
-1200 -1712 0
-1201 -1713 0
-1195 -1720 0
-1198 -1722 0
-1199 -1723 0
-1200 -1724 0
-1201 -1725 0
-1197 -1745 0
-1198 -1746 0
-1199 -1748 0
-1200 -1749 0
-1201 -1750 0
-1196 -1751 0
-1198 -1752 0
-1199 -1754 0
-1200 -1755 0
-1201 -1756 0
-1197 -1759 0
-1199 -1760 0
-1200 -1761 0
-1201 -1762 0
-1195 -1763 0
-1198 -1765 0
-1199 -1767 0
-1200 -1768 0
-1201 -1769 0
-1197 -1773 0
-1199 -1775 0
-1200 -1776 0
-1201 -1777 0
-1196 -1812 0
-1197 -1814 0
-1200 -1816 0
-1201 -1817 0
-1198 -1820 0
-1200 -1822 0
-1201 -1823 0
-1197 -1846 0
-1198 -1847 0
-1199 -1849 0
-1200 -1850 0
-1201 -1851 0
-1203 -1267 0
-1204 -1269 0
-1206 -1273 0
-1207 -1274 0
-1202 -1290 0
-1205 -1294 0
-1206 -1295 0
-1207 -1296 0
-1202 -1298 0
-1205 -1301 0
-1206 -1302 0
-1207 -1303 0
-1205 -1308 0
-1206 -1309 0
-1207 -1310 0
-1205 -1314 0
-1206 -1315 0
-1207 -1316 0
-1202 -1326 0
-1205 -1329 0
-1206 -1330 0
-1207 -1331 0
-1203 -1363 0
-1205 -1367 0
-1206 -1368 0
-1207 -1369 0
-1203 -1371 0
-1205 -1374 0
-1206 -1375 0
-1207 -1376 0
-1202 -1407 0
-1203 -1408 0
-1205 -1411 0
-1206 -1412 0
-1207 -1413 0
-1202 -1414 0
-1203 -1415 0
-1205 -1419 0
-1206 -1420 0
-1207 -1421 0
-1203 -1460 0
-1205 -1464 0
-1206 -1465 0
-1207 -1466 0
-1202 -1467 0
-1206 -1472 0
-1207 -1473 0
-1202 -1474 0
-1205 -1477 0
-1206 -1478 0
-1207 -1479 0
-1205 -1485 0
-1206 -1486 0
-1207 -1487 0
-1202 -1519 0
-1203 -1520 0
-1204 -1522 0
-1205 -1526 0
-1206 -1527 0
-1207 -1528 0
-1202 -1529 0
-1203 -1530 0
-1204 -1531 0
-1205 -1532 0
-1206 -1533 0
-1207 -1534 0
-1204 -1554 0
-1206 -1557 0
-1207 -1558 0
-1204 -1560 0
-1205 -1562 0
-1206 -1563 0
-1207 -1564 0
-1202 -1573 0
-1204 -1574 0
-1206 -1576 0
-1207 -1577 0
-1204 -1580 0
-1206 -1583 0
-1207 -1584 0
-1204 -1586 0
-1205 -1589 0
-1206 -1590 0
-1207 -1591 0
-1202 -1599 0
-1204 -1600 0
-1205 -1602 0
-1206 -1603 0
-1207 -1604 0
-1203 -1619 0
-1204 -1620 0
-1206 -1622 0
-1207 -1623 0
-1204 -1643 0
-1205 -1645 0
-1206 -1646 0
-1207 -1647 0
-1206 -1652 0
-1207 -1653 0
-1202 -1667 0
-1203 -1668 0
-1206 -1672 0
-1207 -1673 0
-1202 -1681 0
-1205 -1684 0
-1206 -1685 0
-1207 -1686 0
-1205 -1691 0
-1206 -1692 0
-1207 -1693 0
-1202 -1732 0
-1204 -1733 0
-1206 -1736 0
-1207 -1737 0
-1204 -1739 0
-1206 -1742 0
-1207 -1743 0
-1204 -1744 0
-1205 -1748 0
-1206 -1749 0
-1207 -1750 0
-1204 -1772 0
-1205 -1775 0
-1206 -1776 0
-1207 -1777 0
-1204 -1779 0
-1205 -1781 0
-1206 -1782 0
-1207 -1783 0
-1203 -1797 0
-1204 -1799 0
-1205 -1801 0
-1206 -1802 0
-1207 -1803 0
-1203 -1804 0
-1204 -1805 0
-1205 -1808 0
-1206 -1809 0
-1207 -1810 0
-1204 -1819 0
-1206 -1822 0
-1207 -1823 0
-1204 -1824 0
-1205 -1828 0
-1206 -1829 0
-1207 -1830 0
-1203 -1838 0
-1205 -1841 0
-1206 -1842 0
-1207 -1843 0
-1204 -1853 0
-1205 -1857 0
-1206 -1858 0
-1207 -1859 0
-1209 -1261 0
-1211 -1263 0
-1214 -1265 0
-1215 -1266 0
-1208 -1298 0
-1211 -1299 0
-1213 -1301 0
-1214 -1302 0
-1215 -1303 0
-1211 -1306 0
-1213 -1308 0
-1214 -1309 0
-1215 -1310 0
-1209 -1318 0
-1210 -1320 0
-1211 -1321 0
-1213 -1322 0
-1214 -1323 0
-1215 -1324 0
-1208 -1326 0
-1211 -1328 0
-1213 -1329 0
-1214 -1330 0
-1215 -1331 0
-1210 -1340 0
-1211 -1341 0
-1212 -1342 0
-1213 -1343 0
-1214 -1344 0
-1215 -1345 0
-1210 -1355 0
-1211 -1356 0
-1212 -1358 0
-1213 -1359 0
-1214 -1360 0
-1215 -1361 0
-1209 -1371 0
-1211 -1372 0
-1212 -1373 0
-1213 -1374 0
-1214 -1375 0
-1215 -1376 0
-1210 -1379 0
-1211 -1380 0
-1212 -1381 0
-1213 -1382 0
-1214 -1383 0
-1215 -1384 0
-1208 -1400 0
-1210 -1402 0
-1212 -1403 0
-1213 -1404 0
-1214 -1405 0
-1215 -1406 0
-1208 -1414 0
-1209 -1415 0
-1212 -1418 0
-1213 -1419 0
-1214 -1420 0
-1215 -1421 0
-1209 -1453 0
-1210 -1455 0
-1212 -1456 0
-1213 -1457 0
-1214 -1458 0
-1215 -1459 0
-1208 -1474 0
-1213 -1477 0
-1214 -1478 0
-1215 -1479 0
-1209 -1488 0
-1210 -1490 0
-1213 -1492 0
-1214 -1493 0
-1215 -1494 0
-1210 -1502 0
-1212 -1504 0
-1214 -1505 0
-1215 -1506 0
-1208 -1513 0
-1213 -1516 0
-1214 -1517 0
-1215 -1518 0
-1208 -1529 0
-1209 -1530 0
-1210 -1531 0
-1213 -1532 0
-1214 -1533 0
-1215 -1534 0
-1209 -1547 0
-1212 -1549 0
-1213 -1550 0
-1214 -1551 0
-1215 -1552 0
-1210 -1554 0
-1212 -1556 0
-1214 -1557 0
-1215 -1558 0
-1212 -1568 0
-1213 -1569 0
-1214 -1570 0
-1215 -1571 0
-1210 -1580 0
-1211 -1581 0
-1214 -1583 0
-1215 -1584 0
-1209 -1593 0
-1211 -1594 0
-1213 -1595 0
-1214 -1596 0
-1215 -1597 0
-1208 -1599 0
-1210 -1600 0
-1211 -1601 0
-1213 -1602 0
-1214 -1603 0
-1215 -1604 0
-1210 -1612 0
-1211 -1613 0
-1212 -1615 0
-1214 -1616 0
-1215 -1617 0
-1211 -1625 0
-1212 -1627 0
-1214 -1628 0
-1215 -1629 0
-1211 -1632 0
-1212 -1633 0
-1214 -1634 0
-1215 -1635 0
-1211 -1649 0
-1212 -1651 0
-1214 -1652 0
-1215 -1653 0
-1210 -1655 0
-1211 -1656 0
-1212 -1658 0
-1214 -1659 0
-1215 -1660 0
-1208 -1661 0
-1210 -1662 0
-1211 -1663 0
-1214 -1665 0
-1215 -1666 0
-1211 -1688 0
-1212 -1690 0
-1213 -1691 0
-1214 -1692 0
-1215 -1693 0
-1209 -1695 0
-1210 -1696 0
-1211 -1697 0
-1212 -1698 0
-1214 -1699 0
-1215 -1700 0
-1211 -1715 0
-1213 -1717 0
-1214 -1718 0
-1215 -1719 0
-1208 -1720 0
-1213 -1723 0
-1214 -1724 0
-1215 -1725 0
-1210 -1739 0
-1212 -1741 0
-1214 -1742 0
-1215 -1743 0
-1209 -1751 0
-1212 -1753 0
-1213 -1754 0
-1214 -1755 0
-1215 -1756 0
-1208 -1763 0
-1210 -1764 0
-1212 -1766 0
-1213 -1767 0
-1214 -1768 0
-1215 -1769 0
-1210 -1779 0
-1212 -1780 0
-1213 -1781 0
-1214 -1782 0
-1215 -1783 0
-1210 -1792 0
-1211 -1793 0
-1213 -1794 0
-1214 -1795 0
-1215 -1796 0
-1209 -1804 0
-1210 -1805 0
-1211 -1806 0
-1213 -1808 0
-1214 -1809 0
-1215 -1810 0
-1210 -1824 0
-1211 -1825 0
-1212 -1827 0
-1213 -1828 0
-1214 -1829 0
-1215 -1830 0
-1210 -1831 0
-1211 -1832 0
-1212 -1834 0
-1213 -1835 0
-1214 -1836 0
-1215 -1837 0
-1211 -1846 0
-1212 -1848 0
-1213 -1849 0
-1214 -1850 0
-1215 -1851 0
-1216 -1248 0
-1219 -1250 0
-1221 -1252 0
-1222 -1253 0
-1217 -1291 0
-1220 -1294 0
-1221 -1295 0
-1222 -1296 0
-1217 -1312 0
-1220 -1314 0
-1221 -1315 0
-1222 -1316 0
-1216 -1318 0
-1217 -1319 0
-1218 -1320 0
-1220 -1322 0
-1221 -1323 0
-1222 -1324 0
-1217 -1327 0
-1220 -1329 0
-1221 -1330 0
-1222 -1331 0
-1218 -1340 0
-1220 -1343 0
-1221 -1344 0
-1222 -1345 0
-1218 -1348 0
-1220 -1350 0
-1221 -1351 0
-1222 -1352 0
-1216 -1371 0
-1220 -1374 0
-1221 -1375 0
-1222 -1376 0
-1217 -1378 0
-1218 -1379 0
-1220 -1382 0
-1221 -1383 0
-1222 -1384 0
-1217 -1393 0
-1218 -1394 0
-1219 -1396 0
-1220 -1397 0
-1221 -1398 0
-1222 -1399 0
-1216 -1415 0
-1217 -1416 0
-1219 -1417 0
-1220 -1419 0
-1221 -1420 0
-1222 -1421 0
-1216 -1437 0
-1218 -1438 0
-1219 -1440 0
-1220 -1442 0
-1221 -1443 0
-1222 -1444 0
-1217 -1468 0
-1219 -1470 0
-1221 -1472 0
-1222 -1473 0
-1217 -1481 0
-1219 -1483 0
-1220 -1485 0
-1221 -1486 0
-1222 -1487 0
-1216 -1488 0
-1217 -1489 0
-1218 -1490 0
-1219 -1491 0
-1220 -1492 0
-1221 -1493 0
-1222 -1494 0
-1217 -1501 0
-1218 -1502 0
-1219 -1503 0
-1221 -1505 0
-1222 -1506 0
-1220 -1510 0
-1221 -1511 0
-1222 -1512 0
-1216 -1530 0
-1218 -1531 0
-1220 -1532 0
-1221 -1533 0
-1222 -1534 0
-1217 -1559 0
-1218 -1560 0
-1220 -1562 0
-1221 -1563 0
-1222 -1564 0
-1219 -1567 0
-1220 -1569 0
-1221 -1570 0
-1222 -1571 0
-1218 -1574 0
-1221 -1576 0
-1222 -1577 0
-1218 -1586 0
-1220 -1589 0
-1221 -1590 0
-1222 -1591 0
-1216 -1593 0
-1220 -1595 0
-1221 -1596 0
-1222 -1597 0
-1218 -1600 0
-1220 -1602 0
-1221 -1603 0
-1222 -1604 0
-1217 -1631 0
-1221 -1634 0
-1222 -1635 0
-1218 -1643 0
-1220 -1645 0
-1221 -1646 0
-1222 -1647 0
-1218 -1655 0
-1219 -1657 0
-1221 -1659 0
-1222 -1660 0
-1220 -1684 0
-1221 -1685 0
-1222 -1686 0
-1216 -1695 0
-1218 -1696 0
-1221 -1699 0
-1222 -1700 0
-1219 -1716 0
-1220 -1717 0
-1221 -1718 0
-1222 -1719 0
-1217 -1721 0
-1219 -1722 0
-1220 -1723 0
-1221 -1724 0
-1222 -1725 0
-1218 -1733 0
-1219 -1735 0
-1221 -1736 0
-1222 -1737 0
-1218 -1744 0
-1219 -1746 0
-1220 -1748 0
-1221 -1749 0
-1222 -1750 0
-1216 -1751 0
-1219 -1752 0
-1220 -1754 0
-1221 -1755 0
-1222 -1756 0
-1218 -1764 0
-1219 -1765 0
-1220 -1767 0
-1221 -1768 0
-1222 -1769 0
-1218 -1772 0
-1220 -1775 0
-1221 -1776 0
-1222 -1777 0
-1218 -1779 0
-1220 -1781 0
-1221 -1782 0
-1222 -1783 0
-1218 -1785 0
-1219 -1786 0
-1220 -1788 0
-1221 -1789 0
-1222 -1790 0
-1216 -1804 0
-1218 -1805 0
-1219 -1807 0
-1220 -1808 0
-1221 -1809 0
-1222 -1810 0
-1217 -1818 0
-1218 -1819 0
-1219 -1820 0
-1221 -1822 0
-1222 -1823 0
-1217 -1845 0
-1219 -1847 0
-1220 -1849 0
-1221 -1850 0
-1222 -1851 0
-1218 -1853 0
-1219 -1855 0
-1220 -1857 0
-1221 -1858 0
-1222 -1859 0
-1223 -1240 0
-1226 -1243 0
-1227 -1245 0
-1228 -1246 0
-1225 -1299 0
-1227 -1302 0
-1228 -1303 0
-1225 -1306 0
-1227 -1309 0
-1228 -1310 0
-1223 -1318 0
-1224 -1320 0
-1225 -1321 0
-1227 -1323 0
-1228 -1324 0
-1225 -1328 0
-1227 -1330 0
-1228 -1331 0
-1224 -1334 0
-1225 -1335 0
-1227 -1337 0
-1228 -1338 0
-1224 -1348 0
-1225 -1349 0
-1227 -1351 0
-1228 -1352 0
-1223 -1363 0
-1225 -1365 0
-1227 -1368 0
-1228 -1369 0
-1224 -1387 0
-1227 -1390 0
-1228 -1391 0
-1224 -1394 0
-1225 -1395 0
-1227 -1398 0
-1228 -1399 0
-1223 -1408 0
-1225 -1410 0
-1227 -1412 0
-1228 -1413 0
-1223 -1430 0
-1224 -1432 0
-1225 -1433 0
-1227 -1434 0
-1228 -1435 0
-1227 -1478 0
-1228 -1479 0
-1223 -1488 0
-1224 -1490 0
-1227 -1493 0
-1228 -1494 0
-1224 -1496 0
-1225 -1497 0
-1227 -1499 0
-1228 -1500 0
-1225 -1508 0
-1226 -1509 0
-1227 -1511 0
-1228 -1512 0
-1223 -1520 0
-1224 -1522 0
-1225 -1523 0
-1226 -1525 0
-1227 -1527 0
-1228 -1528 0
-1224 -1554 0
-1226 -1556 0
-1227 -1557 0
-1228 -1558 0
-1224 -1580 0
-1225 -1581 0
-1227 -1583 0
-1228 -1584 0
-1223 -1593 0
-1225 -1594 0
-1227 -1596 0
-1228 -1597 0
-1224 -1600 0
-1225 -1601 0
-1227 -1603 0
-1228 -1604 0
-1224 -1606 0
-1227 -1609 0
-1228 -1610 0
-1223 -1619 0
-1224 -1620 0
-1227 -1622 0
-1228 -1623 0
-1225 -1637 0
-1227 -1640 0
-1228 -1641 0
-1225 -1649 0
-1226 -1651 0
-1227 -1652 0
-1228 -1653 0
-1223 -1668 0
-1225 -1669 0
-1226 -1671 0
-1227 -1672 0
-1228 -1673 0
-1225 -1688 0
-1226 -1690 0
-1227 -1692 0
-1228 -1693 0
-1223 -1695 0
-1224 -1696 0
-1225 -1697 0
-1226 -1698 0
-1227 -1699 0
-1228 -1700 0
-1224 -1701 0
-1225 -1702 0
-1226 -1704 0
-1227 -1706 0
-1228 -1707 0
-1225 -1727 0
-1226 -1728 0
-1227 -1730 0
-1228 -1731 0
-1224 -1739 0
-1226 -1741 0
-1227 -1742 0
-1228 -1743 0
-1223 -1751 0
-1226 -1753 0
-1227 -1755 0
-1228 -1756 0
-1224 -1779 0
-1226 -1780 0
-1227 -1782 0
-1228 -1783 0
-1224 -1785 0
-1226 -1787 0
-1227 -1789 0
-1228 -1790 0
-1223 -1797 0
-1224 -1799 0
-1226 -1800 0
-1227 -1802 0
-1228 -1803 0
-1223 -1812 0
-1224 -1813 0
-1225 -1814 0
-1226 -1815 0
-1227 -1816 0
-1228 -1817 0
-1224 -1824 0
-1225 -1825 0
-1226 -1827 0
-1227 -1829 0
-1228 -1830 0
-1223 -1838 0
-1226 -1840 0
-1227 -1842 0
-1228 -1843 0
-1230 -1290 0
-1231 -1291 0
-1233 -1292 0
-1235 -1293 0
-1236 -1294 0
-1237 -1295 0
-1238 -1296 0
-1230 -1298 0
-1233 -1299 0
-1234 -1300 0
-1236 -1301 0
-1237 -1302 0
-1238 -1303 0
-1231 -1305 0
-1233 -1306 0
-1234 -1307 0
-1236 -1308 0
-1237 -1309 0
-1238 -1310 0
-1231 -1312 0
-1235 -1313 0
-1236 -1314 0
-1237 -1315 0
-1238 -1316 0
-1230 -1326 0
-1231 -1327 0
-1233 -1328 0
-1236 -1329 0
-1237 -1330 0
-1238 -1331 0
-1231 -1333 0
-1232 -1334 0
-1233 -1335 0
-1234 -1336 0
-1237 -1337 0
-1238 -1338 0
-1232 -1340 0
-1233 -1341 0
-1235 -1342 0
-1236 -1343 0
-1237 -1344 0
-1238 -1345 0
-1230 -1347 0
-1232 -1348 0
-1233 -1349 0
-1236 -1350 0
-1237 -1351 0
-1238 -1352 0
-1231 -1354 0
-1232 -1355 0
-1233 -1356 0
-1234 -1357 0
-1235 -1358 0
-1236 -1359 0
-1237 -1360 0
-1238 -1361 0
-1231 -1378 0
-1232 -1379 0
-1233 -1380 0
-1235 -1381 0
-1236 -1382 0
-1237 -1383 0
-1238 -1384 0
-1231 -1386 0
-1232 -1387 0
-1234 -1388 0
-1236 -1389 0
-1237 -1390 0
-1238 -1391 0
-1230 -1407 0
-1231 -1409 0
-1233 -1410 0
-1236 -1411 0
-1237 -1412 0
-1238 -1413 0
-1230 -1414 0
-1231 -1416 0
-1234 -1417 0
-1235 -1418 0
-1236 -1419 0
-1237 -1420 0
-1238 -1421 0
-1230 -1429 0
-1231 -1431 0
-1232 -1432 0
-1233 -1433 0
-1237 -1434 0
-1238 -1435 0
-1230 -1436 0
-1232 -1438 0
-1233 -1439 0
-1234 -1440 0
-1235 -1441 0
-1236 -1442 0
-1237 -1443 0
-1238 -1444 0
-1231 -1446 0
-1232 -1447 0
-1233 -1448 0
-1234 -1449 0
-1235 -1450 0
-1237 -1451 0
-1238 -1452 0
-1231 -1454 0
-1232 -1455 0
-1235 -1456 0
-1236 -1457 0
-1237 -1458 0
-1238 -1459 0
-1231 -1489 0
-1232 -1490 0
-1234 -1491 0
-1236 -1492 0
-1237 -1493 0
-1238 -1494 0
-1230 -1519 0
-1231 -1521 0
-1232 -1522 0
-1233 -1523 0
-1234 -1524 0
-1235 -1525 0
-1236 -1526 0
-1237 -1527 0
-1238 -1528 0
-1230 -1529 0
-1232 -1531 0
-1236 -1532 0
-1237 -1533 0
-1238 -1534 0
-1231 -1542 0
-1233 -1543 0
-1234 -1544 0
-1237 -1545 0
-1238 -1546 0
-1234 -1548 0
-1235 -1549 0
-1236 -1550 0
-1237 -1551 0
-1238 -1552 0
-1230 -1573 0
-1232 -1574 0
-1235 -1575 0
-1237 -1576 0
-1238 -1577 0
-1231 -1579 0
-1232 -1580 0
-1233 -1581 0
-1234 -1582 0
-1237 -1583 0
-1238 -1584 0
-1232 -1586 0
-1233 -1587 0
-1235 -1588 0
-1236 -1589 0
-1237 -1590 0
-1238 -1591 0
-1230 -1599 0
-1232 -1600 0
-1233 -1601 0
-1236 -1602 0
-1237 -1603 0
-1238 -1604 0
-1232 -1606 0
-1234 -1607 0
-1236 -1608 0
-1237 -1609 0
-1238 -1610 0
-1232 -1612 0
-1233 -1613 0
-1234 -1614 0
-1235 -1615 0
-1237 -1616 0
-1238 -1617 0
-1233 -1625 0
-1234 -1626 0
-1235 -1627 0
-1237 -1628 0
-1238 -1629 0
-1231 -1631 0
-1233 -1632 0
-1235 -1633 0
-1237 -1634 0
-1238 -1635 0
-1233 -1637 0
-1234 -1638 0
-1236 -1639 0
-1237 -1640 0
-1238 -1641 0
-1232 -1643 0
-1235 -1644 0
-1236 -1645 0
-1237 -1646 0
-1238 -1647 0
-1233 -1649 0
-1234 -1650 0
-1235 -1651 0
-1237 -1652 0
-1238 -1653 0
-1232 -1655 0
-1233 -1656 0
-1234 -1657 0
-1235 -1658 0
-1237 -1659 0
-1238 -1660 0
-1230 -1667 0
-1233 -1669 0
-1234 -1670 0
-1235 -1671 0
-1237 -1672 0
-1238 -1673 0
-1232 -1675 0
-1233 -1676 0
-1234 -1677 0
-1236 -1678 0
-1237 -1679 0
-1238 -1680 0
-1232 -1696 0
-1233 -1697 0
-1235 -1698 0
-1237 -1699 0
-1238 -1700 0
-1232 -1772 0
-1233 -1773 0
-1235 -1774 0
-1236 -1775 0
-1237 -1776 0
-1238 -1777 0
-1232 -1779 0
-1235 -1780 0
-1236 -1781 0
-1237 -1782 0
-1238 -1783 0
-1231 -1798 0
-1232 -1799 0
-1235 -1800 0
-1236 -1801 0
-1237 -1802 0
-1238 -1803 0
-1232 -1805 0
-1233 -1806 0
-1234 -1807 0
-1236 -1808 0
-1237 -1809 0
-1238 -1810 0
-1232 -1813 0
-1233 -1814 0
-1235 -1815 0
-1237 -1816 0
-1238 -1817 0
-1234 -1839 0
-1235 -1840 0
-1236 -1841 0
-1237 -1842 0
-1238 -1843 0
-1239 -1298 0
-1242 -1300 0
-1244 -1301 0
-1245 -1302 0
-1246 -1303 0
-1241 -1305 0
-1242 -1307 0
-1244 -1308 0
-1245 -1309 0
-1246 -1310 0
-1240 -1318 0
-1241 -1319 0
-1244 -1322 0
-1245 -1323 0
-1246 -1324 0
-1239 -1326 0
-1241 -1327 0
-1244 -1329 0
-1245 -1330 0
-1246 -1331 0
-1241 -1333 0
-1242 -1336 0
-1245 -1337 0
-1246 -1338 0
-1239 -1347 0
-1244 -1350 0
-1245 -1351 0
-1246 -1352 0
-1240 -1363 0
-1241 -1364 0
-1242 -1366 0
-1244 -1367 0
-1245 -1368 0
-1246 -1369 0
-1241 -1386 0
-1242 -1388 0
-1244 -1389 0
-1245 -1390 0
-1246 -1391 0
-1239 -1400 0
-1241 -1401 0
-1243 -1403 0
-1244 -1404 0
-1245 -1405 0
-1246 -1406 0
-1239 -1414 0
-1240 -1415 0
-1241 -1416 0
-1242 -1417 0
-1243 -1418 0
-1244 -1419 0
-1245 -1420 0
-1246 -1421 0
-1239 -1422 0
-1241 -1423 0
-1243 -1426 0
-1245 -1427 0
-1246 -1428 0
-1239 -1436 0
-1240 -1437 0
-1242 -1440 0
-1243 -1441 0
-1244 -1442 0
-1245 -1443 0
-1246 -1444 0
-1240 -1445 0
-1241 -1446 0
-1242 -1449 0
-1243 -1450 0
-1245 -1451 0
-1246 -1452 0
-1240 -1460 0
-1241 -1461 0
-1243 -1463 0
-1244 -1464 0
-1245 -1465 0
-1246 -1466 0
-1241 -1481 0
-1242 -1483 0
-1243 -1484 0
-1244 -1485 0
-1245 -1486 0
-1246 -1487 0
-1241 -1501 0
-1242 -1503 0
-1243 -1504 0
-1245 -1505 0
-1246 -1506 0
-1239 -1513 0
-1241 -1514 0
-1242 -1515 0
-1244 -1516 0
-1245 -1517 0
-1246 -1518 0
-1239 -1529 0
-1240 -1530 0
-1244 -1532 0
-1245 -1533 0
-1246 -1534 0
-1239 -1535 0
-1242 -1538 0
-1245 -1539 0
-1246 -1540 0
-1240 -1541 0
-1241 -1542 0
-1242 -1544 0
-1245 -1545 0
-1246 -1546 0
-1241 -1559 0
-1244 -1562 0
-1245 -1563 0
-1246 -1564 0
-1242 -1567 0
-1243 -1568 0
-1244 -1569 0
-1245 -1570 0
-1246 -1571 0
-1241 -1579 0
-1242 -1582 0
-1245 -1583 0
-1246 -1584 0
-1240 -1593 0
-1244 -1595 0
-1245 -1596 0
-1246 -1597 0
-1239 -1599 0
-1244 -1602 0
-1245 -1603 0
-1246 -1604 0
-1242 -1607 0
-1244 -1608 0
-1245 -1609 0
-1246 -1610 0
-1240 -1619 0
-1242 -1621 0
-1245 -1622 0
-1246 -1623 0
-1242 -1638 0
-1244 -1639 0
-1245 -1640 0
-1246 -1641 0
-1242 -1650 0
-1243 -1651 0
-1245 -1652 0
-1246 -1653 0
-1239 -1661 0
-1242 -1664 0
-1245 -1665 0
-1246 -1666 0
-1240 -1674 0
-1242 -1677 0
-1244 -1678 0
-1245 -1679 0
-1246 -1680 0
-1239 -1720 0
-1241 -1721 0
-1242 -1722 0
-1244 -1723 0
-1245 -1724 0
-1246 -1725 0
-1239 -1732 0
-1242 -1735 0
-1245 -1736 0
-1246 -1737 0
-1241 -1757 0
-1244 -1760 0
-1245 -1761 0
-1246 -1762 0
-1239 -1763 0
-1242 -1765 0
-1243 -1766 0
-1244 -1767 0
-1245 -1768 0
-1246 -1769 0
-1243 -1780 0
-1244 -1781 0
-1245 -1782 0
-1246 -1783 0
-1241 -1791 0
-1244 -1794 0
-1245 -1795 0
-1246 -1796 0
-1240 -1804 0
-1242 -1807 0
-1244 -1808 0
-1245 -1809 0
-1246 -1810 0
-1242 -1833 0
-1243 -1834 0
-1244 -1835 0
-1245 -1836 0
-1246 -1837 0
-1241 -1845 0
-1242 -1847 0
-1243 -1848 0
-1244 -1849 0
-1245 -1850 0
-1246 -1851 0
-1242 -1855 0
-1243 -1856 0
-1244 -1857 0
-1245 -1858 0
-1246 -1859 0
-1247 -1290 0
-1249 -1292 0
-1251 -1293 0
-1252 -1295 0
-1253 -1296 0
-1251 -1313 0
-1252 -1315 0
-1253 -1316 0
-1248 -1318 0
-1249 -1321 0
-1252 -1323 0
-1253 -1324 0
-1247 -1326 0
-1249 -1328 0
-1252 -1330 0
-1253 -1331 0
-1249 -1341 0
-1251 -1342 0
-1252 -1344 0
-1253 -1345 0
-1247 -1347 0
-1249 -1349 0
-1252 -1351 0
-1253 -1352 0
-1248 -1371 0
-1249 -1372 0
-1251 -1373 0
-1252 -1375 0
-1253 -1376 0
-1249 -1380 0
-1251 -1381 0
-1252 -1383 0
-1253 -1384 0
-1247 -1400 0
-1251 -1403 0
-1252 -1405 0
-1253 -1406 0
-1247 -1407 0
-1248 -1408 0
-1249 -1410 0
-1252 -1412 0
-1253 -1413 0
-1247 -1422 0
-1249 -1425 0
-1251 -1426 0
-1252 -1427 0
-1253 -1428 0
-1247 -1429 0
-1248 -1430 0
-1249 -1433 0
-1252 -1434 0
-1253 -1435 0
-1248 -1453 0
-1251 -1456 0
-1252 -1458 0
-1253 -1459 0
-1248 -1460 0
-1249 -1462 0
-1251 -1463 0
-1252 -1465 0
-1253 -1466 0
-1249 -1497 0
-1252 -1499 0
-1253 -1500 0
-1247 -1513 0
-1250 -1515 0
-1252 -1517 0
-1253 -1518 0
-1247 -1519 0
-1248 -1520 0
-1249 -1523 0
-1250 -1524 0
-1251 -1525 0
-1252 -1527 0
-1253 -1528 0
-1247 -1535 0
-1249 -1537 0
-1250 -1538 0
-1252 -1539 0
-1253 -1540 0
-1248 -1547 0
-1250 -1548 0
-1251 -1549 0
-1252 -1551 0
-1253 -1552 0
-1250 -1555 0
-1251 -1556 0
-1252 -1557 0
-1253 -1558 0
-1247 -1573 0
-1251 -1575 0
-1252 -1576 0
-1253 -1577 0
-1249 -1587 0
-1251 -1588 0
-1252 -1590 0
-1253 -1591 0
-1248 -1593 0
-1249 -1594 0
-1252 -1596 0
-1253 -1597 0
-1247 -1599 0
-1249 -1601 0
-1252 -1603 0
-1253 -1604 0
-1249 -1632 0
-1251 -1633 0
-1252 -1634 0
-1253 -1635 0
-1251 -1644 0
-1252 -1646 0
-1253 -1647 0
-1249 -1656 0
-1250 -1657 0
-1251 -1658 0
-1252 -1659 0
-1253 -1660 0
-1247 -1661 0
-1249 -1663 0
-1250 -1664 0
-1252 -1665 0
-1253 -1666 0
-1247 -1667 0
-1248 -1668 0
-1249 -1669 0
-1250 -1670 0
-1251 -1671 0
-1252 -1672 0
-1253 -1673 0
-1249 -1688 0
-1250 -1689 0
-1251 -1690 0
-1252 -1692 0
-1253 -1693 0
-1249 -1702 0
-1250 -1703 0
-1251 -1704 0
-1252 -1706 0
-1253 -1707 0
-1247 -1726 0
-1249 -1727 0
-1251 -1728 0
-1252 -1730 0
-1253 -1731 0
-1249 -1759 0
-1252 -1761 0
-1253 -1762 0
-1249 -1773 0
-1251 -1774 0
-1252 -1776 0
-1253 -1777 0
-1251 -1780 0
-1252 -1782 0
-1253 -1783 0
-1249 -1793 0
-1252 -1795 0
-1253 -1796 0
-1248 -1797 0
-1251 -1800 0
-1252 -1802 0
-1253 -1803 0
-1248 -1812 0
-1249 -1814 0
-1251 -1815 0
-1252 -1816 0
-1253 -1817 0
-1249 -1832 0
-1250 -1833 0
-1251 -1834 0
-1252 -1836 0
-1253 -1837 0
-1248 -1838 0
-1250 -1839 0
-1251 -1840 0
-1252 -1842 0
-1253 -1843 0
-1255 -1291 0
-1256 -1292 0
-1257 -1293 0
-1258 -1294 0
-1259 -1295 0
-1260 -1296 0
-1255 -1312 0
-1257 -1313 0
-1258 -1314 0
-1259 -1315 0
-1260 -1316 0
-1254 -1318 0
-1255 -1319 0
-1256 -1321 0
-1258 -1322 0
-1259 -1323 0
-1260 -1324 0
-1255 -1327 0
-1256 -1328 0
-1258 -1329 0
-1259 -1330 0
-1260 -1331 0
-1255 -1333 0
-1256 -1335 0
-1259 -1337 0
-1260 -1338 0
-1255 -1354 0
-1256 -1356 0
-1257 -1358 0
-1258 -1359 0
-1259 -1360 0
-1260 -1361 0
-1254 -1363 0
-1255 -1364 0
-1256 -1365 0
-1258 -1367 0
-1259 -1368 0
-1260 -1369 0
-1255 -1386 0
-1258 -1389 0
-1259 -1390 0
-1260 -1391 0
-1255 -1393 0
-1256 -1395 0
-1258 -1397 0
-1259 -1398 0
-1260 -1399 0
-1254 -1415 0
-1255 -1416 0
-1257 -1418 0
-1258 -1419 0
-1259 -1420 0
-1260 -1421 0
-1255 -1423 0
-1256 -1425 0
-1257 -1426 0
-1259 -1427 0
-1260 -1428 0
-1254 -1430 0
-1255 -1431 0
-1256 -1433 0
-1259 -1434 0
-1260 -1435 0
-1254 -1453 0
-1255 -1454 0
-1257 -1456 0
-1258 -1457 0
-1259 -1458 0
-1260 -1459 0
-1254 -1460 0
-1255 -1461 0
-1256 -1462 0
-1257 -1463 0
-1258 -1464 0
-1259 -1465 0
-1260 -1466 0
-1255 -1475 0
-1258 -1477 0
-1259 -1478 0
-1260 -1479 0
-1255 -1501 0
-1257 -1504 0
-1259 -1505 0
-1260 -1506 0
-1256 -1508 0
-1257 -1509 0
-1258 -1510 0
-1259 -1511 0
-1260 -1512 0
-1254 -1530 0
-1258 -1532 0
-1259 -1533 0
-1260 -1534 0
-1256 -1537 0
-1259 -1539 0
-1260 -1540 0
-1254 -1547 0
-1257 -1549 0
-1258 -1550 0
-1259 -1551 0
-1260 -1552 0
-1257 -1568 0
-1258 -1569 0
-1259 -1570 0
-1260 -1571 0
-1257 -1575 0
-1259 -1576 0
-1260 -1577 0
-1256 -1587 0
-1257 -1588 0
-1258 -1589 0
-1259 -1590 0
-1260 -1591 0
-1254 -1593 0
-1256 -1594 0
-1258 -1595 0
-1259 -1596 0
-1260 -1597 0
-1256 -1601 0
-1258 -1602 0
-1259 -1603 0
-1260 -1604 0
-1258 -1608 0
-1259 -1609 0
-1260 -1610 0
-1256 -1613 0
-1257 -1615 0
-1259 -1616 0
-1260 -1617 0
-1254 -1619 0
-1259 -1622 0
-1260 -1623 0
-1256 -1625 0
-1257 -1627 0
-1259 -1628 0
-1260 -1629 0
-1256 -1637 0
-1258 -1639 0
-1259 -1640 0
-1260 -1641 0
-1257 -1644 0
-1258 -1645 0
-1259 -1646 0
-1260 -1647 0
-1255 -1721 0
-1258 -1723 0
-1259 -1724 0
-1260 -1725 0
-1255 -1738 0
-1257 -1741 0
-1259 -1742 0
-1260 -1743 0
-1255 -1757 0
-1256 -1759 0
-1258 -1760 0
-1259 -1761 0
-1260 -1762 0
-1257 -1766 0
-1258 -1767 0
-1259 -1768 0
-1260 -1769 0
-1256 -1773 0
-1257 -1774 0
-1258 -1775 0
-1259 -1776 0
-1260 -1777 0
-1257 -1780 0
-1258 -1781 0
-1259 -1782 0
-1260 -1783 0
-1257 -1787 0
-1258 -1788 0
-1259 -1789 0
-1260 -1790 0
-1254 -1804 0
-1256 -1806 0
-1258 -1808 0
-1259 -1809 0
-1260 -1810 0
-1254 -1812 0
-1256 -1814 0
-1257 -1815 0
-1259 -1816 0
-1260 -1817 0
-1256 -1825 0
-1257 -1827 0
-1258 -1828 0
-1259 -1829 0
-1260 -1830 0
-1255 -1845 0
-1256 -1846 0
-1257 -1848 0
-1258 -1849 0
-1259 -1850 0
-1260 -1851 0
-1263 -1299 0
-1264 -1300 0
-1265 -1302 0
-1266 -1303 0
-1262 -1305 0
-1263 -1306 0
-1264 -1307 0
-1265 -1309 0
-1266 -1310 0
-1261 -1318 0
-1262 -1319 0
-1263 -1321 0
-1265 -1323 0
-1266 -1324 0
-1262 -1327 0
-1263 -1328 0
-1265 -1330 0
-1266 -1331 0
-1263 -1341 0
-1265 -1344 0
-1266 -1345 0
-1262 -1354 0
-1263 -1356 0
-1264 -1357 0
-1265 -1360 0
-1266 -1361 0
-1261 -1371 0
-1263 -1372 0
-1265 -1375 0
-1266 -1376 0
-1262 -1378 0
-1263 -1380 0
-1265 -1383 0
-1266 -1384 0
-1262 -1393 0
-1263 -1395 0
-1264 -1396 0
-1265 -1398 0
-1266 -1399 0
-1261 -1408 0
-1262 -1409 0
-1263 -1410 0
-1265 -1412 0
-1266 -1413 0
-1262 -1423 0
-1263 -1425 0
-1265 -1427 0
-1266 -1428 0
-1261 -1437 0
-1263 -1439 0
-1264 -1440 0
-1265 -1443 0
-1266 -1444 0
-1261 -1445 0
-1262 -1446 0
-1263 -1448 0
-1264 -1449 0
-1265 -1451 0
-1266 -1452 0
-1261 -1460 0
-1262 -1461 0
-1263 -1462 0
-1265 -1465 0
-1266 -1466 0
-1262 -1468 0
-1263 -1469 0
-1264 -1470 0
-1265 -1472 0
-1266 -1473 0
-1262 -1495 0
-1263 -1497 0
-1265 -1499 0
-1266 -1500 0
-1263 -1508 0
-1265 -1511 0
-1266 -1512 0
-1261 -1520 0
-1262 -1521 0
-1263 -1523 0
-1264 -1524 0
-1265 -1527 0
-1266 -1528 0
-1263 -1537 0
-1264 -1538 0
-1265 -1539 0
-1266 -1540 0
-1261 -1541 0
-1262 -1542 0
-1263 -1543 0
-1264 -1544 0
-1265 -1545 0
-1266 -1546 0
-1262 -1579 0
-1263 -1581 0
-1264 -1582 0
-1265 -1583 0
-1266 -1584 0
-1261 -1593 0
-1263 -1594 0
-1265 -1596 0
-1266 -1597 0
-1263 -1601 0
-1265 -1603 0
-1266 -1604 0
-1263 -1613 0
-1264 -1614 0
-1265 -1616 0
-1266 -1617 0
-1263 -1625 0
-1264 -1626 0
-1265 -1628 0
-1266 -1629 0
-1262 -1631 0
-1263 -1632 0
-1265 -1634 0
-1266 -1635 0
-1263 -1649 0
-1264 -1650 0
-1265 -1652 0
-1266 -1653 0
-1263 -1656 0
-1264 -1657 0
-1265 -1659 0
-1266 -1660 0
-1261 -1668 0
-1263 -1669 0
-1264 -1670 0
-1265 -1672 0
-1266 -1673 0
-1261 -1674 0
-1263 -1676 0
-1264 -1677 0
-1265 -1679 0
-1266 -1680 0
-1263 -1682 0
-1265 -1685 0
-1266 -1686 0
-1263 -1702 0
-1264 -1703 0
-1265 -1706 0
-1266 -1707 0
-1263 -1727 0
-1265 -1730 0
-1266 -1731 0
-1263 -1745 0
-1264 -1746 0
-1265 -1749 0
-1266 -1750 0
-1262 -1757 0
-1263 -1759 0
-1265 -1761 0
-1266 -1762 0
-1265 -1782 0
-1266 -1783 0
-1264 -1786 0
-1265 -1789 0
-1266 -1790 0
-1261 -1797 0
-1262 -1798 0
-1265 -1802 0
-1266 -1803 0
-1262 -1818 0
-1264 -1820 0
-1265 -1822 0
-1266 -1823 0
-1261 -1838 0
-1264 -1839 0
-1265 -1842 0
-1266 -1843 0
-1268 -1291 0
-1270 -1292 0
-1272 -1293 0
-1273 -1295 0
-1274 -1296 0
-1270 -1299 0
-1271 -1300 0
-1273 -1302 0
-1274 -1303 0
-1268 -1305 0
-1270 -1306 0
-1271 -1307 0
-1273 -1309 0
-1274 -1310 0
-1268 -1312 0
-1272 -1313 0
-1273 -1315 0
-1274 -1316 0
-1268 -1327 0
-1270 -1328 0
-1273 -1330 0
-1274 -1331 0
-1267 -1363 0
-1268 -1364 0
-1270 -1365 0
-1271 -1366 0
-1273 -1368 0
-1274 -1369 0
-1267 -1371 0
-1270 -1372 0
-1272 -1373 0
-1273 -1375 0
-1274 -1376 0
-1268 -1393 0
-1269 -1394 0
-1270 -1395 0
-1271 -1396 0
-1273 -1398 0
-1274 -1399 0
-1268 -1401 0
-1269 -1402 0
-1272 -1403 0
-1273 -1405 0
-1274 -1406 0
-1267 -1430 0
-1268 -1431 0
-1269 -1432 0
-1270 -1433 0
-1273 -1434 0
-1274 -1435 0
-1267 -1437 0
-1269 -1438 0
-1270 -1439 0
-1271 -1440 0
-1272 -1441 0
-1273 -1443 0
-1274 -1444 0
-1267 -1445 0
-1268 -1446 0
-1269 -1447 0
-1270 -1448 0
-1271 -1449 0
-1272 -1450 0
-1273 -1451 0
-1274 -1452 0
-1267 -1453 0
-1268 -1454 0
-1269 -1455 0
-1272 -1456 0
-1273 -1458 0
-1274 -1459 0
-1268 -1495 0
-1269 -1496 0
-1270 -1497 0
-1273 -1499 0
-1274 -1500 0
-1268 -1501 0
-1269 -1502 0
-1271 -1503 0
-1272 -1504 0
-1273 -1505 0
-1274 -1506 0
-1270 -1508 0
-1272 -1509 0
-1273 -1511 0
-1274 -1512 0
-1268 -1514 0
-1271 -1515 0
-1273 -1517 0
-1274 -1518 0
-1267 -1541 0
-1268 -1542 0
-1270 -1543 0
-1271 -1544 0
-1273 -1545 0
-1274 -1546 0
-1267 -1547 0
-1271 -1548 0
-1272 -1549 0
-1273 -1551 0
-1274 -1552 0
-1271 -1567 0
-1272 -1568 0
-1273 -1570 0
-1274 -1571 0
-1269 -1574 0
-1272 -1575 0
-1273 -1576 0
-1274 -1577 0
-1268 -1579 0
-1269 -1580 0
-1270 -1581 0
-1271 -1582 0
-1273 -1583 0
-1274 -1584 0
-1269 -1586 0
-1270 -1587 0
-1272 -1588 0
-1273 -1590 0
-1274 -1591 0
-1269 -1600 0
-1270 -1601 0
-1273 -1603 0
-1274 -1604 0
-1267 -1619 0
-1269 -1620 0
-1271 -1621 0
-1273 -1622 0
-1274 -1623 0
-1269 -1643 0
-1272 -1644 0
-1273 -1646 0
-1274 -1647 0
-1270 -1649 0
-1271 -1650 0
-1272 -1651 0
-1273 -1652 0
-1274 -1653 0
-1269 -1662 0
-1270 -1663 0
-1271 -1664 0
-1273 -1665 0
-1274 -1666 0
-1267 -1674 0
-1269 -1675 0
-1270 -1676 0
-1271 -1677 0
-1273 -1679 0
-1274 -1680 0
-1269 -1701 0
-1270 -1702 0
-1271 -1703 0
-1272 -1704 0
-1273 -1706 0
-1274 -1707 0
-1269 -1709 0
-1271 -1710 0
-1273 -1712 0
-1274 -1713 0
-1268 -1721 0
-1271 -1722 0
-1273 -1724 0
-1274 -1725 0
-1270 -1727 0
-1272 -1728 0
-1273 -1730 0
-1274 -1731 0
-1267 -1751 0
-1271 -1752 0
-1272 -1753 0
-1273 -1755 0
-1274 -1756 0
-1269 -1764 0
-1271 -1765 0
-1272 -1766 0
-1273 -1768 0
-1274 -1769 0
-1269 -1772 0
-1270 -1773 0
-1272 -1774 0
-1273 -1776 0
-1274 -1777 0
-1269 -1779 0
-1272 -1780 0
-1273 -1782 0
-1274 -1783 0
-1269 -1785 0
-1271 -1786 0
-1272 -1787 0
-1273 -1789 0
-1274 -1790 0
-1268 -1791 0
-1269 -1792 0
-1270 -1793 0
-1273 -1795 0
-1274 -1796 0
-1267 -1812 0
-1269 -1813 0
-1270 -1814 0
-1272 -1815 0
-1273 -1816 0
-1274 -1817 0
-1269 -1831 0
-1270 -1832 0
-1271 -1833 0
-1272 -1834 0
-1273 -1836 0
-1274 -1837 0
-1268 -1845 0
-1270 -1846 0
-1271 -1847 0
-1272 -1848 0
-1273 -1850 0
-1274 -1851 0
-1276 -1291 0
-1278 -1293 0
-1279 -1294 0
-1280 -1295 0
-1281 -1296 0
-1276 -1305 0
-1279 -1308 0
-1280 -1309 0
-1281 -1310 0
-1277 -1340 0
-1278 -1342 0
-1279 -1343 0
-1280 -1344 0
-1281 -1345 0
-1277 -1348 0
-1279 -1350 0
-1280 -1351 0
-1281 -1352 0
-1276 -1354 0
-1277 -1355 0
-1278 -1358 0
-1279 -1359 0
-1280 -1360 0
-1281 -1361 0
-1275 -1363 0
-1276 -1364 0
-1279 -1367 0
-1280 -1368 0
-1281 -1369 0
-1276 -1378 0
-1277 -1379 0
-1278 -1381 0
-1279 -1382 0
-1280 -1383 0
-1281 -1384 0
-1276 -1393 0
-1277 -1394 0
-1279 -1397 0
-1280 -1398 0
-1281 -1399 0
-1276 -1401 0
-1277 -1402 0
-1278 -1403 0
-1279 -1404 0
-1280 -1405 0
-1281 -1406 0
-1275 -1408 0
-1276 -1409 0
-1279 -1411 0
-1280 -1412 0
-1281 -1413 0
-1275 -1437 0
-1277 -1438 0
-1278 -1441 0
-1279 -1442 0
-1280 -1443 0
-1281 -1444 0
-1275 -1453 0
-1276 -1454 0
-1277 -1455 0
-1278 -1456 0
-1279 -1457 0
-1280 -1458 0
-1281 -1459 0
-1275 -1460 0
-1276 -1461 0
-1278 -1463 0
-1279 -1464 0
-1280 -1465 0
-1281 -1466 0
-1276 -1475 0
-1279 -1477 0
-1280 -1478 0
-1281 -1479 0
-1276 -1481 0
-1278 -1484 0
-1279 -1485 0
-1280 -1486 0
-1281 -1487 0
-1275 -1488 0
-1276 -1489 0
-1277 -1490 0
-1279 -1492 0
-1280 -1493 0
-1281 -1494 0
-1278 -1509 0
-1279 -1510 0
-1280 -1511 0
-1281 -1512 0
-1276 -1514 0
-1279 -1516 0
-1280 -1517 0
-1281 -1518 0
-1275 -1520 0
-1276 -1521 0
-1277 -1522 0
-1278 -1525 0
-1279 -1526 0
-1280 -1527 0
-1281 -1528 0
-1275 -1547 0
-1278 -1549 0
-1279 -1550 0
-1280 -1551 0
-1281 -1552 0
-1276 -1559 0
-1277 -1560 0
-1279 -1562 0
-1280 -1563 0
-1281 -1564 0
-1277 -1574 0
-1278 -1575 0
-1280 -1576 0
-1281 -1577 0
-1276 -1579 0
-1277 -1580 0
-1280 -1583 0
-1281 -1584 0
-1277 -1612 0
-1278 -1615 0
-1280 -1616 0
-1281 -1617 0
-1275 -1619 0
-1277 -1620 0
-1280 -1622 0
-1281 -1623 0
-1278 -1627 0
-1280 -1628 0
-1281 -1629 0
-1276 -1631 0
-1278 -1633 0
-1280 -1634 0
-1281 -1635 0
-1278 -1651 0
-1280 -1652 0
-1281 -1653 0
-1277 -1655 0
-1278 -1658 0
-1280 -1659 0
-1281 -1660 0
-1277 -1662 0
-1280 -1665 0
-1281 -1666 0
-1275 -1668 0
-1278 -1671 0
-1280 -1672 0
-1281 -1673 0
-1275 -1695 0
-1277 -1696 0
-1278 -1698 0
-1280 -1699 0
-1281 -1700 0
-1277 -1733 0
-1280 -1736 0
-1281 -1737 0
-1276 -1738 0
-1277 -1739 0
-1278 -1741 0
-1280 -1742 0
-1281 -1743 0
-1277 -1772 0
-1278 -1774 0
-1279 -1775 0
-1280 -1776 0
-1281 -1777 0
-1277 -1785 0
-1278 -1787 0
-1279 -1788 0
-1280 -1789 0
-1281 -1790 0
-1276 -1791 0
-1277 -1792 0
-1279 -1794 0
-1280 -1795 0
-1281 -1796 0
-1275 -1797 0
-1276 -1798 0
-1277 -1799 0
-1278 -1800 0
-1279 -1801 0
-1280 -1802 0
-1281 -1803 0
-1277 -1824 0
-1278 -1827 0
-1279 -1828 0
-1280 -1829 0
-1281 -1830 0
-1277 -1831 0
-1278 -1834 0
-1279 -1835 0
-1280 -1836 0
-1281 -1837 0
-1275 -1838 0
-1278 -1840 0
-1279 -1841 0
-1280 -1842 0
-1281 -1843 0
-1277 -1853 0
-1278 -1856 0
-1279 -1857 0
-1280 -1858 0
-1281 -1859 0
-1284 -1299 0
-1285 -1300 0
-1286 -1301 0
-1287 -1302 0
-1288 -1303 0
-1286 -1314 0
-1287 -1315 0
-1288 -1316 0
-1283 -1334 0
-1284 -1335 0
-1285 -1336 0
-1287 -1337 0
-1288 -1338 0
-1283 -1348 0
-1284 -1349 0
-1286 -1350 0
-1287 -1351 0
-1288 -1352 0
-1283 -1355 0
-1284 -1356 0
-1285 -1357 0
-1286 -1359 0
-1287 -1360 0
-1288 -1361 0
-1282 -1371 0
-1284 -1372 0
-1286 -1374 0
-1287 -1375 0
-1288 -1376 0
-1283 -1387 0
-1285 -1388 0
-1286 -1389 0
-1287 -1390 0
-1288 -1391 0
-1283 -1394 0
-1284 -1395 0
-1285 -1396 0
-1286 -1397 0
-1287 -1398 0
-1288 -1399 0
-1283 -1402 0
-1286 -1404 0
-1287 -1405 0
-1288 -1406 0
-1282 -1415 0
-1285 -1417 0
-1286 -1419 0
-1287 -1420 0
-1288 -1421 0
-1282 -1430 0
-1283 -1432 0
-1284 -1433 0
-1287 -1434 0
-1288 -1435 0
-1282 -1445 0
-1283 -1447 0
-1284 -1448 0
-1285 -1449 0
-1287 -1451 0
-1288 -1452 0
-1282 -1460 0
-1284 -1462 0
-1286 -1464 0
-1287 -1465 0
-1288 -1466 0
-1284 -1469 0
-1285 -1470 0
-1287 -1472 0
-1288 -1473 0
-1282 -1488 0
-1283 -1490 0
-1285 -1491 0
-1286 -1492 0
-1287 -1493 0
-1288 -1494 0
-1284 -1508 0
-1286 -1510 0
-1287 -1511 0
-1288 -1512 0
-1285 -1515 0
-1286 -1516 0
-1287 -1517 0
-1288 -1518 0
-1282 -1530 0
-1283 -1531 0
-1286 -1532 0
-1287 -1533 0
-1288 -1534 0
-1282 -1541 0
-1284 -1543 0
-1285 -1544 0
-1287 -1545 0
-1288 -1546 0
-1283 -1554 0
-1285 -1555 0
-1287 -1557 0
-1288 -1558 0
-1283 -1586 0
-1284 -1587 0
-1286 -1589 0
-1287 -1590 0
-1288 -1591 0
-1283 -1606 0
-1285 -1607 0
-1286 -1608 0
-1287 -1609 0
-1288 -1610 0
-1283 -1612 0
-1284 -1613 0
-1285 -1614 0
-1287 -1616 0
-1288 -1617 0
-1284 -1625 0
-1285 -1626 0
-1287 -1628 0
-1288 -1629 0
-1284 -1637 0
-1285 -1638 0
-1286 -1639 0
-1287 -1640 0
-1288 -1641 0
-1283 -1643 0
-1286 -1645 0
-1287 -1646 0
-1288 -1647 0
-1283 -1662 0
-1284 -1663 0
-1285 -1664 0
-1287 -1665 0
-1288 -1666 0
-1282 -1674 0
-1283 -1675 0
-1284 -1676 0
-1285 -1677 0
-1286 -1678 0
-1287 -1679 0
-1288 -1680 0
-1284 -1682 0
-1286 -1684 0
-1287 -1685 0
-1288 -1686 0
-1284 -1688 0
-1285 -1689 0
-1286 -1691 0
-1287 -1692 0
-1288 -1693 0
-1282 -1695 0
-1283 -1696 0
-1284 -1697 0
-1287 -1699 0
-1288 -1700 0
-1283 -1744 0
-1284 -1745 0
-1285 -1746 0
-1286 -1748 0
-1287 -1749 0
-1288 -1750 0
-1283 -1785 0
-1285 -1786 0
-1286 -1788 0
-1287 -1789 0
-1288 -1790 0
-1283 -1792 0
-1284 -1793 0
-1286 -1794 0
-1287 -1795 0
-1288 -1796 0
-1282 -1804 0
-1283 -1805 0
-1284 -1806 0
-1285 -1807 0
-1286 -1808 0
-1287 -1809 0
-1288 -1810 0
-1282 -1812 0
-1283 -1813 0
-1284 -1814 0
-1287 -1816 0
-1288 -1817 0
-1283 -1819 0
-1285 -1820 0
-1287 -1822 0
-1288 -1823 0
-1283 -1831 0
-1284 -1832 0
-1285 -1833 0
-1286 -1835 0
-1287 -1836 0
-1288 -1837 0
-1291 -1454 0
-1293 -1456 0
-1294 -1457 0
-1295 -1458 0
-1296 -1459 0
-1291 -1481 0
-1292 -1482 0
-1293 -1484 0
-1294 -1485 0
-1295 -1486 0
-1296 -1487 0
-1291 -1501 0
-1293 -1504 0
-1295 -1505 0
-1296 -1506 0
-1293 -1549 0
-1294 -1550 0
-1295 -1551 0
-1296 -1552 0
-1291 -1559 0
-1292 -1561 0
-1294 -1562 0
-1295 -1563 0
-1296 -1564 0
-1289 -1578 0
-1291 -1579 0
-1292 -1581 0
-1295 -1583 0
-1296 -1584 0
-1289 -1592 0
-1292 -1594 0
-1294 -1595 0
-1295 -1596 0
-1296 -1597 0
-1290 -1599 0
-1292 -1601 0
-1294 -1602 0
-1295 -1603 0
-1296 -1604 0
-1289 -1605 0
-1294 -1608 0
-1295 -1609 0
-1296 -1610 0
-1295 -1622 0
-1296 -1623 0
-1289 -1624 0
-1292 -1625 0
-1293 -1627 0
-1295 -1628 0
-1296 -1629 0
-1291 -1631 0
-1292 -1632 0
-1293 -1633 0
-1295 -1634 0
-1296 -1635 0
-1293 -1644 0
-1294 -1645 0
-1295 -1646 0
-1296 -1647 0
-1289 -1648 0
-1292 -1649 0
-1293 -1651 0
-1295 -1652 0
-1296 -1653 0
-1292 -1656 0
-1293 -1658 0
-1295 -1659 0
-1296 -1660 0
-1290 -1667 0
-1292 -1669 0
-1293 -1671 0
-1295 -1672 0
-1296 -1673 0
-1290 -1681 0
-1292 -1682 0
-1293 -1683 0
-1294 -1684 0
-1295 -1685 0
-1296 -1686 0
-1290 -1726 0
-1292 -1727 0
-1293 -1728 0
-1294 -1729 0
-1295 -1730 0
-1296 -1731 0
-1291 -1738 0
-1293 -1741 0
-1295 -1742 0
-1296 -1743 0
-1293 -1753 0
-1294 -1754 0
-1295 -1755 0
-1296 -1756 0
-1291 -1757 0
-1292 -1759 0
-1294 -1760 0
-1295 -1761 0
-1296 -1762 0
-1291 -1791 0
-1292 -1793 0
-1294 -1794 0
-1295 -1795 0
-1296 -1796 0
-1292 -1806 0
-1294 -1808 0
-1295 -1809 0
-1296 -1810 0
-1292 -1825 0
-1293 -1827 0
-1294 -1828 0
-1295 -1829 0
-1296 -1830 0
-1292 -1832 0
-1293 -1834 0
-1294 -1835 0
-1295 -1836 0
-1296 -1837 0
-1299 -1448 0
-1300 -1449 0
-1302 -1451 0
-1303 -1452 0
-1299 -1497 0
-1301 -1498 0
-1302 -1499 0
-1303 -1500 0
-1299 -1543 0
-1300 -1544 0
-1302 -1545 0
-1303 -1546 0
-1300 -1555 0
-1302 -1557 0
-1303 -1558 0
-1297 -1565 0
-1300 -1567 0
-1301 -1569 0
-1302 -1570 0
-1303 -1571 0
-1297 -1572 0
-1298 -1573 0
-1302 -1576 0
-1303 -1577 0
-1297 -1585 0
-1299 -1587 0
-1301 -1589 0
-1302 -1590 0
-1303 -1591 0
-1297 -1592 0
-1299 -1594 0
-1301 -1595 0
-1302 -1596 0
-1303 -1597 0
-1298 -1599 0
-1299 -1601 0
-1301 -1602 0
-1302 -1603 0
-1303 -1604 0
-1297 -1624 0
-1299 -1625 0
-1300 -1626 0
-1302 -1628 0
-1303 -1629 0
-1299 -1637 0
-1300 -1638 0
-1301 -1639 0
-1302 -1640 0
-1303 -1641 0
-1299 -1715 0
-1300 -1716 0
-1301 -1717 0
-1302 -1718 0
-1303 -1719 0
-1298 -1720 0
-1300 -1722 0
-1301 -1723 0
-1302 -1724 0
-1303 -1725 0
-1298 -1732 0
-1299 -1734 0
-1300 -1735 0
-1302 -1736 0
-1303 -1737 0
-1299 -1745 0
-1300 -1746 0
-1301 -1748 0
-1302 -1749 0
-1303 -1750 0
-1300 -1752 0
-1301 -1754 0
-1302 -1755 0
-1303 -1756 0
-1299 -1759 0
-1301 -1760 0
-1302 -1761 0
-1303 -1762 0
-1298 -1763 0
-1300 -1765 0
-1301 -1767 0
-1302 -1768 0
-1303 -1769 0
-1299 -1793 0
-1301 -1794 0
-1302 -1795 0
-1303 -1796 0
-1301 -1801 0
-1302 -1802 0
-1303 -1803 0
-1299 -1814 0
-1302 -1816 0
-1303 -1817 0
-1300 -1820 0
-1302 -1822 0
-1303 -1823 0
-1299 -1832 0
-1300 -1833 0
-1301 -1835 0
-1302 -1836 0
-1303 -1837 0
-1300 -1839 0
-1301 -1841 0
-1302 -1842 0
-1303 -1843 0
-1306 -1439 0
-1307 -1440 0
-1308 -1442 0
-1309 -1443 0
-1310 -1444 0
-1305 -1475 0
-1307 -1476 0
-1308 -1477 0
-1309 -1478 0
-1310 -1479 0
-1305 -1501 0
-1307 -1503 0
-1309 -1505 0
-1310 -1506 0
-1304 -1572 0
-1309 -1576 0
-1310 -1577 0
-1304 -1585 0
-1306 -1587 0
-1308 -1589 0
-1309 -1590 0
-1310 -1591 0
-1304 -1592 0
-1306 -1594 0
-1308 -1595 0
-1309 -1596 0
-1310 -1597 0
-1306 -1601 0
-1308 -1602 0
-1309 -1603 0
-1310 -1604 0
-1304 -1605 0
-1307 -1607 0
-1308 -1608 0
-1309 -1609 0
-1310 -1610 0
-1306 -1613 0
-1307 -1614 0
-1309 -1616 0
-1310 -1617 0
-1307 -1621 0
-1309 -1622 0
-1310 -1623 0
-1305 -1631 0
-1306 -1632 0
-1309 -1634 0
-1310 -1635 0
-1306 -1656 0
-1307 -1657 0
-1309 -1659 0
-1310 -1660 0
-1306 -1663 0
-1307 -1664 0
-1309 -1665 0
-1310 -1666 0
-1306 -1669 0
-1307 -1670 0
-1309 -1672 0
-1310 -1673 0
-1306 -1676 0
-1307 -1677 0
-1308 -1678 0
-1309 -1679 0
-1310 -1680 0
-1305 -1687 0
-1306 -1688 0
-1307 -1689 0
-1308 -1691 0
-1309 -1692 0
-1310 -1693 0
-1306 -1727 0
-1308 -1729 0
-1309 -1730 0
-1310 -1731 0
-1306 -1734 0
-1307 -1735 0
-1309 -1736 0
-1310 -1737 0
-1306 -1745 0
-1307 -1746 0
-1308 -1748 0
-1309 -1749 0
-1310 -1750 0
-1307 -1752 0
-1308 -1754 0
-1309 -1755 0
-1310 -1756 0
-1305 -1757 0
-1306 -1759 0
-1308 -1760 0
-1309 -1761 0
-1310 -1762 0
-1307 -1786 0
-1308 -1788 0
-1309 -1789 0
-1310 -1790 0
-1306 -1806 0
-1307 -1807 0
-1308 -1808 0
-1309 -1809 0
-1310 -1810 0
-1306 -1814 0
-1309 -1816 0
-1310 -1817 0
-1305 -1818 0
-1307 -1820 0
-1309 -1822 0
-1310 -1823 0
-1312 -1431 0
-1315 -1434 0
-1316 -1435 0
-1312 -1468 0
-1313 -1471 0
-1315 -1472 0
-1316 -1473 0
-1312 -1495 0
-1314 -1498 0
-1315 -1499 0
-1316 -1500 0
-1311 -1565 0
-1313 -1568 0
-1314 -1569 0
-1315 -1570 0
-1316 -1571 0
-1311 -1578 0
-1312 -1579 0
-1315 -1583 0
-1316 -1584 0
-1311 -1592 0
-1314 -1595 0
-1315 -1596 0
-1316 -1597 0
-1314 -1602 0
-1315 -1603 0
-1316 -1604 0
-1313 -1615 0
-1315 -1616 0
-1316 -1617 0
-1314 -1639 0
-1315 -1640 0
-1316 -1641 0
-1311 -1648 0
-1313 -1651 0
-1315 -1652 0
-1316 -1653 0
-1315 -1665 0
-1316 -1666 0
-1314 -1717 0
-1315 -1718 0
-1316 -1719 0
-1312 -1721 0
-1314 -1723 0
-1315 -1724 0
-1316 -1725 0
-1312 -1738 0
-1313 -1741 0
-1315 -1742 0
-1316 -1743 0
-1313 -1753 0
-1314 -1754 0
-1315 -1755 0
-1316 -1756 0
-1312 -1757 0
-1314 -1760 0
-1315 -1761 0
-1316 -1762 0
-1313 -1766 0
-1314 -1767 0
-1315 -1768 0
-1316 -1769 0
-1311 -1771 0
-1313 -1774 0
-1314 -1775 0
-1315 -1776 0
-1316 -1777 0
-1313 -1787 0
-1314 -1788 0
-1315 -1789 0
-1316 -1790 0
-1312 -1798 0
-1313 -1800 0
-1314 -1801 0
-1315 -1802 0
-1316 -1803 0
-1313 -1827 0
-1314 -1828 0
-1315 -1829 0
-1316 -1830 0
-1313 -1840 0
-1314 -1841 0
-1315 -1842 0
-1316 -1843 0
-1313 -1856 0
-1314 -1857 0
-1315 -1858 0
-1316 -1859 0
-1319 -1423 0
-1320 -1424 0
-1321 -1425 0
-1323 -1427 0
-1324 -1428 0
-1319 -1495 0
-1320 -1496 0
-1321 -1497 0
-1322 -1498 0
-1323 -1499 0
-1324 -1500 0
-1319 -1501 0
-1320 -1502 0
-1323 -1505 0
-1324 -1506 0
-1320 -1536 0
-1321 -1537 0
-1323 -1539 0
-1324 -1540 0
-1317 -1572 0
-1320 -1574 0
-1323 -1576 0
-1324 -1577 0
-1317 -1578 0
-1319 -1579 0
-1320 -1580 0
-1321 -1581 0
-1323 -1583 0
-1324 -1584 0
-1317 -1585 0
-1320 -1586 0
-1321 -1587 0
-1322 -1589 0
-1323 -1590 0
-1324 -1591 0
-1320 -1600 0
-1321 -1601 0
-1322 -1602 0
-1323 -1603 0
-1324 -1604 0
-1318 -1619 0
-1320 -1620 0
-1323 -1622 0
-1324 -1623 0
-1317 -1624 0
-1321 -1625 0
-1323 -1628 0
-1324 -1629 0
-1319 -1631 0
-1321 -1632 0
-1323 -1634 0
-1324 -1635 0
-1321 -1637 0
-1322 -1639 0
-1323 -1640 0
-1324 -1641 0
-1317 -1648 0
-1321 -1649 0
-1323 -1652 0
-1324 -1653 0
-1320 -1655 0
-1321 -1656 0
-1323 -1659 0
-1324 -1660 0
-1318 -1668 0
-1321 -1669 0
-1323 -1672 0
-1324 -1673 0
-1318 -1695 0
-1320 -1696 0
-1321 -1697 0
-1323 -1699 0
-1324 -1700 0
-1320 -1733 0
-1321 -1734 0
-1323 -1736 0
-1324 -1737 0
-1319 -1738 0
-1320 -1739 0
-1323 -1742 0
-1324 -1743 0
-1320 -1744 0
-1321 -1745 0
-1322 -1748 0
-1323 -1749 0
-1324 -1750 0
-1320 -1785 0
-1322 -1788 0
-1323 -1789 0
-1324 -1790 0
-1319 -1791 0
-1320 -1792 0
-1321 -1793 0
-1322 -1794 0
-1323 -1795 0
-1324 -1796 0
-1318 -1812 0
-1320 -1813 0
-1321 -1814 0
-1323 -1816 0
-1324 -1817 0
-1319 -1818 0
-1320 -1819 0
-1323 -1822 0
-1324 -1823 0
-1320 -1824 0
-1321 -1825 0
-1322 -1828 0
-1323 -1829 0
-1324 -1830 0
-1320 -1831 0
-1321 -1832 0
-1322 -1835 0
-1323 -1836 0
-1324 -1837 0
-1327 -1495 0
-1328 -1497 0
-1329 -1498 0
-1330 -1499 0
-1331 -1500 0
-1327 -1501 0
-1330 -1505 0
-1331 -1506 0
-1326 -1573 0
-1330 -1576 0
-1331 -1577 0
-1327 -1579 0
-1328 -1581 0
-1330 -1583 0
-1331 -1584 0
-1328 -1587 0
-1329 -1589 0
-1330 -1590 0
-1331 -1591 0
-1328 -1594 0
-1329 -1595 0
-1330 -1596 0
-1331 -1597 0
-1325 -1611 0
-1328 -1613 0
-1330 -1616 0
-1331 -1617 0
-1325 -1618 0
-1330 -1622 0
-1331 -1623 0
-1325 -1630 0
-1327 -1631 0
-1328 -1632 0
-1330 -1634 0
-1331 -1635 0
-1325 -1636 0
-1328 -1637 0
-1329 -1639 0
-1330 -1640 0
-1331 -1641 0
-1328 -1649 0
-1330 -1652 0
-1331 -1653 0
-1325 -1654 0
-1328 -1656 0
-1330 -1659 0
-1331 -1660 0
-1326 -1661 0
-1328 -1663 0
-1330 -1665 0
-1331 -1666 0
-1326 -1667 0
-1328 -1669 0
-1330 -1672 0
-1331 -1673 0
-1326 -1732 0
-1328 -1734 0
-1330 -1736 0
-1331 -1737 0
-1327 -1738 0
-1330 -1742 0
-1331 -1743 0
-1328 -1745 0
-1329 -1748 0
-1330 -1749 0
-1331 -1750 0
-1329 -1754 0
-1330 -1755 0
-1331 -1756 0
-1327 -1757 0
-1328 -1759 0
-1329 -1760 0
-1330 -1761 0
-1331 -1762 0
-1328 -1814 0
-1330 -1816 0
-1331 -1817 0
-1327 -1818 0
-1330 -1822 0
-1331 -1823 0
-1328 -1825 0
-1329 -1828 0
-1330 -1829 0
-1331 -1830 0
-1333 -1386 0
-1334 -1387 0
-1336 -1388 0
-1337 -1390 0
-1338 -1391 0
-1333 -1416 0
-1336 -1417 0
-1337 -1420 0
-1338 -1421 0
-1333 -1475 0
-1336 -1476 0
-1337 -1478 0
-1338 -1479 0
-1333 -1481 0
-1335 -1482 0
-1336 -1483 0
-1337 -1486 0
-1338 -1487 0
-1333 -1489 0
-1334 -1490 0
-1336 -1491 0
-1337 -1493 0
-1338 -1494 0
-1334 -1531 0
-1337 -1533 0
-1338 -1534 0
-1333 -1559 0
-1334 -1560 0
-1335 -1561 0
-1337 -1563 0
-1338 -1564 0
-1332 -1565 0
-1336 -1567 0
-1337 -1570 0
-1338 -1571 0
-1332 -1572 0
-1334 -1574 0
-1337 -1576 0
-1338 -1577 0
-1332 -1578 0
-1333 -1579 0
-1334 -1580 0
-1335 -1581 0
-1336 -1582 0
-1337 -1583 0
-1338 -1584 0
-1334 -1612 0
-1335 -1613 0
-1336 -1614 0
-1337 -1616 0
-1338 -1617 0
-1334 -1620 0
-1336 -1621 0
-1337 -1622 0
-1338 -1623 0
-1334 -1643 0
-1337 -1646 0
-1338 -1647 0
-1332 -1648 0
-1335 -1649 0
-1336 -1650 0
-1337 -1652 0
-1338 -1653 0
-1334 -1675 0
-1335 -1676 0
-1336 -1677 0
-1337 -1679 0
-1338 -1680 0
-1334 -1701 0
-1335 -1702 0
-1336 -1703 0
-1337 -1706 0
-1338 -1707 0
-1332 -1708 0
-1334 -1709 0
-1336 -1710 0
-1337 -1712 0
-1338 -1713 0
-1333 -1721 0
-1336 -1722 0
-1337 -1724 0
-1338 -1725 0
-1334 -1744 0
-1335 -1745 0
-1336 -1746 0
-1337 -1749 0
-1338 -1750 0
-1336 -1752 0
-1337 -1755 0
-1338 -1756 0
-1334 -1764 0
-1336 -1765 0
-1337 -1768 0
-1338 -1769 0
-1334 -1779 0
-1337 -1782 0
-1338 -1783 0
-1334 -1785 0
-1336 -1786 0
-1337 -1789 0
-1338 -1790 0
-1333 -1791 0
-1334 -1792 0
-1335 -1793 0
-1337 -1795 0
-1338 -1796 0
-1333 -1798 0
-1334 -1799 0
-1337 -1802 0
-1338 -1803 0
-1333 -1818 0
-1334 -1819 0
-1336 -1820 0
-1337 -1822 0
-1338 -1823 0
-1334 -1831 0
-1335 -1832 0
-1336 -1833 0
-1337 -1836 0
-1338 -1837 0
-1336 -1839 0
-1337 -1842 0
-1338 -1843 0
-1340 -1379 0
-1341 -1380 0
-1342 -1381 0
-1343 -1382 0
-1344 -1383 0
-1345 -1384 0
-1341 -1410 0
-1343 -1411 0
-1344 -1412 0
-1345 -1413 0
-1341 -1469 0
-1342 -1471 0
-1344 -1472 0
-1345 -1473 0
-1340 -1490 0
-1343 -1492 0
-1344 -1493 0
-1345 -1494 0
-1340 -1522 0
-1341 -1523 0
-1342 -1525 0
-1343 -1526 0
-1344 -1527 0
-1345 -1528 0
-1340 -1554 0
-1342 -1556 0
-1344 -1557 0
-1345 -1558 0
-1339 -1585 0
-1340 -1586 0
-1341 -1587 0
-1342 -1588 0
-1343 -1589 0
-1344 -1590 0
-1345 -1591 0
-1339 -1605 0
-1340 -1606 0
-1343 -1608 0
-1344 -1609 0
-1345 -1610 0
-1340 -1612 0
-1341 -1613 0
-1342 -1615 0
-1344 -1616 0
-1345 -1617 0
-1339 -1708 0
-1340 -1709 0
-1343 -1711 0
-1344 -1712 0
-1345 -1713 0
-1341 -1715 0
-1343 -1717 0
-1344 -1718 0
-1345 -1719 0
-1341 -1727 0
-1342 -1728 0
-1343 -1729 0
-1344 -1730 0
-1345 -1731 0
-1340 -1733 0
-1341 -1734 0
-1344 -1736 0
-1345 -1737 0
-1340 -1739 0
-1342 -1741 0
-1344 -1742 0
-1345 -1743 0
-1342 -1753 0
-1343 -1754 0
-1344 -1755 0
-1345 -1756 0
-1339 -1771 0
-1340 -1772 0
-1341 -1773 0
-1342 -1774 0
-1343 -1775 0
-1344 -1776 0
-1345 -1777 0
-1340 -1779 0
-1342 -1780 0
-1343 -1781 0
-1344 -1782 0
-1345 -1783 0
-1340 -1785 0
-1342 -1787 0
-1343 -1788 0
-1344 -1789 0
-1345 -1790 0
-1340 -1792 0
-1341 -1793 0
-1343 -1794 0
-1344 -1795 0
-1345 -1796 0
-1340 -1805 0
-1341 -1806 0
-1343 -1808 0
-1344 -1809 0
-1345 -1810 0
-1340 -1813 0
-1341 -1814 0
-1342 -1815 0
-1344 -1816 0
-1345 -1817 0
-1340 -1824 0
-1341 -1825 0
-1342 -1827 0
-1343 -1828 0
-1344 -1829 0
-1345 -1830 0
-1340 -1831 0
-1341 -1832 0
-1342 -1834 0
-1343 -1835 0
-1344 -1836 0
-1345 -1837 0
-1341 -1846 0
-1342 -1848 0
-1343 -1849 0
-1344 -1850 0
-1345 -1851 0
-1349 -1482 0
-1350 -1485 0
-1351 -1486 0
-1352 -1487 0
-1348 -1490 0
-1350 -1492 0
-1351 -1493 0
-1352 -1494 0
-1348 -1554 0
-1351 -1557 0
-1352 -1558 0
-1348 -1560 0
-1349 -1561 0
-1350 -1562 0
-1351 -1563 0
-1352 -1564 0
-1346 -1566 0
-1350 -1569 0
-1351 -1570 0
-1352 -1571 0
-1347 -1573 0
-1348 -1574 0
-1351 -1576 0
-1352 -1577 0
-1346 -1598 0
-1347 -1599 0
-1348 -1600 0
-1349 -1601 0
-1350 -1602 0
-1351 -1603 0
-1352 -1604 0
-1348 -1606 0
-1350 -1608 0
-1351 -1609 0
-1352 -1610 0
-1346 -1611 0
-1348 -1612 0
-1349 -1613 0
-1351 -1616 0
-1352 -1617 0
-1346 -1618 0
-1348 -1620 0
-1351 -1622 0
-1352 -1623 0
-1346 -1642 0
-1348 -1643 0
-1350 -1645 0
-1351 -1646 0
-1352 -1647 0
-1348 -1709 0
-1350 -1711 0
-1351 -1712 0
-1352 -1713 0
-1347 -1720 0
-1350 -1723 0
-1351 -1724 0
-1352 -1725 0
-1347 -1726 0
-1349 -1727 0
-1350 -1729 0
-1351 -1730 0
-1352 -1731 0
-1348 -1739 0
-1351 -1742 0
-1352 -1743 0
-1348 -1744 0
-1349 -1745 0
-1350 -1748 0
-1351 -1749 0
-1352 -1750 0
-1350 -1754 0
-1351 -1755 0
-1352 -1756 0
-1347 -1763 0
-1348 -1764 0
-1350 -1767 0
-1351 -1768 0
-1352 -1769 0
-1348 -1792 0
-1349 -1793 0
-1350 -1794 0
-1351 -1795 0
-1352 -1796 0
-1348 -1799 0
-1350 -1801 0
-1351 -1802 0
-1352 -1803 0
-1348 -1805 0
-1349 -1806 0
-1350 -1808 0
-1351 -1809 0
-1352 -1810 0
-1348 -1819 0
-1351 -1822 0
-1352 -1823 0
-1348 -1824 0
-1349 -1825 0
-1350 -1828 0
-1351 -1829 0
-1352 -1830 0
-1348 -1831 0
-1349 -1832 0
-1350 -1835 0
-1351 -1836 0
-1352 -1837 0
-1350 -1841 0
-1351 -1842 0
-1352 -1843 0
-1354 -1468 0
-1356 -1469 0
-1357 -1470 0
-1358 -1471 0
-1360 -1472 0
-1361 -1473 0
-1354 -1475 0
-1357 -1476 0
-1359 -1477 0
-1360 -1478 0
-1361 -1479 0
-1354 -1489 0
-1355 -1490 0
-1357 -1491 0
-1359 -1492 0
-1360 -1493 0
-1361 -1494 0
-1353 -1566 0
-1357 -1567 0
-1358 -1568 0
-1359 -1569 0
-1360 -1570 0
-1361 -1571 0
-1354 -1579 0
-1355 -1580 0
-1356 -1581 0
-1357 -1582 0
-1360 -1583 0
-1361 -1584 0
-1355 -1586 0
-1356 -1587 0
-1358 -1588 0
-1359 -1589 0
-1360 -1590 0
-1361 -1591 0
-1353 -1598 0
-1355 -1600 0
-1356 -1601 0
-1359 -1602 0
-1360 -1603 0
-1361 -1604 0
-1355 -1606 0
-1357 -1607 0
-1359 -1608 0
-1360 -1609 0
-1361 -1610 0
-1353 -1618 0
-1355 -1620 0
-1357 -1621 0
-1360 -1622 0
-1361 -1623 0
-1356 -1649 0
-1357 -1650 0
-1358 -1651 0
-1360 -1652 0
-1361 -1653 0
-1355 -1662 0
-1356 -1663 0
-1357 -1664 0
-1360 -1665 0
-1361 -1666 0
-1355 -1675 0
-1356 -1676 0
-1357 -1677 0
-1359 -1678 0
-1360 -1679 0
-1361 -1680 0
-1355 -1709 0
-1357 -1710 0
-1359 -1711 0
-1360 -1712 0
-1361 -1713 0
-1354 -1721 0
-1357 -1722 0
-1359 -1723 0
-1360 -1724 0
-1361 -1725 0
-1356 -1727 0
-1358 -1728 0
-1359 -1729 0
-1360 -1730 0
-1361 -1731 0
-1355 -1733 0
-1356 -1734 0
-1357 -1735 0
-1360 -1736 0
-1361 -1737 0
-1357 -1752 0
-1358 -1753 0
-1359 -1754 0
-1360 -1755 0
-1361 -1756 0
-1355 -1764 0
-1357 -1765 0
-1358 -1766 0
-1359 -1767 0
-1360 -1768 0
-1361 -1769 0
-1355 -1772 0
-1356 -1773 0
-1358 -1774 0
-1359 -1775 0
-1360 -1776 0
-1361 -1777 0
-1355 -1785 0
-1357 -1786 0
-1358 -1787 0
-1359 -1788 0
-1360 -1789 0
-1361 -1790 0
-1354 -1798 0
-1355 -1799 0
-1358 -1800 0
-1359 -1801 0
-1360 -1802 0
-1361 -1803 0
-1355 -1805 0
-1356 -1806 0
-1357 -1807 0
-1359 -1808 0
-1360 -1809 0
-1361 -1810 0
-1355 -1813 0
-1356 -1814 0
-1358 -1815 0
-1360 -1816 0
-1361 -1817 0
-1357 -1839 0
-1358 -1840 0
-1359 -1841 0
-1360 -1842 0
-1361 -1843 0
-1364 -1475 0
-1366 -1476 0
-1367 -1477 0
-1368 -1478 0
-1369 -1479 0
-1364 -1481 0
-1365 -1482 0
-1366 -1483 0
-1367 -1485 0
-1368 -1486 0
-1369 -1487 0
-1364 -1501 0
-1366 -1503 0
-1368 -1505 0
-1369 -1506 0
-1364 -1559 0
-1365 -1561 0
-1367 -1562 0
-1368 -1563 0
-1369 -1564 0
-1368 -1576 0
-1369 -1577 0
-1364 -1579 0
-1365 -1581 0
-1366 -1582 0
-1368 -1583 0
-1369 -1584 0
-1363 -1593 0
-1365 -1594 0
-1367 -1595 0
-1368 -1596 0
-1369 -1597 0
-1362 -1598 0
-1365 -1601 0
-1367 -1602 0
-1368 -1603 0
-1369 -1604 0
-1366 -1607 0
-1367 -1608 0
-1368 -1609 0
-1369 -1610 0
-1362 -1611 0
-1365 -1613 0
-1366 -1614 0
-1368 -1616 0
-1369 -1617 0
-1362 -1630 0
-1364 -1631 0
-1365 -1632 0
-1368 -1634 0
-1369 -1635 0
-1362 -1642 0
-1367 -1645 0
-1368 -1646 0
-1369 -1647 0
-1365 -1649 0
-1366 -1650 0
-1368 -1652 0
-1369 -1653 0
-1362 -1654 0
-1365 -1656 0
-1366 -1657 0
-1368 -1659 0
-1369 -1660 0
-1363 -1668 0
-1365 -1669 0
-1366 -1670 0
-1368 -1672 0
-1369 -1673 0
-1363 -1674 0
-1365 -1676 0
-1366 -1677 0
-1367 -1678 0
-1368 -1679 0
-1369 -1680 0
-1365 -1727 0
-1367 -1729 0
-1368 -1730 0
-1369 -1731 0
-1365 -1745 0
-1366 -1746 0
-1367 -1748 0
-1368 -1749 0
-1369 -1750 0
-1364 -1757 0
-1365 -1759 0
-1367 -1760 0
-1368 -1761 0
-1369 -1762 0
-1366 -1786 0
-1367 -1788 0
-1368 -1789 0
-1369 -1790 0
-1364 -1791 0
-1365 -1793 0
-1367 -1794 0
-1368 -1795 0
-1369 -1796 0
-1363 -1804 0
-1365 -1806 0
-1366 -1807 0
-1367 -1808 0
-1368 -1809 0
-1369 -1810 0
-1364 -1818 0
-1366 -1820 0
-1368 -1822 0
-1369 -1823 0
-1365 -1832 0
-1366 -1833 0
-1367 -1835 0
-1368 -1836 0
-1369 -1837 0
-1372 -1469 0
-1373 -1471 0
-1375 -1472 0
-1376 -1473 0
-1372 -1497 0
-1374 -1498 0
-1375 -1499 0
-1376 -1500 0
-1373 -1556 0
-1375 -1557 0
-1376 -1558 0
-1370 -1566 0
-1373 -1568 0
-1374 -1569 0
-1375 -1570 0
-1376 -1571 0
-1372 -1587 0
-1373 -1588 0
-1374 -1589 0
-1375 -1590 0
-1376 -1591 0
-1371 -1593 0
-1372 -1594 0
-1374 -1595 0
-1375 -1596 0
-1376 -1597 0
-1370 -1598 0
-1372 -1601 0
-1374 -1602 0
-1375 -1603 0
-1376 -1604 0
-1370 -1611 0
-1372 -1613 0
-1373 -1615 0
-1375 -1616 0
-1376 -1617 0
-1370 -1618 0
-1371 -1619 0
-1375 -1622 0
-1376 -1623 0
-1370 -1636 0
-1372 -1637 0
-1374 -1639 0
-1375 -1640 0
-1376 -1641 0
-1374 -1723 0
-1375 -1724 0
-1376 -1725 0
-1372 -1734 0
-1375 -1736 0
-1376 -1737 0
-1373 -1741 0
-1375 -1742 0
-1376 -1743 0
-1372 -1759 0
-1374 -1760 0
-1375 -1761 0
-1376 -1762 0
-1373 -1766 0
-1374 -1767 0
-1375 -1768 0
-1376 -1769 0
-1372 -1773 0
-1373 -1774 0
-1374 -1775 0
-1375 -1776 0
-1376 -1777 0
-1373 -1787 0
-1374 -1788 0
-1375 -1789 0
-1376 -1790 0
-1372 -1793 0
-1374 -1794 0
-1375 -1795 0
-1376 -1796 0
-1371 -1797 0
-1373 -1800 0
-1374 -1801 0
-1375 -1802 0
-1376 -1803 0
-1371 -1812 0
-1372 -1814 0
-1373 -1815 0
-1375 -1816 0
-1376 -1817 0
-1372 -1825 0
-1373 -1827 0
-1374 -1828 0
-1375 -1829 0
-1376 -1830 0
-1372 -1832 0
-1373 -1834 0
-1374 -1835 0
-1375 -1836 0
-1376 -1837 0
-1371 -1838 0
-1373 -1840 0
-1374 -1841 0
-1375 -1842 0
-1376 -1843 0
-1378 -1423 0
-1379 -1424 0
-1380 -1425 0
-1381 -1426 0
-1383 -1427 0
-1384 -1428 0
-1379 -1438 0
-1380 -1439 0
-1381 -1441 0
-1382 -1442 0
-1383 -1443 0
-1384 -1444 0
-1378 -1454 0
-1379 -1455 0
-1381 -1456 0
-1382 -1457 0
-1383 -1458 0
-1384 -1459 0
-1378 -1501 0
-1379 -1502 0
-1381 -1504 0
-1383 -1505 0
-1384 -1506 0
-1379 -1536 0
-1380 -1537 0
-1383 -1539 0
-1384 -1540 0
-1381 -1549 0
-1382 -1550 0
-1383 -1551 0
-1384 -1552 0
-1379 -1574 0
-1381 -1575 0
-1383 -1576 0
-1384 -1577 0
-1378 -1579 0
-1379 -1580 0
-1380 -1581 0
-1383 -1583 0
-1384 -1584 0
-1380 -1594 0
-1382 -1595 0
-1383 -1596 0
-1384 -1597 0
-1377 -1598 0
-1379 -1600 0
-1380 -1601 0
-1382 -1602 0
-1383 -1603 0
-1384 -1604 0
-1377 -1618 0
-1379 -1620 0
-1383 -1622 0
-1384 -1623 0
-1380 -1625 0
-1381 -1627 0
-1383 -1628 0
-1384 -1629 0
-1377 -1636 0
-1380 -1637 0
-1382 -1639 0
-1383 -1640 0
-1384 -1641 0
-1377 -1642 0
-1379 -1643 0
-1381 -1644 0
-1382 -1645 0
-1383 -1646 0
-1384 -1647 0
-1380 -1649 0
-1381 -1651 0
-1383 -1652 0
-1384 -1653 0
-1380 -1669 0
-1381 -1671 0
-1383 -1672 0
-1384 -1673 0
-1380 -1682 0
-1381 -1683 0
-1382 -1684 0
-1383 -1685 0
-1384 -1686 0
-1378 -1687 0
-1380 -1688 0
-1381 -1690 0
-1382 -1691 0
-1383 -1692 0
-1384 -1693 0
-1379 -1696 0
-1380 -1697 0
-1381 -1698 0
-1383 -1699 0
-1384 -1700 0
-1380 -1727 0
-1381 -1728 0
-1382 -1729 0
-1383 -1730 0
-1384 -1731 0
-1379 -1733 0
-1380 -1734 0
-1383 -1736 0
-1384 -1737 0
-1378 -1738 0
-1379 -1739 0
-1381 -1741 0
-1383 -1742 0
-1384 -1743 0
-1381 -1753 0
-1382 -1754 0
-1383 -1755 0
-1384 -1756 0
-1379 -1785 0
-1381 -1787 0
-1382 -1788 0
-1383 -1789 0
-1384 -1790 0
-1378 -1791 0
-1379 -1792 0
-1380 -1793 0
-1382 -1794 0
-1383 -1795 0
-1384 -1796 0
-1379 -1805 0
-1380 -1806 0
-1382 -1808 0
-1383 -1809 0
-1384 -1810 0
-1379 -1813 0
-1380 -1814 0
-1381 -1815 0
-1383 -1816 0
-1384 -1817 0
-1379 -1824 0
-1380 -1825 0
-1381 -1827 0
-1382 -1828 0
-1383 -1829 0
-1384 -1830 0
-1379 -1831 0
-1380 -1832 0
-1381 -1834 0
-1382 -1835 0
-1383 -1836 0
-1384 -1837 0
-1386 -1423 0
-1387 -1424 0
-1390 -1427 0
-1391 -1428 0
-1386 -1431 0
-1387 -1432 0
-1390 -1434 0
-1391 -1435 0
-1386 -1446 0
-1387 -1447 0
-1388 -1449 0
-1390 -1451 0
-1391 -1452 0
-1386 -1495 0
-1387 -1496 0
-1389 -1498 0
-1390 -1499 0
-1391 -1500 0
-1387 -1536 0
-1388 -1538 0
-1390 -1539 0
-1391 -1540 0
-1386 -1542 0
-1388 -1544 0
-1390 -1545 0
-1391 -1546 0
-1385 -1566 0
-1388 -1567 0
-1389 -1569 0
-1390 -1570 0
-1391 -1571 0
-1387 -1586 0
-1389 -1589 0
-1390 -1590 0
-1391 -1591 0
-1389 -1595 0
-1390 -1596 0
-1391 -1597 0
-1385 -1598 0
-1387 -1600 0
-1389 -1602 0
-1390 -1603 0
-1391 -1604 0
-1388 -1626 0
-1390 -1628 0
-1391 -1629 0
-1385 -1630 0
-1386 -1631 0
-1390 -1634 0
-1391 -1635 0
-1385 -1654 0
-1387 -1655 0
-1388 -1657 0
-1390 -1659 0
-1391 -1660 0
-1387 -1696 0
-1390 -1699 0
-1391 -1700 0
-1385 -1714 0
-1388 -1716 0
-1389 -1717 0
-1390 -1718 0
-1391 -1719 0
-1386 -1721 0
-1388 -1722 0
-1389 -1723 0
-1390 -1724 0
-1391 -1725 0
-1387 -1744 0
-1388 -1746 0
-1389 -1748 0
-1390 -1749 0
-1391 -1750 0
-1388 -1752 0
-1389 -1754 0
-1390 -1755 0
-1391 -1756 0
-1387 -1764 0
-1388 -1765 0
-1389 -1767 0
-1390 -1768 0
-1391 -1769 0
-1387 -1772 0
-1389 -1775 0
-1390 -1776 0
-1391 -1777 0
-1387 -1785 0
-1388 -1786 0
-1389 -1788 0
-1390 -1789 0
-1391 -1790 0
-1386 -1791 0
-1387 -1792 0
-1389 -1794 0
-1390 -1795 0
-1391 -1796 0
-1386 -1798 0
-1387 -1799 0
-1389 -1801 0
-1390 -1802 0
-1391 -1803 0
-1386 -1818 0
-1387 -1819 0
-1388 -1820 0
-1390 -1822 0
-1391 -1823 0
-1387 -1831 0
-1388 -1833 0
-1389 -1835 0
-1390 -1836 0
-1391 -1837 0
-1388 -1839 0
-1389 -1841 0
-1390 -1842 0
-1391 -1843 0
-1387 -1853 0
-1388 -1855 0
-1389 -1857 0
-1390 -1858 0
-1391 -1859 0
-1393 -1542 0
-1395 -1543 0
-1396 -1544 0
-1398 -1545 0
-1399 -1546 0
-1396 -1548 0
-1397 -1550 0
-1398 -1551 0
-1399 -1552 0
-1393 -1553 0
-1394 -1554 0
-1396 -1555 0
-1398 -1557 0
-1399 -1558 0
-1393 -1559 0
-1394 -1560 0
-1395 -1561 0
-1397 -1562 0
-1398 -1563 0
-1399 -1564 0
-1396 -1567 0
-1397 -1569 0
-1398 -1570 0
-1399 -1571 0
-1393 -1579 0
-1394 -1580 0
-1395 -1581 0
-1396 -1582 0
-1398 -1583 0
-1399 -1584 0
-1394 -1586 0
-1395 -1587 0
-1397 -1589 0
-1398 -1590 0
-1399 -1591 0
-1395 -1594 0
-1397 -1595 0
-1398 -1596 0
-1399 -1597 0
-1394 -1606 0
-1396 -1607 0
-1397 -1608 0
-1398 -1609 0
-1399 -1610 0
-1394 -1612 0
-1395 -1613 0
-1396 -1614 0
-1398 -1616 0
-1399 -1617 0
-1394 -1620 0
-1396 -1621 0
-1398 -1622 0
-1399 -1623 0
-1395 -1625 0
-1396 -1626 0
-1398 -1628 0
-1399 -1629 0
-1393 -1631 0
-1395 -1632 0
-1398 -1634 0
-1399 -1635 0
-1395 -1637 0
-1396 -1638 0
-1397 -1639 0
-1398 -1640 0
-1399 -1641 0
-1394 -1643 0
-1397 -1645 0
-1398 -1646 0
-1399 -1647 0
-1392 -1661 0
-1394 -1662 0
-1395 -1663 0
-1396 -1664 0
-1398 -1665 0
-1399 -1666 0
-1392 -1667 0
-1395 -1669 0
-1396 -1670 0
-1398 -1672 0
-1399 -1673 0
-1392 -1681 0
-1395 -1682 0
-1397 -1684 0
-1398 -1685 0
-1399 -1686 0
-1394 -1709 0
-1396 -1710 0
-1397 -1711 0
-1398 -1712 0
-1399 -1713 0
-1395 -1715 0
-1396 -1716 0
-1397 -1717 0
-1398 -1718 0
-1399 -1719 0
-1393 -1738 0
-1394 -1739 0
-1396 -1740 0
-1398 -1742 0
-1399 -1743 0
-1394 -1744 0
-1395 -1745 0
-1396 -1746 0
-1397 -1748 0
-1398 -1749 0
-1399 -1750 0
-1396 -1752 0
-1397 -1754 0
-1398 -1755 0
-1399 -1756 0
-1393 -1757 0
-1394 -1758 0
-1395 -1759 0
-1397 -1760 0
-1398 -1761 0
-1399 -1762 0
-1392 -1763 0
-1394 -1764 0
-1396 -1765 0
-1397 -1767 0
-1398 -1768 0
-1399 -1769 0
-1394 -1831 0
-1395 -1832 0
-1396 -1833 0
-1397 -1835 0
-1398 -1836 0
-1399 -1837 0
-1396 -1839 0
-1397 -1841 0
-1398 -1842 0
-1399 -1843 0
-1403 -1568 0
-1404 -1569 0
-1405 -1570 0
-1406 -1571 0
-1400 -1573 0
-1402 -1574 0
-1403 -1575 0
-1405 -1576 0
-1406 -1577 0
-1404 -1595 0
-1405 -1596 0
-1406 -1597 0
-1402 -1606 0
-1404 -1608 0
-1405 -1609 0
-1406 -1610 0
-1402 -1620 0
-1405 -1622 0
-1406 -1623 0
-1401 -1631 0
-1403 -1633 0
-1405 -1634 0
-1406 -1635 0
-1404 -1639 0
-1405 -1640 0
-1406 -1641 0
-1403 -1651 0
-1405 -1652 0
-1406 -1653 0
-1400 -1667 0
-1403 -1671 0
-1405 -1672 0
-1406 -1673 0
-1402 -1675 0
-1404 -1678 0
-1405 -1679 0
-1406 -1680 0
-1401 -1687 0
-1403 -1690 0
-1404 -1691 0
-1405 -1692 0
-1406 -1693 0
-1402 -1709 0
-1404 -1711 0
-1405 -1712 0
-1406 -1713 0
-1404 -1717 0
-1405 -1718 0
-1406 -1719 0
-1400 -1732 0
-1402 -1733 0
-1405 -1736 0
-1406 -1737 0
-1403 -1753 0
-1404 -1754 0
-1405 -1755 0
-1406 -1756 0
-1401 -1757 0
-1402 -1758 0
-1404 -1760 0
-1405 -1761 0
-1406 -1762 0
-1400 -1763 0
-1402 -1764 0
-1403 -1766 0
-1404 -1767 0
-1405 -1768 0
-1406 -1769 0
-1402 -1772 0
-1403 -1774 0
-1404 -1775 0
-1405 -1776 0
-1406 -1777 0
-1402 -1813 0
-1403 -1815 0
-1405 -1816 0
-1406 -1817 0
-1401 -1818 0
-1402 -1819 0
-1403 -1821 0
-1405 -1822 0
-1406 -1823 0
-1402 -1824 0
-1403 -1827 0
-1404 -1828 0
-1405 -1829 0
-1406 -1830 0
-1403 -1840 0
-1404 -1841 0
-1405 -1842 0
-1406 -1843 0
-1402 -1853 0
-1403 -1856 0
-1404 -1857 0
-1405 -1858 0
-1406 -1859 0
-1409 -1501 0
-1412 -1505 0
-1413 -1506 0
-1407 -1535 0
-1410 -1537 0
-1412 -1539 0
-1413 -1540 0
-1408 -1547 0
-1411 -1550 0
-1412 -1551 0
-1413 -1552 0
-1409 -1559 0
-1410 -1561 0
-1411 -1562 0
-1412 -1563 0
-1413 -1564 0
-1410 -1587 0
-1411 -1589 0
-1412 -1590 0
-1413 -1591 0
-1411 -1608 0
-1412 -1609 0
-1413 -1610 0
-1410 -1613 0
-1412 -1616 0
-1413 -1617 0
-1410 -1625 0
-1412 -1628 0
-1413 -1629 0
-1410 -1637 0
-1411 -1639 0
-1412 -1640 0
-1413 -1641 0
-1411 -1645 0
-1412 -1646 0
-1413 -1647 0
-1410 -1649 0
-1412 -1652 0
-1413 -1653 0
-1410 -1656 0
-1412 -1659 0
-1413 -1660 0
-1407 -1661 0
-1410 -1663 0
-1412 -1665 0
-1413 -1666 0
-1408 -1674 0
-1410 -1676 0
-1411 -1678 0
-1412 -1679 0
-1413 -1680 0
-1407 -1681 0
-1410 -1682 0
-1411 -1684 0
-1412 -1685 0
-1413 -1686 0
-1409 -1687 0
-1410 -1688 0
-1411 -1691 0
-1412 -1692 0
-1413 -1693 0
-1408 -1695 0
-1410 -1697 0
-1412 -1699 0
-1413 -1700 0
-1410 -1745 0
-1411 -1748 0
-1412 -1749 0
-1413 -1750 0
-1410 -1825 0
-1411 -1828 0
-1412 -1829 0
-1413 -1830 0
-1410 -1832 0
-1411 -1835 0
-1412 -1836 0
-1413 -1837 0
-1416 -1495 0
-1419 -1498 0
-1420 -1499 0
-1421 -1500 0
-1414 -1535 0
-1417 -1538 0
-1420 -1539 0
-1421 -1540 0
-1415 -1541 0
-1416 -1542 0
-1417 -1544 0
-1420 -1545 0
-1421 -1546 0
-1416 -1553 0
-1417 -1555 0
-1418 -1556 0
-1420 -1557 0
-1421 -1558 0
-1417 -1567 0
-1418 -1568 0
-1419 -1569 0
-1420 -1570 0
-1421 -1571 0
-1414 -1573 0
-1418 -1575 0
-1420 -1576 0
-1421 -1577 0
-1416 -1579 0
-1417 -1582 0
-1420 -1583 0
-1421 -1584 0
-1417 -1614 0
-1418 -1615 0
-1420 -1616 0
-1421 -1617 0
-1415 -1619 0
-1417 -1621 0
-1420 -1622 0
-1421 -1623 0
-1417 -1626 0
-1418 -1627 0
-1420 -1628 0
-1421 -1629 0
-1416 -1631 0
-1418 -1633 0
-1420 -1634 0
-1421 -1635 0
-1414 -1661 0
-1417 -1664 0
-1420 -1665 0
-1421 -1666 0
-1414 -1667 0
-1415 -1668 0
-1417 -1670 0
-1418 -1671 0
-1420 -1672 0
-1421 -1673 0
-1415 -1695 0
-1418 -1698 0
-1420 -1699 0
-1421 -1700 0
-1417 -1716 0
-1419 -1717 0
-1420 -1718 0
-1421 -1719 0
-1414 -1732 0
-1417 -1735 0
-1420 -1736 0
-1421 -1737 0
-1416 -1738 0
-1417 -1740 0
-1418 -1741 0
-1420 -1742 0
-1421 -1743 0
-1414 -1763 0
-1417 -1765 0
-1418 -1766 0
-1419 -1767 0
-1420 -1768 0
-1421 -1769 0
-1418 -1774 0
-1419 -1775 0
-1420 -1776 0
-1421 -1777 0
-1415 -1812 0
-1418 -1815 0
-1420 -1816 0
-1421 -1817 0
-1416 -1818 0
-1417 -1820 0
-1418 -1821 0
-1420 -1822 0
-1421 -1823 0
-1417 -1833 0
-1418 -1834 0
-1419 -1835 0
-1420 -1836 0
-1421 -1837 0
-1415 -1838 0
-1417 -1839 0
-1418 -1840 0
-1419 -1841 0
-1420 -1842 0
-1421 -1843 0
-1417 -1855 0
-1418 -1856 0
-1419 -1857 0
-1420 -1858 0
-1421 -1859 0
-1423 -1489 0
-1424 -1490 0
-1427 -1493 0
-1428 -1494 0
-1422 -1519 0
-1423 -1521 0
-1424 -1522 0
-1425 -1523 0
-1426 -1525 0
-1427 -1527 0
-1428 -1528 0
-1422 -1529 0
-1424 -1531 0
-1427 -1533 0
-1428 -1534 0
-1423 -1553 0
-1424 -1554 0
-1426 -1556 0
-1427 -1557 0
-1428 -1558 0
-1423 -1559 0
-1424 -1560 0
-1425 -1561 0
-1427 -1563 0
-1428 -1564 0
-1422 -1573 0
-1424 -1574 0
-1426 -1575 0
-1427 -1576 0
-1428 -1577 0
-1423 -1579 0
-1424 -1580 0
-1425 -1581 0
-1427 -1583 0
-1428 -1584 0
-1424 -1586 0
-1425 -1587 0
-1426 -1588 0
-1427 -1590 0
-1428 -1591 0
-1422 -1599 0
-1424 -1600 0
-1425 -1601 0
-1427 -1603 0
-1428 -1604 0
-1424 -1620 0
-1427 -1622 0
-1428 -1623 0
-1424 -1643 0
-1426 -1644 0
-1427 -1646 0
-1428 -1647 0
-1422 -1661 0
-1424 -1662 0
-1425 -1663 0
-1427 -1665 0
-1428 -1666 0
-1424 -1675 0
-1425 -1676 0
-1427 -1679 0
-1428 -1680 0
-1424 -1701 0
-1425 -1702 0
-1426 -1704 0
-1427 -1706 0
-1428 -1707 0
-1425 -1715 0
-1427 -1718 0
-1428 -1719 0
-1422 -1720 0
-1423 -1721 0
-1427 -1724 0
-1428 -1725 0
-1422 -1726 0
-1425 -1727 0
-1426 -1728 0
-1427 -1730 0
-1428 -1731 0
-1426 -1753 0
-1427 -1755 0
-1428 -1756 0
-1424 -1772 0
-1425 -1773 0
-1426 -1774 0
-1427 -1776 0
-1428 -1777 0
-1424 -1779 0
-1426 -1780 0
-1427 -1782 0
-1428 -1783 0
-1423 -1798 0
-1424 -1799 0
-1426 -1800 0
-1427 -1802 0
-1428 -1803 0
-1424 -1805 0
-1425 -1806 0
-1427 -1809 0
-1428 -1810 0
-1423 -1818 0
-1424 -1819 0
-1426 -1821 0
-1427 -1822 0
-1428 -1823 0
-1424 -1824 0
-1425 -1825 0
-1426 -1827 0
-1427 -1829 0
-1428 -1830 0
-1424 -1831 0
-1425 -1832 0
-1426 -1834 0
-1427 -1836 0
-1428 -1837 0
-1423 -1845 0
-1425 -1846 0
-1426 -1848 0
-1427 -1850 0
-1428 -1851 0
-1431 -1481 0
-1433 -1482 0
-1434 -1486 0
-1435 -1487 0
-1429 -1513 0
-1431 -1514 0
-1434 -1517 0
-1435 -1518 0
-1429 -1529 0
-1430 -1530 0
-1432 -1531 0
-1434 -1533 0
-1435 -1534 0
-1430 -1547 0
-1434 -1551 0
-1435 -1552 0
-1431 -1553 0
-1432 -1554 0
-1434 -1557 0
-1435 -1558 0
-1434 -1570 0
-1435 -1571 0
-1431 -1579 0
-1432 -1580 0
-1433 -1581 0
-1434 -1583 0
-1435 -1584 0
-1430 -1593 0
-1433 -1594 0
-1434 -1596 0
-1435 -1597 0
-1429 -1599 0
-1432 -1600 0
-1433 -1601 0
-1434 -1603 0
-1435 -1604 0
-1432 -1612 0
-1433 -1613 0
-1434 -1616 0
-1435 -1617 0
-1433 -1625 0
-1434 -1628 0
-1435 -1629 0
-1431 -1631 0
-1433 -1632 0
-1434 -1634 0
-1435 -1635 0
-1429 -1667 0
-1430 -1668 0
-1433 -1669 0
-1434 -1672 0
-1435 -1673 0
-1430 -1674 0
-1432 -1675 0
-1433 -1676 0
-1434 -1679 0
-1435 -1680 0
-1429 -1681 0
-1433 -1682 0
-1434 -1685 0
-1435 -1686 0
-1432 -1701 0
-1433 -1702 0
-1434 -1706 0
-1435 -1707 0
-1432 -1709 0
-1434 -1712 0
-1435 -1713 0
-1429 -1726 0
-1433 -1727 0
-1434 -1730 0
-1435 -1731 0
-1432 -1744 0
-1433 -1745 0
-1434 -1749 0
-1435 -1750 0
-1431 -1757 0
-1432 -1758 0
-1433 -1759 0
-1434 -1761 0
-1435 -1762 0
-1429 -1763 0
-1432 -1764 0
-1434 -1768 0
-1435 -1769 0
-1432 -1779 0
-1434 -1782 0
-1435 -1783 0
-1431 -1791 0
-1432 -1792 0
-1433 -1793 0
-1434 -1795 0
-1435 -1796 0
-1430 -1804 0
-1432 -1805 0
-1433 -1806 0
-1434 -1809 0
-1435 -1810 0
-1432 -1824 0
-1433 -1825 0
-1434 -1829 0
-1435 -1830 0
-1430 -1838 0
-1434 -1842 0
-1435 -1843 0
-1436 -1513 0
-1440 -1515 0
-1442 -1516 0
-1443 -1517 0
-1444 -1518 0
-1436 -1519 0
-1437 -1520 0
-1438 -1522 0
-1439 -1523 0
-1440 -1524 0
-1441 -1525 0
-1442 -1526 0
-1443 -1527 0
-1444 -1528 0
-1437 -1541 0
-1439 -1543 0
-1440 -1544 0
-1443 -1545 0
-1444 -1546 0
-1438 -1560 0
-1439 -1561 0
-1442 -1562 0
-1443 -1563 0
-1444 -1564 0
-1436 -1573 0
-1438 -1574 0
-1441 -1575 0
-1443 -1576 0
-1444 -1577 0
-1438 -1586 0
-1439 -1587 0
-1441 -1588 0
-1442 -1589 0
-1443 -1590 0
-1444 -1591 0
-1437 -1593 0
-1439 -1594 0
-1442 -1595 0
-1443 -1596 0
-1444 -1597 0
-1436 -1599 0
-1438 -1600 0
-1439 -1601 0
-1442 -1602 0
-1443 -1603 0
-1444 -1604 0
-1438 -1606 0
-1440 -1607 0
-1442 -1608 0
-1443 -1609 0
-1444 -1610 0
-1438 -1612 0
-1439 -1613 0
-1440 -1614 0
-1441 -1615 0
-1443 -1616 0
-1444 -1617 0
-1437 -1619 0
-1438 -1620 0
-1440 -1621 0
-1443 -1622 0
-1444 -1623 0
-1439 -1625 0
-1440 -1626 0
-1441 -1627 0
-1443 -1628 0
-1444 -1629 0
-1439 -1637 0
-1440 -1638 0
-1442 -1639 0
-1443 -1640 0
-1444 -1641 0
-1438 -1643 0
-1441 -1644 0
-1442 -1645 0
-1443 -1646 0
-1444 -1647 0
-1438 -1709 0
-1440 -1710 0
-1442 -1711 0
-1443 -1712 0
-1444 -1713 0
-1439 -1715 0
-1440 -1716 0
-1442 -1717 0
-1443 -1718 0
-1444 -1719 0
-1436 -1720 0
-1440 -1722 0
-1442 -1723 0
-1443 -1724 0
-1444 -1725 0
-1438 -1739 0
-1440 -1740 0
-1441 -1741 0
-1443 -1742 0
-1444 -1743 0
-1438 -1758 0
-1439 -1759 0
-1442 -1760 0
-1443 -1761 0
-1444 -1762 0
-1438 -1772 0
-1439 -1773 0
-1441 -1774 0
-1442 -1775 0
-1443 -1776 0
-1444 -1777 0
-1438 -1779 0
-1441 -1780 0
-1442 -1781 0
-1443 -1782 0
-1444 -1783 0
-1438 -1792 0
-1439 -1793 0
-1442 -1794 0
-1443 -1795 0
-1444 -1796 0
-1437 -1797 0
-1438 -1799 0
-1441 -1800 0
-1442 -1801 0
-1443 -1802 0
-1444 -1803 0
-1438 -1819 0
-1440 -1820 0
-1441 -1821 0
-1443 -1822 0
-1444 -1823 0
-1439 -1846 0
-1440 -1847 0
-1441 -1848 0
-1442 -1849 0
-1443 -1850 0
-1444 -1851 0
-1446 -1475 0
-1449 -1476 0
-1451 -1478 0
-1452 -1479 0
-1448 -1508 0
-1450 -1509 0
-1451 -1511 0
-1452 -1512 0
-1445 -1530 0
-1447 -1531 0
-1451 -1533 0
-1452 -1534 0
-1446 -1559 0
-1447 -1560 0
-1448 -1561 0
-1451 -1563 0
-1452 -1564 0
-1449 -1567 0
-1450 -1568 0
-1451 -1570 0
-1452 -1571 0
-1447 -1574 0
-1450 -1575 0
-1451 -1576 0
-1452 -1577 0
-1447 -1586 0
-1448 -1587 0
-1450 -1588 0
-1451 -1590 0
-1452 -1591 0
-1445 -1593 0
-1448 -1594 0
-1451 -1596 0
-1452 -1597 0
-1447 -1600 0
-1448 -1601 0
-1451 -1603 0
-1452 -1604 0
-1446 -1631 0
-1448 -1632 0
-1450 -1633 0
-1451 -1634 0
-1452 -1635 0
-1447 -1643 0
-1450 -1644 0
-1451 -1646 0
-1452 -1647 0
-1448 -1649 0
-1449 -1650 0
-1450 -1651 0
-1451 -1652 0
-1452 -1653 0
-1447 -1662 0
-1448 -1663 0
-1449 -1664 0
-1451 -1665 0
-1452 -1666 0
-1445 -1668 0
-1448 -1669 0
-1449 -1670 0
-1450 -1671 0
-1451 -1672 0
-1452 -1673 0
-1446 -1687 0
-1448 -1688 0
-1449 -1689 0
-1450 -1690 0
-1451 -1692 0
-1452 -1693 0
-1447 -1701 0
-1448 -1702 0
-1449 -1703 0
-1450 -1704 0
-1451 -1706 0
-1452 -1707 0
-1447 -1709 0
-1449 -1710 0
-1451 -1712 0
-1452 -1713 0
-1448 -1727 0
-1450 -1728 0
-1451 -1730 0
-1452 -1731 0
-1446 -1757 0
-1447 -1758 0
-1448 -1759 0
-1451 -1761 0
-1452 -1762 0
-1447 -1764 0
-1449 -1765 0
-1450 -1766 0
-1451 -1768 0
-1452 -1769 0
-1447 -1772 0
-1448 -1773 0
-1450 -1774 0
-1451 -1776 0
-1452 -1777 0
-1447 -1779 0
-1450 -1780 0
-1451 -1782 0
-1452 -1783 0
-1447 -1785 0
-1449 -1786 0
-1450 -1787 0
-1451 -1789 0
-1452 -1790 0
-1445 -1804 0
-1447 -1805 0
-1448 -1806 0
-1449 -1807 0
-1451 -1809 0
-1452 -1810 0
-1446 -1818 0
-1447 -1819 0
-1449 -1820 0
-1450 -1821 0
-1451 -1822 0
-1452 -1823 0
-1447 -1831 0
-1448 -1832 0
-1449 -1833 0
-1450 -1834 0
-1451 -1836 0
-1452 -1837 0
-1445 -1838 0
-1449 -1839 0
-1450 -1840 0
-1451 -1842 0
-1452 -1843 0
-1454 -1468 0
-1456 -1471 0
-1458 -1472 0
-1459 -1473 0
-1456 -1509 0
-1457 -1510 0
-1458 -1511 0
-1459 -1512 0
-1453 -1520 0
-1454 -1521 0
-1455 -1522 0
-1456 -1525 0
-1457 -1526 0
-1458 -1527 0
-1459 -1528 0
-1454 -1553 0
-1455 -1554 0
-1456 -1556 0
-1458 -1557 0
-1459 -1558 0
-1454 -1579 0
-1455 -1580 0
-1458 -1583 0
-1459 -1584 0
-1453 -1593 0
-1457 -1595 0
-1458 -1596 0
-1459 -1597 0
-1455 -1600 0
-1457 -1602 0
-1458 -1603 0
-1459 -1604 0
-1455 -1606 0
-1457 -1608 0
-1458 -1609 0
-1459 -1610 0
-1453 -1619 0
-1455 -1620 0
-1458 -1622 0
-1459 -1623 0
-1457 -1639 0
-1458 -1640 0
-1459 -1641 0
-1455 -1662 0
-1458 -1665 0
-1459 -1666 0
-1453 -1674 0
-1455 -1675 0
-1457 -1678 0
-1458 -1679 0
-1459 -1680 0
-1455 -1709 0
-1457 -1711 0
-1458 -1712 0
-1459 -1713 0
-1457 -1717 0
-1458 -1718 0
-1459 -1719 0
-1454 -1721 0
-1457 -1723 0
-1458 -1724 0
-1459 -1725 0
-1455 -1733 0
-1458 -1736 0
-1459 -1737 0
-1454 -1757 0
-1455 -1758 0
-1457 -1760 0
-1458 -1761 0
-1459 -1762 0
-1455 -1779 0
-1456 -1780 0
-1457 -1781 0
-1458 -1782 0
-1459 -1783 0
-1455 -1785 0
-1456 -1787 0
-1457 -1788 0
-1458 -1789 0
-1459 -1790 0
-1453 -1797 0
-1454 -1798 0
-1455 -1799 0
-1456 -1800 0
-1457 -1801 0
-1458 -1802 0
-1459 -1803 0
-1453 -1812 0
-1455 -1813 0
-1456 -1815 0
-1458 -1816 0
-1459 -1817 0
-1455 -1824 0
-1456 -1827 0
-1457 -1828 0
-1458 -1829 0
-1459 -1830 0
-1455 -1831 0
-1456 -1834 0
-1457 -1835 0
-1458 -1836 0
-1459 -1837 0
-1454 -1845 0
-1456 -1848 0
-1457 -1849 0
-1458 -1850 0
-1459 -1851 0
-1455 -1853 0
-1456 -1856 0
-1457 -1857 0
-1458 -1858 0
-1459 -1859 0
-1462 -1508 0
-1463 -1509 0
-1464 -1510 0
-1465 -1511 0
-1466 -1512 0
-1461 -1514 0
-1464 -1516 0
-1465 -1517 0
-1466 -1518 0
-1462 -1537 0
-1465 -1539 0
-1466 -1540 0
-1461 -1553 0
-1463 -1556 0
-1465 -1557 0
-1466 -1558 0
-1461 -1559 0
-1462 -1561 0
-1464 -1562 0
-1465 -1563 0
-1466 -1564 0
-1463 -1568 0
-1464 -1569 0
-1465 -1570 0
-1466 -1571 0
-1463 -1575 0
-1465 -1576 0
-1466 -1577 0
-1461 -1579 0
-1462 -1581 0
-1465 -1583 0
-1466 -1584 0
-1462 -1587 0
-1463 -1588 0
-1464 -1589 0
-1465 -1590 0
-1466 -1591 0
-1462 -1601 0
-1464 -1602 0
-1465 -1603 0
-1466 -1604 0
-1464 -1608 0
-1465 -1609 0
-1466 -1610 0
-1462 -1613 0
-1463 -1615 0
-1465 -1616 0
-1466 -1617 0
-1462 -1625 0
-1463 -1627 0
-1465 -1628 0
-1466 -1629 0
-1461 -1631 0
-1462 -1632 0
-1463 -1633 0
-1465 -1634 0
-1466 -1635 0
-1462 -1637 0
-1464 -1639 0
-1465 -1640 0
-1466 -1641 0
-1463 -1644 0
-1464 -1645 0
-1465 -1646 0
-1466 -1647 0
-1460 -1668 0
-1462 -1669 0
-1463 -1671 0
-1465 -1672 0
-1466 -1673 0
-1460 -1674 0
-1462 -1676 0
-1464 -1678 0
-1465 -1679 0
-1466 -1680 0
-1460 -1695 0
-1462 -1697 0
-1463 -1698 0
-1465 -1699 0
-1466 -1700 0
-1463 -1766 0
-1464 -1767 0
-1465 -1768 0
-1466 -1769 0
-1462 -1773 0
-1463 -1774 0
-1464 -1775 0
-1465 -1776 0
-1466 -1777 0
-1463 -1780 0
-1464 -1781 0
-1465 -1782 0
-1466 -1783 0
-1463 -1787 0
-1464 -1788 0
-1465 -1789 0
-1466 -1790 0
-1461 -1791 0
-1462 -1793 0
-1464 -1794 0
-1465 -1795 0
-1466 -1796 0
-1461 -1818 0
-1463 -1821 0
-1465 -1822 0
-1466 -1823 0
-1462 -1825 0
-1463 -1827 0
-1464 -1828 0
-1465 -1829 0
-1466 -1830 0
-1460 -1838 0
-1463 -1840 0
-1464 -1841 0
-1465 -1842 0
-1466 -1843 0
-1467 -1513 0
-1468 -1514 0
-1470 -1515 0
-1472 -1517 0
-1473 -1518 0
-1467 -1529 0
-1472 -1533 0
-1473 -1534 0
-1467 -1535 0
-1469 -1537 0
-1470 -1538 0
-1472 -1539 0
-1473 -1540 0
-1468 -1542 0
-1469 -1543 0
-1470 -1544 0
-1472 -1545 0
-1473 -1546 0
-1468 -1559 0
-1469 -1561 0
-1472 -1563 0
-1473 -1564 0
-1470 -1567 0
-1471 -1568 0
-1472 -1570 0
-1473 -1571 0
-1468 -1579 0
-1469 -1581 0
-1470 -1582 0
-1472 -1583 0
-1473 -1584 0
-1469 -1594 0
-1472 -1596 0
-1473 -1597 0
-1467 -1599 0
-1469 -1601 0
-1472 -1603 0
-1473 -1604 0
-1470 -1607 0
-1472 -1609 0
-1473 -1610 0
-1470 -1621 0
-1472 -1622 0
-1473 -1623 0
-1469 -1637 0
-1470 -1638 0
-1472 -1640 0
-1473 -1641 0
-1469 -1656 0
-1470 -1657 0
-1471 -1658 0
-1472 -1659 0
-1473 -1660 0
-1467 -1667 0
-1469 -1669 0
-1470 -1670 0
-1471 -1671 0
-1472 -1672 0
-1473 -1673 0
-1468 -1687 0
-1469 -1688 0
-1470 -1689 0
-1471 -1690 0
-1472 -1692 0
-1473 -1693 0
-1469 -1697 0
-1471 -1698 0
-1472 -1699 0
-1473 -1700 0
-1469 -1702 0
-1470 -1703 0
-1471 -1704 0
-1472 -1706 0
-1473 -1707 0
-1470 -1710 0
-1472 -1712 0
-1473 -1713 0
-1469 -1715 0
-1470 -1716 0
-1472 -1718 0
-1473 -1719 0
-1467 -1726 0
-1469 -1727 0
-1471 -1728 0
-1472 -1730 0
-1473 -1731 0
-1468 -1738 0
-1470 -1740 0
-1471 -1741 0
-1472 -1742 0
-1473 -1743 0
-1470 -1752 0
-1471 -1753 0
-1472 -1755 0
-1473 -1756 0
-1467 -1763 0
-1470 -1765 0
-1471 -1766 0
-1472 -1768 0
-1473 -1769 0
-1471 -1780 0
-1472 -1782 0
-1473 -1783 0
-1468 -1791 0
-1469 -1793 0
-1472 -1795 0
-1473 -1796 0
-1469 -1806 0
-1470 -1807 0
-1472 -1809 0
-1473 -1810 0
-1470 -1839 0
-1471 -1840 0
-1472 -1842 0
-1473 -1843 0
-1474 -1513 0
-1475 -1514 0
-1476 -1515 0
-1477 -1516 0
-1478 -1517 0
-1479 -1518 0
-1474 -1519 0
-1475 -1521 0
-1476 -1524 0
-1477 -1526 0
-1478 -1527 0
-1479 -1528 0
-1474 -1535 0
-1476 -1538 0
-1478 -1539 0
-1479 -1540 0
-1476 -1548 0
-1477 -1550 0
-1478 -1551 0
-1479 -1552 0
-1475 -1553 0
-1476 -1555 0
-1478 -1557 0
-1479 -1558 0
-1474 -1573 0
-1478 -1576 0
-1479 -1577 0
-1477 -1589 0
-1478 -1590 0
-1479 -1591 0
-1477 -1595 0
-1478 -1596 0
-1479 -1597 0
-1474 -1599 0
-1477 -1602 0
-1478 -1603 0
-1479 -1604 0
-1475 -1631 0
-1478 -1634 0
-1479 -1635 0
-1477 -1645 0
-1478 -1646 0
-1479 -1647 0
-1474 -1681 0
-1477 -1684 0
-1478 -1685 0
-1479 -1686 0
-1478 -1699 0
-1479 -1700 0
-1476 -1710 0
-1477 -1711 0
-1478 -1712 0
-1479 -1713 0
-1474 -1720 0
-1475 -1721 0
-1476 -1722 0
-1477 -1723 0
-1478 -1724 0
-1479 -1725 0
-1474 -1732 0
-1476 -1735 0
-1478 -1736 0
-1479 -1737 0
-1476 -1746 0
-1477 -1748 0
-1478 -1749 0
-1479 -1750 0
-1476 -1752 0
-1477 -1754 0
-1478 -1755 0
-1479 -1756 0
-1477 -1775 0
-1478 -1776 0
-1479 -1777 0
-1477 -1781 0
-1478 -1782 0
-1479 -1783 0
-1475 -1791 0
-1477 -1794 0
-1478 -1795 0
-1479 -1796 0
-1475 -1798 0
-1477 -1801 0
-1478 -1802 0
-1479 -1803 0
-1478 -1816 0
-1479 -1817 0
-1475 -1845 0
-1476 -1847 0
-1477 -1849 0
-1478 -1850 0
-1479 -1851 0
-1476 -1855 0
-1477 -1857 0
-1478 -1858 0
-1479 -1859 0
-1482 -1508 0
-1484 -1509 0
-1485 -1510 0
-1486 -1511 0
-1487 -1512 0
-1481 -1521 0
-1482 -1523 0
-1483 -1524 0
-1484 -1525 0
-1485 -1526 0
-1486 -1527 0
-1487 -1528 0
-1482 -1537 0
-1483 -1538 0
-1486 -1539 0
-1487 -1540 0
-1481 -1542 0
-1482 -1543 0
-1483 -1544 0
-1486 -1545 0
-1487 -1546 0
-1481 -1579 0
-1482 -1581 0
-1483 -1582 0
-1486 -1583 0
-1487 -1584 0
-1482 -1594 0
-1485 -1595 0
-1486 -1596 0
-1487 -1597 0
-1482 -1601 0
-1485 -1602 0
-1486 -1603 0
-1487 -1604 0
-1482 -1613 0
-1483 -1614 0
-1484 -1615 0
-1486 -1616 0
-1487 -1617 0
-1482 -1625 0
-1483 -1626 0
-1484 -1627 0
-1486 -1628 0
-1487 -1629 0
-1481 -1631 0
-1482 -1632 0
-1484 -1633 0
-1486 -1634 0
-1487 -1635 0
-1482 -1663 0
-1483 -1664 0
-1486 -1665 0
-1487 -1666 0
-1481 -1687 0
-1482 -1688 0
-1483 -1689 0
-1484 -1690 0
-1485 -1691 0
-1486 -1692 0
-1487 -1693 0
-1482 -1697 0
-1484 -1698 0
-1486 -1699 0
-1487 -1700 0
-1483 -1710 0
-1485 -1711 0
-1486 -1712 0
-1487 -1713 0
-1481 -1721 0
-1483 -1722 0
-1485 -1723 0
-1486 -1724 0
-1487 -1725 0
-1481 -1738 0
-1483 -1740 0
-1484 -1741 0
-1486 -1742 0
-1487 -1743 0
-1483 -1752 0
-1484 -1753 0
-1485 -1754 0
-1486 -1755 0
-1487 -1756 0
-1484 -1780 0
-1485 -1781 0
-1486 -1782 0
-1487 -1783 0
-1483 -1786 0
-1484 -1787 0
-1485 -1788 0
-1486 -1789 0
-1487 -1790 0
-1481 -1798 0
-1484 -1800 0
-1485 -1801 0
-1486 -1802 0
-1487 -1803 0
-1481 -1818 0
-1483 -1820 0
-1484 -1821 0
-1486 -1822 0
-1487 -1823 0
-1482 -1832 0
-1483 -1833 0
-1484 -1834 0
-1485 -1835 0
-1486 -1836 0
-1487 -1837 0
-1481 -1845 0
-1482 -1846 0
-1483 -1847 0
-1484 -1848 0
-1485 -1849 0
-1486 -1850 0
-1487 -1851 0
-1492 -1510 0
-1493 -1511 0
-1494 -1512 0
-1489 -1514 0
-1491 -1515 0
-1492 -1516 0
-1493 -1517 0
-1494 -1518 0
-1488 -1541 0
-1489 -1542 0
-1491 -1544 0
-1493 -1545 0
-1494 -1546 0
-1488 -1547 0
-1491 -1548 0
-1492 -1550 0
-1493 -1551 0
-1494 -1552 0
-1491 -1567 0
-1492 -1569 0
-1493 -1570 0
-1494 -1571 0
-1490 -1574 0
-1493 -1576 0
-1494 -1577 0
-1489 -1579 0
-1490 -1580 0
-1491 -1582 0
-1493 -1583 0
-1494 -1584 0
-1490 -1586 0
-1492 -1589 0
-1493 -1590 0
-1494 -1591 0
-1490 -1600 0
-1492 -1602 0
-1493 -1603 0
-1494 -1604 0
-1488 -1619 0
-1490 -1620 0
-1491 -1621 0
-1493 -1622 0
-1494 -1623 0
-1490 -1643 0
-1492 -1645 0
-1493 -1646 0
-1494 -1647 0
-1490 -1655 0
-1491 -1657 0
-1493 -1659 0
-1494 -1660 0
-1488 -1668 0
-1491 -1670 0
-1493 -1672 0
-1494 -1673 0
-1492 -1684 0
-1493 -1685 0
-1494 -1686 0
-1489 -1687 0
-1491 -1689 0
-1492 -1691 0
-1493 -1692 0
-1494 -1693 0
-1491 -1716 0
-1492 -1717 0
-1493 -1718 0
-1494 -1719 0
-1490 -1733 0
-1491 -1735 0
-1493 -1736 0
-1494 -1737 0
-1489 -1738 0
-1490 -1739 0
-1491 -1740 0
-1493 -1742 0
-1494 -1743 0
-1490 -1744 0
-1491 -1746 0
-1492 -1748 0
-1493 -1749 0
-1494 -1750 0
-1490 -1764 0
-1491 -1765 0
-1492 -1767 0
-1493 -1768 0
-1494 -1769 0
-1490 -1772 0
-1492 -1775 0
-1493 -1776 0
-1494 -1777 0
-1490 -1779 0
-1492 -1781 0
-1493 -1782 0
-1494 -1783 0
-1490 -1785 0
-1491 -1786 0
-1492 -1788 0
-1493 -1789 0
-1494 -1790 0
-1489 -1791 0
-1490 -1792 0
-1492 -1794 0
-1493 -1795 0
-1494 -1796 0
-1488 -1812 0
-1490 -1813 0
-1493 -1816 0
-1494 -1817 0
-1488 -1838 0
-1491 -1839 0
-1492 -1841 0
-1493 -1842 0
-1494 -1843 0
-1490 -1853 0
-1491 -1855 0
-1492 -1857 0
-1493 -1858 0
-1494 -1859 0
-1497 -1508 0
-1498 -1510 0
-1499 -1511 0
-1500 -1512 0
-1495 -1514 0
-1498 -1516 0
-1499 -1517 0
-1500 -1518 0
-1495 -1521 0
-1496 -1522 0
-1497 -1523 0
-1498 -1526 0
-1499 -1527 0
-1500 -1528 0
-1498 -1550 0
-1499 -1551 0
-1500 -1552 0
-1495 -1559 0
-1496 -1560 0
-1497 -1561 0
-1498 -1562 0
-1499 -1563 0
-1500 -1564 0
-1496 -1574 0
-1499 -1576 0
-1500 -1577 0
-1495 -1579 0
-1496 -1580 0
-1497 -1581 0
-1499 -1583 0
-1500 -1584 0
-1496 -1612 0
-1497 -1613 0
-1499 -1616 0
-1500 -1617 0
-1496 -1620 0
-1499 -1622 0
-1500 -1623 0
-1497 -1625 0
-1499 -1628 0
-1500 -1629 0
-1495 -1631 0
-1497 -1632 0
-1499 -1634 0
-1500 -1635 0
-1496 -1675 0
-1497 -1676 0
-1498 -1678 0
-1499 -1679 0
-1500 -1680 0
-1497 -1682 0
-1498 -1684 0
-1499 -1685 0
-1500 -1686 0
-1495 -1687 0
-1497 -1688 0
-1498 -1691 0
-1499 -1692 0
-1500 -1693 0
-1497 -1715 0
-1498 -1717 0
-1499 -1718 0
-1500 -1719 0
-1495 -1721 0
-1498 -1723 0
-1499 -1724 0
-1500 -1725 0
-1496 -1744 0
-1497 -1745 0
-1498 -1748 0
-1499 -1749 0
-1500 -1750 0
-1498 -1754 0
-1499 -1755 0
-1500 -1756 0
-1495 -1757 0
-1496 -1758 0
-1497 -1759 0
-1498 -1760 0
-1499 -1761 0
-1500 -1762 0
-1496 -1772 0
-1497 -1773 0
-1498 -1775 0
-1499 -1776 0
-1500 -1777 0
-1496 -1785 0
-1498 -1788 0
-1499 -1789 0
-1500 -1790 0
-1495 -1791 0
-1496 -1792 0
-1497 -1793 0
-1498 -1794 0
-1499 -1795 0
-1500 -1796 0
-1495 -1798 0
-1496 -1799 0
-1498 -1801 0
-1499 -1802 0
-1500 -1803 0
-1496 -1824 0
-1497 -1825 0
-1498 -1828 0
-1499 -1829 0
-1500 -1830 0
-1495 -1845 0
-1497 -1846 0
-1498 -1849 0
-1499 -1850 0
-1500 -1851 0
-1504 -1509 0
-1505 -1511 0
-1506 -1512 0
-1501 -1514 0
-1503 -1515 0
-1505 -1517 0
-1506 -1518 0
-1502 -1531 0
-1505 -1533 0
-1506 -1534 0
-1501 -1542 0
-1503 -1544 0
-1505 -1545 0
-1506 -1546 0
-1501 -1553 0
-1502 -1554 0
-1503 -1555 0
-1504 -1556 0
-1505 -1557 0
-1506 -1558 0
-1502 -1586 0
-1504 -1588 0
-1505 -1590 0
-1506 -1591 0
-1502 -1606 0
-1503 -1607 0
-1505 -1609 0
-1506 -1610 0
-1502 -1612 0
-1503 -1614 0
-1504 -1615 0
-1505 -1616 0
-1506 -1617 0
-1503 -1626 0
-1504 -1627 0
-1505 -1628 0
-1506 -1629 0
-1503 -1638 0
-1505 -1640 0
-1506 -1641 0
-1502 -1643 0
-1504 -1644 0
-1505 -1646 0
-1506 -1647 0
-1502 -1701 0
-1503 -1703 0
-1504 -1704 0
-1505 -1706 0
-1506 -1707 0
-1504 -1728 0
-1505 -1730 0
-1506 -1731 0
-1502 -1733 0
-1503 -1735 0
-1505 -1736 0
-1506 -1737 0
-1501 -1738 0
-1502 -1739 0
-1503 -1740 0
-1504 -1741 0
-1505 -1742 0
-1506 -1743 0
-1503 -1752 0
-1504 -1753 0
-1505 -1755 0
-1506 -1756 0
-1501 -1757 0
-1502 -1758 0
-1505 -1761 0
-1506 -1762 0
-1502 -1785 0
-1503 -1786 0
-1504 -1787 0
-1505 -1789 0
-1506 -1790 0
-1501 -1791 0
-1502 -1792 0
-1505 -1795 0
-1506 -1796 0
-1502 -1805 0
-1503 -1807 0
-1505 -1809 0
-1506 -1810 0
-1502 -1813 0
-1504 -1815 0
-1505 -1816 0
-1506 -1817 0
-1501 -1818 0
-1502 -1819 0
-1503 -1820 0
-1504 -1821 0
-1505 -1822 0
-1506 -1823 0
-1502 -1853 0
-1503 -1855 0
-1504 -1856 0
-1505 -1858 0
-1506 -1859 0
-1509 -1568 0
-1510 -1569 0
-1511 -1570 0
-1512 -1571 0
-1507 -1573 0
-1509 -1575 0
-1511 -1576 0
-1512 -1577 0
-1507 -1599 0
-1508 -1601 0
-1510 -1602 0
-1511 -1603 0
-1512 -1604 0
-1508 -1649 0
-1509 -1651 0
-1511 -1652 0
-1512 -1653 0
-1508 -1656 0
-1509 -1658 0
-1511 -1659 0
-1512 -1660 0
-1507 -1661 0
-1508 -1663 0
-1511 -1665 0
-1512 -1666 0
-1507 -1667 0
-1508 -1669 0
-1509 -1671 0
-1511 -1672 0
-1512 -1673 0
-1507 -1681 0
-1508 -1682 0
-1509 -1683 0
-1510 -1684 0
-1511 -1685 0
-1512 -1686 0
-1510 -1711 0
-1511 -1712 0
-1512 -1713 0
-1508 -1715 0
-1510 -1717 0
-1511 -1718 0
-1512 -1719 0
-1507 -1720 0
-1510 -1723 0
-1511 -1724 0
-1512 -1725 0
-1507 -1726 0
-1508 -1727 0
-1509 -1728 0
-1510 -1729 0
-1511 -1730 0
-1512 -1731 0
-1507 -1732 0
-1508 -1734 0
-1511 -1736 0
-1512 -1737 0
-1508 -1793 0
-1510 -1794 0
-1511 -1795 0
-1512 -1796 0
-1509 -1800 0
-1510 -1801 0
-1511 -1802 0
-1512 -1803 0
-1508 -1806 0
-1510 -1808 0
-1511 -1809 0
-1512 -1810 0
-1508 -1814 0
-1509 -1815 0
-1511 -1816 0
-1512 -1817 0
-1509 -1821 0
-1511 -1822 0
-1512 -1823 0
-1508 -1825 0
-1509 -1827 0
-1510 -1828 0
-1511 -1829 0
-1512 -1830 0
-1515 -1567 0
-1516 -1569 0
-1517 -1570 0
-1518 -1571 0
-1514 -1579 0
-1515 -1582 0
-1517 -1583 0
-1518 -1584 0
-1516 -1589 0
-1517 -1590 0
-1518 -1591 0
-1513 -1599 0
-1516 -1602 0
-1517 -1603 0
-1518 -1604 0
-1515 -1614 0
-1517 -1616 0
-1518 -1617 0
-1515 -1657 0
-1517 -1659 0
-1518 -1660 0
-1513 -1667 0
-1515 -1670 0
-1517 -1672 0
-1518 -1673 0
-1515 -1677 0
-1516 -1678 0
-1517 -1679 0
-1518 -1680 0
-1514 -1687 0
-1515 -1689 0
-1516 -1691 0
-1517 -1692 0
-1518 -1693 0
-1515 -1710 0
-1516 -1711 0
-1517 -1712 0
-1518 -1713 0
-1515 -1716 0
-1516 -1717 0
-1517 -1718 0
-1518 -1719 0
-1513 -1720 0
-1514 -1721 0
-1515 -1722 0
-1516 -1723 0
-1517 -1724 0
-1518 -1725 0
-1513 -1726 0
-1516 -1729 0
-1517 -1730 0
-1518 -1731 0
-1514 -1738 0
-1515 -1740 0
-1517 -1742 0
-1518 -1743 0
-1515 -1746 0
-1516 -1748 0
-1517 -1749 0
-1518 -1750 0
-1516 -1775 0
-1517 -1776 0
-1518 -1777 0
-1513 -1784 0
-1515 -1786 0
-1516 -1788 0
-1517 -1789 0
-1518 -1790 0
-1514 -1798 0
-1516 -1801 0
-1517 -1802 0
-1518 -1803 0
-1515 -1807 0
-1516 -1808 0
-1517 -1809 0
-1518 -1810 0
-1515 -1855 0
-1516 -1857 0
-1517 -1858 0
-1518 -1859 0
-1519 -1573 0
-1522 -1574 0
-1525 -1575 0
-1527 -1576 0
-1528 -1577 0
-1521 -1579 0
-1522 -1580 0
-1523 -1581 0
-1524 -1582 0
-1527 -1583 0
-1528 -1584 0
-1520 -1593 0
-1523 -1594 0
-1526 -1595 0
-1527 -1596 0
-1528 -1597 0
-1519 -1599 0
-1522 -1600 0
-1523 -1601 0
-1526 -1602 0
-1527 -1603 0
-1528 -1604 0
-1520 -1619 0
-1522 -1620 0
-1524 -1621 0
-1527 -1622 0
-1528 -1623 0
-1521 -1631 0
-1523 -1632 0
-1525 -1633 0
-1527 -1634 0
-1528 -1635 0
-1519 -1661 0
-1522 -1662 0
-1523 -1663 0
-1524 -1664 0
-1527 -1665 0
-1528 -1666 0
-1520 -1674 0
-1522 -1675 0
-1523 -1676 0
-1524 -1677 0
-1526 -1678 0
-1527 -1679 0
-1528 -1680 0
-1519 -1681 0
-1523 -1682 0
-1525 -1683 0
-1526 -1684 0
-1527 -1685 0
-1528 -1686 0
-1521 -1687 0
-1523 -1688 0
-1524 -1689 0
-1525 -1690 0
-1526 -1691 0
-1527 -1692 0
-1528 -1693 0
-1520 -1695 0
-1522 -1696 0
-1523 -1697 0
-1525 -1698 0
-1527 -1699 0
-1528 -1700 0
-1519 -1726 0
-1523 -1727 0
-1525 -1728 0
-1526 -1729 0
-1527 -1730 0
-1528 -1731 0
-1519 -1732 0
-1522 -1733 0
-1523 -1734 0
-1524 -1735 0
-1527 -1736 0
-1528 -1737 0
-1521 -1738 0
-1522 -1739 0
-1524 -1740 0
-1525 -1741 0
-1527 -1742 0
-1528 -1743 0
-1520 -1751 0
-1524 -1752 0
-1525 -1753 0
-1526 -1754 0
-1527 -1755 0
-1528 -1756 0
-1521 -1757 0
-1522 -1758 0
-1523 -1759 0
-1526 -1760 0
-1527 -1761 0
-1528 -1762 0
-1519 -1784 0
-1522 -1785 0
-1524 -1786 0
-1525 -1787 0
-1526 -1788 0
-1527 -1789 0
-1528 -1790 0
-1521 -1791 0
-1522 -1792 0
-1523 -1793 0
-1526 -1794 0
-1527 -1795 0
-1528 -1796 0
-1520 -1804 0
-1522 -1805 0
-1523 -1806 0
-1524 -1807 0
-1526 -1808 0
-1527 -1809 0
-1528 -1810 0
-1520 -1812 0
-1522 -1813 0
-1523 -1814 0
-1525 -1815 0
-1527 -1816 0
-1528 -1817 0
-1521 -1818 0
-1522 -1819 0
-1524 -1820 0
-1525 -1821 0
-1527 -1822 0
-1528 -1823 0
-1532 -1569 0
-1533 -1570 0
-1534 -1571 0
-1531 -1586 0
-1532 -1589 0
-1533 -1590 0
-1534 -1591 0
-1530 -1593 0
-1532 -1595 0
-1533 -1596 0
-1534 -1597 0
-1529 -1599 0
-1531 -1600 0
-1532 -1602 0
-1533 -1603 0
-1534 -1604 0
-1532 -1639 0
-1533 -1640 0
-1534 -1641 0
-1533 -1652 0
-1534 -1653 0
-1531 -1655 0
-1533 -1659 0
-1534 -1660 0
-1529 -1661 0
-1531 -1662 0
-1533 -1665 0
-1534 -1666 0
-1529 -1667 0
-1530 -1668 0
-1533 -1672 0
-1534 -1673 0
-1530 -1695 0
-1531 -1696 0
-1533 -1699 0
-1534 -1700 0
-1532 -1717 0
-1533 -1718 0
-1534 -1719 0
-1529 -1720 0
-1532 -1723 0
-1533 -1724 0
-1534 -1725 0
-1531 -1744 0
-1532 -1748 0
-1533 -1749 0
-1534 -1750 0
-1530 -1751 0
-1532 -1754 0
-1533 -1755 0
-1534 -1756 0
-1531 -1758 0
-1532 -1760 0
-1533 -1761 0
-1534 -1762 0
-1531 -1772 0
-1532 -1775 0
-1533 -1776 0
-1534 -1777 0
-1529 -1784 0
-1531 -1785 0
-1532 -1788 0
-1533 -1789 0
-1534 -1790 0
-1531 -1792 0
-1532 -1794 0
-1533 -1795 0
-1534 -1796 0
-1530 -1797 0
-1531 -1799 0
-1532 -1801 0
-1533 -1802 0
-1534 -1803 0
-1531 -1824 0
-1532 -1828 0
-1533 -1829 0
-1534 -1830 0
-1531 -1853 0
-1532 -1857 0
-1533 -1858 0
-1534 -1859 0
-1536 -1606 0
-1538 -1607 0
-1539 -1609 0
-1540 -1610 0
-1536 -1612 0
-1537 -1613 0
-1538 -1614 0
-1539 -1616 0
-1540 -1617 0
-1537 -1649 0
-1538 -1650 0
-1539 -1652 0
-1540 -1653 0
-1535 -1661 0
-1536 -1662 0
-1537 -1663 0
-1538 -1664 0
-1539 -1665 0
-1540 -1666 0
-1536 -1675 0
-1537 -1676 0
-1538 -1677 0
-1539 -1679 0
-1540 -1680 0
-1536 -1701 0
-1537 -1702 0
-1538 -1703 0
-1539 -1706 0
-1540 -1707 0
-1537 -1715 0
-1538 -1716 0
-1539 -1718 0
-1540 -1719 0
-1535 -1732 0
-1536 -1733 0
-1537 -1734 0
-1538 -1735 0
-1539 -1736 0
-1540 -1737 0
-1536 -1739 0
-1538 -1740 0
-1539 -1742 0
-1540 -1743 0
-1536 -1744 0
-1537 -1745 0
-1538 -1746 0
-1539 -1749 0
-1540 -1750 0
-1535 -1763 0
-1536 -1764 0
-1538 -1765 0
-1539 -1768 0
-1540 -1769 0
-1536 -1772 0
-1537 -1773 0
-1539 -1776 0
-1540 -1777 0
-1536 -1779 0
-1539 -1782 0
-1540 -1783 0
-1535 -1784 0
-1536 -1785 0
-1538 -1786 0
-1539 -1789 0
-1540 -1790 0
-1536 -1792 0
-1537 -1793 0
-1539 -1795 0
-1540 -1796 0
-1536 -1813 0
-1537 -1814 0
-1539 -1816 0
-1540 -1817 0
-1538 -1839 0
-1539 -1842 0
-1540 -1843 0
-1537 -1846 0
-1538 -1847 0
-1539 -1850 0
-1540 -1851 0
-1544 -1567 0
-1545 -1570 0
-1546 -1571 0
-1542 -1579 0
-1543 -1581 0
-1544 -1582 0
-1545 -1583 0
-1546 -1584 0
-1544 -1607 0
-1545 -1609 0
-1546 -1610 0
-1543 -1613 0
-1544 -1614 0
-1545 -1616 0
-1546 -1617 0
-1541 -1619 0
-1544 -1621 0
-1545 -1622 0
-1546 -1623 0
-1543 -1656 0
-1544 -1657 0
-1545 -1659 0
-1546 -1660 0
-1543 -1663 0
-1544 -1664 0
-1545 -1665 0
-1546 -1666 0
-1541 -1668 0
-1543 -1669 0
-1544 -1670 0
-1545 -1672 0
-1546 -1673 0
-1542 -1687 0
-1543 -1688 0
-1544 -1689 0
-1545 -1692 0
-1546 -1693 0
-1543 -1702 0
-1544 -1703 0
-1545 -1706 0
-1546 -1707 0
-1544 -1710 0
-1545 -1712 0
-1546 -1713 0
-1542 -1721 0
-1544 -1722 0
-1545 -1724 0
-1546 -1725 0
-1543 -1734 0
-1544 -1735 0
-1545 -1736 0
-1546 -1737 0
-1543 -1745 0
-1544 -1746 0
-1545 -1749 0
-1546 -1750 0
-1541 -1751 0
-1544 -1752 0
-1545 -1755 0
-1546 -1756 0
-1543 -1773 0
-1545 -1776 0
-1546 -1777 0
-1545 -1782 0
-1546 -1783 0
-1542 -1791 0
-1543 -1793 0
-1545 -1795 0
-1546 -1796 0
-1541 -1797 0
-1542 -1798 0
-1545 -1802 0
-1546 -1803 0
-1541 -1812 0
-1543 -1814 0
-1545 -1816 0
-1546 -1817 0
-1549 -1588 0
-1550 -1589 0
-1551 -1590 0
-1552 -1591 0
-1548 -1614 0
-1549 -1615 0
-1551 -1616 0
-1552 -1617 0
-1548 -1650 0
-1549 -1651 0
-1551 -1652 0
-1552 -1653 0
-1548 -1664 0
-1551 -1665 0
-1552 -1666 0
-1547 -1674 0
-1548 -1677 0
-1550 -1678 0
-1551 -1679 0
-1552 -1680 0
-1548 -1710 0
-1550 -1711 0
-1551 -1712 0
-1552 -1713 0
-1548 -1716 0
-1550 -1717 0
-1551 -1718 0
-1552 -1719 0
-1549 -1728 0
-1550 -1729 0
-1551 -1730 0
-1552 -1731 0
-1548 -1740 0
-1549 -1741 0
-1551 -1742 0
-1552 -1743 0
-1547 -1751 0
-1548 -1752 0
-1549 -1753 0
-1550 -1754 0
-1551 -1755 0
-1552 -1756 0
-1548 -1765 0
-1549 -1766 0
-1550 -1767 0
-1551 -1768 0
-1552 -1769 0
-1549 -1780 0
-1550 -1781 0
-1551 -1782 0
-1552 -1783 0
-1550 -1794 0
-1551 -1795 0
-1552 -1796 0
-1547 -1804 0
-1548 -1807 0
-1550 -1808 0
-1551 -1809 0
-1552 -1810 0
-1547 -1838 0
-1548 -1839 0
-1549 -1840 0
-1550 -1841 0
-1551 -1842 0
-1552 -1843 0
-1548 -1847 0
-1549 -1848 0
-1550 -1849 0
-1551 -1850 0
-1552 -1851 0
-1548 -1855 0
-1549 -1856 0
-1550 -1857 0
-1551 -1858 0
-1552 -1859 0
-1555 -1567 0
-1556 -1568 0
-1557 -1570 0
-1558 -1571 0
-1553 -1579 0
-1554 -1580 0
-1555 -1582 0
-1557 -1583 0
-1558 -1584 0
-1553 -1631 0
-1556 -1633 0
-1557 -1634 0
-1558 -1635 0
-1554 -1662 0
-1555 -1664 0
-1557 -1665 0
-1558 -1666 0
-1555 -1670 0
-1556 -1671 0
-1557 -1672 0
-1558 -1673 0
-1554 -1675 0
-1555 -1677 0
-1557 -1679 0
-1558 -1680 0
-1556 -1683 0
-1557 -1685 0
-1558 -1686 0
-1554 -1696 0
-1556 -1698 0
-1557 -1699 0
-1558 -1700 0
-1554 -1701 0
-1555 -1703 0
-1556 -1704 0
-1557 -1706 0
-1558 -1707 0
-1554 -1709 0
-1555 -1710 0
-1557 -1712 0
-1558 -1713 0
-1555 -1716 0
-1557 -1718 0
-1558 -1719 0
-1553 -1721 0
-1555 -1722 0
-1557 -1724 0
-1558 -1725 0
-1553 -1738 0
-1554 -1739 0
-1555 -1740 0
-1556 -1741 0
-1557 -1742 0
-1558 -1743 0
-1553 -1757 0
-1554 -1758 0
-1557 -1761 0
-1558 -1762 0
-1554 -1772 0
-1556 -1774 0
-1557 -1776 0
-1558 -1777 0
-1554 -1779 0
-1556 -1780 0
-1557 -1782 0
-1558 -1783 0
-1553 -1791 0
-1554 -1792 0
-1557 -1795 0
-1558 -1796 0
-1553 -1798 0
-1554 -1799 0
-1556 -1800 0
-1557 -1802 0
-1558 -1803 0
-1553 -1818 0
-1554 -1819 0
-1555 -1820 0
-1556 -1821 0
-1557 -1822 0
-1558 -1823 0
-1554 -1853 0
-1555 -1855 0
-1556 -1856 0
-1557 -1858 0
-1558 -1859 0
-1560 -1586 0
-1561 -1587 0
-1562 -1589 0
-1563 -1590 0
-1564 -1591 0
-1561 -1637 0
-1562 -1639 0
-1563 -1640 0
-1564 -1641 0
-1561 -1649 0
-1563 -1652 0
-1564 -1653 0
-1560 -1655 0
-1561 -1656 0
-1563 -1659 0
-1564 -1660 0
-1560 -1662 0
-1561 -1663 0
-1563 -1665 0
-1564 -1666 0
-1559 -1687 0
-1561 -1688 0
-1562 -1691 0
-1563 -1692 0
-1564 -1693 0
-1560 -1696 0
-1561 -1697 0
-1563 -1699 0
-1564 -1700 0
-1560 -1709 0
-1562 -1711 0
-1563 -1712 0
-1564 -1713 0
-1561 -1727 0
-1562 -1729 0
-1563 -1730 0
-1564 -1731 0
-1560 -1744 0
-1561 -1745 0
-1562 -1748 0
-1563 -1749 0
-1564 -1750 0
-1559 -1757 0
-1560 -1758 0
-1561 -1759 0
-1562 -1760 0
-1563 -1761 0
-1564 -1762 0
-1560 -1764 0
-1562 -1767 0
-1563 -1768 0
-1564 -1769 0
-1560 -1779 0
-1562 -1781 0
-1563 -1782 0
-1564 -1783 0
-1559 -1791 0
-1560 -1792 0
-1561 -1793 0
-1562 -1794 0
-1563 -1795 0
-1564 -1796 0
-1560 -1805 0
-1561 -1806 0
-1562 -1808 0
-1563 -1809 0
-1564 -1810 0
-1560 -1824 0
-1561 -1825 0
-1562 -1828 0
-1563 -1829 0
-1564 -1830 0
-1562 -1841 0
-1563 -1842 0
-1564 -1843 0
-1559 -1845 0
-1561 -1846 0
-1562 -1849 0
-1563 -1850 0
-1564 -1851 0
-1567 -1703 0
-1568 -1704 0
-1569 -1705 0
-1570 -1706 0
-1571 -1707 0
-1567 -1746 0
-1568 -1747 0
-1569 -1748 0
-1570 -1749 0
-1571 -1750 0
-1567 -1826 0
-1568 -1827 0
-1569 -1828 0
-1570 -1829 0
-1571 -1830 0
-1574 -1744 0
-1575 -1747 0
-1576 -1749 0
-1577 -1750 0
-1574 -1831 0
-1575 -1834 0
-1576 -1836 0
-1577 -1837 0
-1580 -1824 0
-1581 -1825 0
-1582 -1826 0
-1583 -1829 0
-1584 -1830 0
-1580 -1853 0
-1581 -1854 0
-1582 -1855 0
-1583 -1858 0
-1584 -1859 0
-1586 -1643 0
-1588 -1644 0
-1589 -1645 0
-1590 -1646 0
-1591 -1647 0
-1586 -1655 0
-1587 -1656 0
-1588 -1658 0
-1590 -1659 0
-1591 -1660 0
-1587 -1682 0
-1588 -1683 0
-1589 -1684 0
-1590 -1685 0
-1591 -1686 0
-1586 -1701 0
-1587 -1702 0
-1588 -1704 0
-1589 -1705 0
-1590 -1706 0
-1591 -1707 0
-1587 -1715 0
-1589 -1717 0
-1590 -1718 0
-1591 -1719 0
-1586 -1733 0
-1587 -1734 0
-1590 -1736 0
-1591 -1737 0
-1586 -1764 0
-1588 -1766 0
-1589 -1767 0
-1590 -1768 0
-1591 -1769 0
-1585 -1771 0
-1586 -1772 0
-1587 -1773 0
-1588 -1774 0
-1589 -1775 0
-1590 -1776 0
-1591 -1777 0
-1586 -1813 0
-1587 -1814 0
-1588 -1815 0
-1590 -1816 0
-1591 -1817 0
-1586 -1819 0
-1588 -1821 0
-1590 -1822 0
-1591 -1823 0
-1588 -1840 0
-1589 -1841 0
-1590 -1842 0
-1591 -1843 0
-1587 -1846 0
-1588 -1848 0
-1589 -1849 0
-1590 -1850 0
-1591 -1851 0
-1594 -1702 0
-1595 -1705 0
-1596 -1706 0
-1597 -1707 0
-1594 -1832 0
-1595 -1835 0
-1596 -1836 0
-1597 -1837 0
-1594 -1854 0
-1595 -1857 0
-1596 -1858 0
-1597 -1859 0
-1600 -1701 0
-1601 -1702 0
-1602 -1705 0
-1603 -1706 0
-1604 -1707 0
-1600 -1853 0
-1601 -1854 0
-1602 -1857 0
-1603 -1858 0
-1604 -1859 0
-1607 -1638 0
-1608 -1639 0
-1609 -1640 0
-1610 -1641 0
-1606 -1655 0
-1607 -1657 0
-1609 -1659 0
-1610 -1660 0
-1606 -1696 0
-1609 -1699 0
-1610 -1700 0
-1605 -1708 0
-1606 -1709 0
-1607 -1710 0
-1608 -1711 0
-1609 -1712 0
-1610 -1713 0
-1608 -1729 0
-1609 -1730 0
-1610 -1731 0
-1606 -1758 0
-1608 -1760 0
-1609 -1761 0
-1610 -1762 0
-1606 -1764 0
-1607 -1765 0
-1608 -1767 0
-1609 -1768 0
-1610 -1769 0
-1606 -1779 0
-1608 -1781 0
-1609 -1782 0
-1610 -1783 0
-1606 -1805 0
-1607 -1807 0
-1608 -1808 0
-1609 -1809 0
-1610 -1810 0
-1606 -1824 0
-1607 -1826 0
-1608 -1828 0
-1609 -1829 0
-1610 -1830 0
-1606 -1831 0
-1607 -1833 0
-1608 -1835 0
-1609 -1836 0
-1610 -1837 0
-1607 -1839 0
-1608 -1841 0
-1609 -1842 0
-1610 -1843 0
-1607 -1847 0
-1608 -1849 0
-1609 -1850 0
-1610 -1851 0
-1613 -1625 0
-1614 -1626 0
-1615 -1627 0
-1616 -1628 0
-1617 -1629 0
-1611 -1654 0
-1612 -1655 0
-1613 -1656 0
-1614 -1657 0
-1615 -1658 0
-1616 -1659 0
-1617 -1660 0
-1613 -1682 0
-1615 -1683 0
-1616 -1685 0
-1617 -1686 0
-1612 -1696 0
-1613 -1697 0
-1615 -1698 0
-1616 -1699 0
-1617 -1700 0
-1612 -1709 0
-1614 -1710 0
-1616 -1712 0
-1617 -1713 0
-1612 -1758 0
-1613 -1759 0
-1616 -1761 0
-1617 -1762 0
-1612 -1764 0
-1614 -1765 0
-1615 -1766 0
-1616 -1768 0
-1617 -1769 0
-1612 -1772 0
-1613 -1773 0
-1615 -1774 0
-1616 -1776 0
-1617 -1777 0
-1612 -1819 0
-1614 -1820 0
-1615 -1821 0
-1616 -1822 0
-1617 -1823 0
-1612 -1824 0
-1613 -1825 0
-1614 -1826 0
-1615 -1827 0
-1616 -1829 0
-1617 -1830 0
-1614 -1839 0
-1615 -1840 0
-1616 -1842 0
-1617 -1843 0
-1613 -1846 0
-1614 -1847 0
-1615 -1848 0
-1616 -1850 0
-1617 -1851 0
-1612 -1853 0
-1613 -1854 0
-1614 -1855 0
-1615 -1856 0
-1616 -1858 0
-1617 -1859 0
-1620 -1824 0
-1621 -1826 0
-1622 -1829 0
-1623 -1830 0
-1620 -1831 0
-1621 -1833 0
-1622 -1836 0
-1623 -1837 0
-1624 -1648 0
-1625 -1649 0
-1626 -1650 0
-1627 -1651 0
-1628 -1652 0
-1629 -1653 0
-1625 -1663 0
-1626 -1664 0
-1628 -1665 0
-1629 -1666 0
-1625 -1676 0
-1626 -1677 0
-1628 -1679 0
-1629 -1680 0
-1625 -1715 0
-1626 -1716 0
-1628 -1718 0
-1629 -1719 0
-1626 -1740 0
-1627 -1741 0
-1628 -1742 0
-1629 -1743 0
-1625 -1745 0
-1626 -1746 0
-1627 -1747 0
-1628 -1749 0
-1629 -1750 0
-1626 -1765 0
-1627 -1766 0
-1628 -1768 0
-1629 -1769 0
-1627 -1780 0
-1628 -1782 0
-1629 -1783 0
-1625 -1793 0
-1628 -1795 0
-1629 -1796 0
-1626 -1839 0
-1627 -1840 0
-1628 -1842 0
-1629 -1843 0
-1625 -1846 0
-1626 -1847 0
-1627 -1848 0
-1628 -1850 0
-1629 -1851 0
-1625 -1854 0
-1626 -1855 0
-1627 -1856 0
-1628 -1858 0
-1629 -1859 0
-1632 -1745 0
-1633 -1747 0
-1634 -1749 0
-1635 -1750 0
-1632 -1832 0
-1633 -1834 0
-1634 -1836 0
-1635 -1837 0
-1632 -1854 0
-1633 -1856 0
-1634 -1858 0
-1635 -1859 0
-1637 -1649 0
-1638 -1650 0
-1640 -1652 0
-1641 -1653 0
-1637 -1676 0
-1638 -1677 0
-1639 -1678 0
-1640 -1679 0
-1641 -1680 0
-1637 -1702 0
-1638 -1703 0
-1639 -1705 0
-1640 -1706 0
-1641 -1707 0
-1636 -1714 0
-1637 -1715 0
-1638 -1716 0
-1639 -1717 0
-1640 -1718 0
-1641 -1719 0
-1637 -1734 0
-1638 -1735 0
-1640 -1736 0
-1641 -1737 0
-1638 -1740 0
-1640 -1742 0
-1641 -1743 0
-1638 -1765 0
-1639 -1767 0
-1640 -1768 0
-1641 -1769 0
-1637 -1773 0
-1639 -1775 0
-1640 -1776 0
-1641 -1777 0
-1637 -1814 0
-1640 -1816 0
-1641 -1817 0
-1637 -1832 0
-1638 -1833 0
-1639 -1835 0
-1640 -1836 0
-1641 -1837 0
-1638 -1839 0
-1639 -1841 0
-1640 -1842 0
-1641 -1843 0
-1637 -1846 0
-1638 -1847 0
-1639 -1849 0
-1640 -1850 0
-1641 -1851 0
-1644 -1651 0
-1646 -1652 0
-1647 -1653 0
-1643 -1662 0
-1646 -1665 0
-1647 -1666 0
-1643 -1709 0
-1645 -1711 0
-1646 -1712 0
-1647 -1713 0
-1644 -1728 0
-1645 -1729 0
-1646 -1730 0
-1647 -1731 0
-1643 -1744 0
-1644 -1747 0
-1645 -1748 0
-1646 -1749 0
-1647 -1750 0
-1643 -1764 0
-1644 -1766 0
-1645 -1767 0
-1646 -1768 0
-1647 -1769 0
-1642 -1778 0
-1643 -1779 0
-1644 -1780 0
-1645 -1781 0
-1646 -1782 0
-1647 -1783 0
-1643 -1792 0
-1645 -1794 0
-1646 -1795 0
-1647 -1796 0
-1643 -1805 0
-1645 -1808 0
-1646 -1809 0
-1647 -1810 0
-1644 -1840 0
-1645 -1841 0
-1646 -1842 0
-1647 -1843 0
-1644 -1848 0
-1645 -1849 0
-1646 -1850 0
-1647 -1851 0
-1649 -1727 0
-1651 -1728 0
-1652 -1730 0
-1653 -1731 0
-1649 -1734 0
-1650 -1735 0
-1652 -1736 0
-1653 -1737 0
-1649 -1745 0
-1650 -1746 0
-1651 -1747 0
-1652 -1749 0
-1653 -1750 0
-1650 -1752 0
-1651 -1753 0
-1652 -1755 0
-1653 -1756 0
-1649 -1759 0
-1652 -1761 0
-1653 -1762 0
-1650 -1786 0
-1651 -1787 0
-1652 -1789 0
-1653 -1790 0
-1649 -1806 0
-1650 -1807 0
-1652 -1809 0
-1653 -1810 0
-1649 -1814 0
-1651 -1815 0
-1652 -1816 0
-1653 -1817 0
-1650 -1820 0
-1651 -1821 0
-1652 -1822 0
-1653 -1823 0
-1649 -1854 0
-1650 -1855 0
-1651 -1856 0
-1652 -1858 0
-1653 -1859 0
-1656 -1727 0
-1658 -1728 0
-1659 -1730 0
-1660 -1731 0
-1655 -1733 0
-1656 -1734 0
-1657 -1735 0
-1659 -1736 0
-1660 -1737 0
-1655 -1739 0
-1657 -1740 0
-1658 -1741 0
-1659 -1742 0
-1660 -1743 0
-1657 -1752 0
-1658 -1753 0
-1659 -1755 0
-1660 -1756 0
-1655 -1785 0
-1657 -1786 0
-1658 -1787 0
-1659 -1789 0
-1660 -1790 0
-1655 -1792 0
-1656 -1793 0
-1659 -1795 0
-1660 -1796 0
-1655 -1805 0
-1656 -1806 0
-1657 -1807 0
-1659 -1809 0
-1660 -1810 0
-1655 -1813 0
-1656 -1814 0
-1658 -1815 0
-1659 -1816 0
-1660 -1817 0
-1655 -1824 0
-1656 -1825 0
-1657 -1826 0
-1658 -1827 0
-1659 -1829 0
-1660 -1830 0
-1655 -1853 0
-1656 -1854 0
-1657 -1855 0
-1658 -1856 0
-1659 -1858 0
-1660 -1859 0
-1662 -1709 0
-1664 -1710 0
-1665 -1712 0
-1666 -1713 0
-1663 -1715 0
-1664 -1716 0
-1665 -1718 0
-1666 -1719 0
-1661 -1732 0
-1662 -1733 0
-1663 -1734 0
-1664 -1735 0
-1665 -1736 0
-1666 -1737 0
-1664 -1752 0
-1665 -1755 0
-1666 -1756 0
-1662 -1758 0
-1663 -1759 0
-1665 -1761 0
-1666 -1762 0
-1662 -1772 0
-1663 -1773 0
-1665 -1776 0
-1666 -1777 0
-1662 -1813 0
-1663 -1814 0
-1665 -1816 0
-1666 -1817 0
-1662 -1819 0
-1664 -1820 0
-1665 -1822 0
-1666 -1823 0
-1662 -1824 0
-1663 -1825 0
-1664 -1826 0
-1665 -1829 0
-1666 -1830 0
-1663 -1846 0
-1664 -1847 0
-1665 -1850 0
-1666 -1851 0
-1669 -1745 0
-1670 -1746 0
-1671 -1747 0
-1672 -1749 0
-1673 -1750 0
-1669 -1825 0
-1670 -1826 0
-1671 -1827 0
-1672 -1829 0
-1673 -1830 0
-1669 -1854 0
-1670 -1855 0
-1671 -1856 0
-1672 -1858 0
-1673 -1859 0
-1675 -1709 0
-1677 -1710 0
-1678 -1711 0
-1679 -1712 0
-1680 -1713 0
-1676 -1727 0
-1678 -1729 0
-1679 -1730 0
-1680 -1731 0
-1675 -1758 0
-1676 -1759 0
-1678 -1760 0
-1679 -1761 0
-1680 -1762 0
-1675 -1772 0
-1676 -1773 0
-1678 -1775 0
-1679 -1776 0
-1680 -1777 0
-1675 -1779 0
-1678 -1781 0
-1679 -1782 0
-1680 -1783 0
-1675 -1785 0
-1677 -1786 0
-1678 -1788 0
-1679 -1789 0
-1680 -1790 0
-1674 -1804 0
-1675 -1805 0
-1676 -1806 0
-1677 -1807 0
-1678 -1808 0
-1679 -1809 0
-1680 -1810 0
-1675 -1819 0
-1677 -1820 0
-1679 -1822 0
-1680 -1823 0
-1676 -1846 0
-1677 -1847 0
-1678 -1849 0
-1679 -1850 0
-1680 -1851 0
-1675 -1853 0
-1676 -1854 0
-1677 -1855 0
-1678 -1857 0
-1679 -1858 0
-1680 -1859 0
-1684 -1711 0
-1685 -1712 0
-1686 -1713 0
-1682 -1715 0
-1684 -1717 0
-1685 -1718 0
-1686 -1719 0
-1681 -1726 0
-1682 -1727 0
-1683 -1728 0
-1684 -1729 0
-1685 -1730 0
-1686 -1731 0
-1683 -1741 0
-1685 -1742 0
-1686 -1743 0
-1683 -1753 0
-1684 -1754 0
-1685 -1755 0
-1686 -1756 0
-1683 -1780 0
-1684 -1781 0
-1685 -1782 0
-1686 -1783 0
-1682 -1793 0
-1684 -1794 0
-1685 -1795 0
-1686 -1796 0
-1682 -1806 0
-1684 -1808 0
-1685 -1809 0
-1686 -1810 0
-1682 -1832 0
-1683 -1834 0
-1684 -1835 0
-1685 -1836 0
-1686 -1837 0
-1682 -1846 0
-1683 -1848 0
-1684 -1849 0
-1685 -1850 0
-1686 -1851 0
-1682 -1854 0
-1683 -1856 0
-1684 -1857 0
-1685 -1858 0
-1686 -1859 0
-1689 -1710 0
-1691 -1711 0
-1692 -1712 0
-1693 -1713 0
-1688 -1715 0
-1689 -1716 0
-1691 -1717 0
-1692 -1718 0
-1693 -1719 0
-1688 -1727 0
-1690 -1728 0
-1691 -1729 0
-1692 -1730 0
-1693 -1731 0
-1688 -1734 0
-1689 -1735 0
-1692 -1736 0
-1693 -1737 0
-1688 -1745 0
-1689 -1746 0
-1690 -1747 0
-1691 -1748 0
-1692 -1749 0
-1693 -1750 0
-1689 -1752 0
-1690 -1753 0
-1691 -1754 0
-1692 -1755 0
-1693 -1756 0
-1688 -1773 0
-1690 -1774 0
-1691 -1775 0
-1692 -1776 0
-1693 -1777 0
-1690 -1780 0
-1691 -1781 0
-1692 -1782 0
-1693 -1783 0
-1689 -1786 0
-1690 -1787 0
-1691 -1788 0
-1692 -1789 0
-1693 -1790 0
-1688 -1806 0
-1689 -1807 0
-1691 -1808 0
-1692 -1809 0
-1693 -1810 0
-1688 -1814 0
-1690 -1815 0
-1692 -1816 0
-1693 -1817 0
-1688 -1825 0
-1689 -1826 0
-1690 -1827 0
-1691 -1828 0
-1692 -1829 0
-1693 -1830 0
-1687 -1845 0
-1688 -1846 0
-1689 -1847 0
-1690 -1848 0
-1691 -1849 0
-1692 -1850 0
-1693 -1851 0
-1697 -1715 0
-1699 -1718 0
-1700 -1719 0
-1696 -1733 0
-1697 -1734 0
-1699 -1736 0
-1700 -1737 0
-1696 -1739 0
-1698 -1741 0
-1699 -1742 0
-1700 -1743 0
-1696 -1744 0
-1697 -1745 0
-1698 -1747 0
-1699 -1749 0
-1700 -1750 0
-1696 -1772 0
-1697 -1773 0
-1698 -1774 0
-1699 -1776 0
-1700 -1777 0
-1696 -1779 0
-1698 -1780 0
-1699 -1782 0
-1700 -1783 0
-1696 -1785 0
-1698 -1787 0
-1699 -1789 0
-1700 -1790 0
-1696 -1792 0
-1697 -1793 0
-1699 -1795 0
-1700 -1796 0
-1695 -1812 0
-1696 -1813 0
-1697 -1814 0
-1698 -1815 0
-1699 -1816 0
-1700 -1817 0
-1696 -1831 0
-1697 -1832 0
-1698 -1834 0
-1699 -1836 0
-1700 -1837 0
-1697 -1846 0
-1698 -1848 0
-1699 -1850 0
-1700 -1851 0
-1702 -1715 0
-1703 -1716 0
-1705 -1717 0
-1706 -1718 0
-1707 -1719 0
-1703 -1722 0
-1705 -1723 0
-1706 -1724 0
-1707 -1725 0
-1701 -1744 0
-1702 -1745 0
-1703 -1746 0
-1704 -1747 0
-1705 -1748 0
-1706 -1749 0
-1707 -1750 0
-1703 -1752 0
-1704 -1753 0
-1705 -1754 0
-1706 -1755 0
-1707 -1756 0
-1701 -1758 0
-1702 -1759 0
-1705 -1760 0
-1706 -1761 0
-1707 -1762 0
-1701 -1764 0
-1703 -1765 0
-1704 -1766 0
-1705 -1767 0
-1706 -1768 0
-1707 -1769 0
-1701 -1772 0
-1702 -1773 0
-1704 -1774 0
-1705 -1775 0
-1706 -1776 0
-1707 -1777 0
-1701 -1785 0
-1703 -1786 0
-1704 -1787 0
-1705 -1788 0
-1706 -1789 0
-1707 -1790 0
-1701 -1792 0
-1702 -1793 0
-1705 -1794 0
-1706 -1795 0
-1707 -1796 0
-1701 -1799 0
-1704 -1800 0
-1705 -1801 0
-1706 -1802 0
-1707 -1803 0
-1701 -1824 0
-1702 -1825 0
-1703 -1826 0
-1704 -1827 0
-1705 -1828 0
-1706 -1829 0
-1707 -1830 0
-1701 -1831 0
-1702 -1832 0
-1703 -1833 0
-1704 -1834 0
-1705 -1835 0
-1706 -1836 0
-1707 -1837 0
-1703 -1839 0
-1704 -1840 0
-1705 -1841 0
-1706 -1842 0
-1707 -1843 0
-1701 -1853 0
-1702 -1854 0
-1703 -1855 0
-1704 -1856 0
-1705 -1857 0
-1706 -1858 0
-1707 -1859 0
-1709 -1785 0
-1710 -1786 0
-1711 -1788 0
-1712 -1789 0
-1713 -1790 0
-1709 -1792 0
-1711 -1794 0
-1712 -1795 0
-1713 -1796 0
-1709 -1813 0
-1712 -1816 0
-1713 -1817 0
-1709 -1819 0
-1710 -1820 0
-1712 -1822 0
-1713 -1823 0
-1709 -1824 0
-1710 -1826 0
-1711 -1828 0
-1712 -1829 0
-1713 -1830 0
-1709 -1831 0
-1710 -1833 0
-1711 -1835 0
-1712 -1836 0
-1713 -1837 0
-1716 -1786 0
-1717 -1788 0
-1718 -1789 0
-1719 -1790 0
-1715 -1793 0
-1717 -1794 0
-1718 -1795 0
-1719 -1796 0
-1715 -1806 0
-1716 -1807 0
-1717 -1808 0
-1718 -1809 0
-1719 -1810 0
-1716 -1820 0
-1718 -1822 0
-1719 -1823 0
-1715 -1832 0
-1716 -1833 0
-1717 -1835 0
-1718 -1836 0
-1719 -1837 0
-1722 -1826 0
-1723 -1828 0
-1724 -1829 0
-1725 -1830 0
-1722 -1833 0
-1723 -1835 0
-1724 -1836 0
-1725 -1837 0
-1727 -1773 0
-1728 -1774 0
-1729 -1775 0
-1730 -1776 0
-1731 -1777 0
-1727 -1814 0
-1728 -1815 0
-1730 -1816 0
-1731 -1817 0
-1728 -1821 0
-1730 -1822 0
-1731 -1823 0
-1727 -1832 0
-1728 -1834 0
-1729 -1835 0
-1730 -1836 0
-1731 -1837 0
-1728 -1840 0
-1729 -1841 0
-1730 -1842 0
-1731 -1843 0
-1727 -1854 0
-1728 -1856 0
-1729 -1857 0
-1730 -1858 0
-1731 -1859 0
-1733 -1779 0
-1736 -1782 0
-1737 -1783 0
-1733 -1792 0
-1734 -1793 0
-1736 -1795 0
-1737 -1796 0
-1733 -1805 0
-1734 -1806 0
-1735 -1807 0
-1736 -1809 0
-1737 -1810 0
-1733 -1824 0
-1734 -1825 0
-1735 -1826 0
-1736 -1829 0
-1737 -1830 0
-1735 -1839 0
-1736 -1842 0
-1737 -1843 0
-1739 -1772 0
-1741 -1774 0
-1742 -1776 0
-1743 -1777 0
-1739 -1779 0
-1741 -1780 0
-1742 -1782 0
-1743 -1783 0
-1739 -1785 0
-1740 -1786 0
-1741 -1787 0
-1742 -1789 0
-1743 -1790 0
-1739 -1805 0
-1740 -1807 0
-1742 -1809 0
-1743 -1810 0
-1738 -1818 0
-1739 -1819 0
-1740 -1820 0
-1741 -1821 0
-1742 -1822 0
-1743 -1823 0
-1739 -1831 0
-1740 -1833 0
-1741 -1834 0
-1742 -1836 0
-1743 -1837 0
-1740 -1839 0
-1741 -1840 0
-1742 -1842 0
-1743 -1843 0
-1744 -1764 0
-1746 -1765 0
-1747 -1766 0
-1748 -1767 0
-1749 -1768 0
-1750 -1769 0
-1744 -1779 0
-1747 -1780 0
-1748 -1781 0
-1749 -1782 0
-1750 -1783 0
-1744 -1785 0
-1746 -1786 0
-1747 -1787 0
-1748 -1788 0
-1749 -1789 0
-1750 -1790 0
-1744 -1799 0
-1747 -1800 0
-1748 -1801 0
-1749 -1802 0
-1750 -1803 0
-1744 -1813 0
-1745 -1814 0
-1747 -1815 0
-1749 -1816 0
-1750 -1817 0
-1744 -1824 0
-1745 -1825 0
-1746 -1826 0
-1747 -1827 0
-1748 -1828 0
-1749 -1829 0
-1750 -1830 0
-1744 -1831 0
-1745 -1832 0
-1746 -1833 0
-1747 -1834 0
-1748 -1835 0
-1749 -1836 0
-1750 -1837 0
-1745 -1846 0
-1746 -1847 0
-1747 -1848 0
-1748 -1849 0
-1749 -1850 0
-1750 -1851 0
-1744 -1853 0
-1745 -1854 0
-1746 -1855 0
-1747 -1856 0
-1748 -1857 0
-1749 -1858 0
-1750 -1859 0
-1753 -1774 0
-1754 -1775 0
-1755 -1776 0
-1756 -1777 0
-1753 -1780 0
-1754 -1781 0
-1755 -1782 0
-1756 -1783 0
-1752 -1786 0
-1753 -1787 0
-1754 -1788 0
-1755 -1789 0
-1756 -1790 0
-1754 -1794 0
-1755 -1795 0
-1756 -1796 0
-1752 -1820 0
-1753 -1821 0
-1755 -1822 0
-1756 -1823 0
-1752 -1826 0
-1753 -1827 0
-1754 -1828 0
-1755 -1829 0
-1756 -1830 0
-1751 -1838 0
-1752 -1839 0
-1753 -1840 0
-1754 -1841 0
-1755 -1842 0
-1756 -1843 0
-1758 -1772 0
-1759 -1773 0
-1760 -1775 0
-1761 -1776 0
-1762 -1777 0
-1758 -1779 0
-1760 -1781 0
-1761 -1782 0
-1762 -1783 0
-1758 -1785 0
-1760 -1788 0
-1761 -1789 0
-1762 -1790 0
-1757 -1791 0
-1758 -1792 0
-1759 -1793 0
-1760 -1794 0
-1761 -1795 0
-1762 -1796 0
-1758 -1813 0
-1759 -1814 0
-1761 -1816 0
-1762 -1817 0
-1760 -1841 0
-1761 -1842 0
-1762 -1843 0
-1758 -1853 0
-1759 -1854 0
-1760 -1857 0
-1761 -1858 0
-1762 -1859 0
-1763 -1784 0
-1764 -1785 0
-1765 -1786 0
-1766 -1787 0
-1767 -1788 0
-1768 -1789 0
-1769 -1790 0
-1764 -1792 0
-1767 -1794 0
-1768 -1795 0
-1769 -1796 0
-1764 -1805 0
-1765 -1807 0
-1767 -1808 0
-1768 -1809 0
-1769 -1810 0
-1764 -1813 0
-1766 -1815 0
-1768 -1816 0
-1769 -1817 0
-1764 -1819 0
-1765 -1820 0
-1766 -1821 0
-1768 -1822 0
-1769 -1823 0
-1792 -1853 0
-1793 -1854 0
-1794 -1857 0
-1795 -1858 0
-1796 -1859 0
-1805 -1853 0
-1806 -1854 0
-1807 -1855 0
-1808 -1857 0
-1809 -1858 0
-1810 -1859 0
-1813 -1831 0
-1814 -1832 0
-1815 -1834 0
-1816 -1836 0
-1817 -1837 0
-1819 -1831 0
-1820 -1833 0
-1821 -1834 0
-1822 -1836 0
-1823 -1837 0
-1824 -1831 0
-1825 -1832 0
-1826 -1833 0
-1827 -1834 0
-1828 -1835 0
-1829 -1836 0
-1830 -1837 0
-1826 -1839 0
-1827 -1840 0
-1828 -1841 0
-1829 -1842 0
-1830 -1843 0
-1825 -1846 0
-1826 -1847 0
-1827 -1848 0
-1828 -1849 0
-1829 -1850 0
-1830 -1851 0
-1824 -1853 0
-1825 -1854 0
-1826 -1855 0
-1827 -1856 0
-1828 -1857 0
-1829 -1858 0
-1830 -1859 0
-1831 -1853 0
-1832 -1854 0
-1833 -1855 0
-1834 -1856 0
-1835 -1857 0
-1836 -1858 0
-1837 -1859 0
