c q00r00-s020 canonical compact 12-color CNF
c Variables are ordered by ascending vertex then ascending allowed color.
c Greedy clique order is descending degree then ascending vertex.
p cnf 1997 74530
1 0
2 3 4 5 6 7 8 9 0
-2 -3 0
-2 -4 0
-2 -5 0
-2 -6 0
-2 -7 0
-2 -8 0
-2 -9 0
-3 -4 0
-3 -5 0
-3 -6 0
-3 -7 0
-3 -8 0
-3 -9 0
-4 -5 0
-4 -6 0
-4 -7 0
-4 -8 0
-4 -9 0
-5 -6 0
-5 -7 0
-5 -8 0
-5 -9 0
-6 -7 0
-6 -8 0
-6 -9 0
-7 -8 0
-7 -9 0
-8 -9 0
10 11 12 13 14 15 16 0
-10 -11 0
-10 -12 0
-10 -13 0
-10 -14 0
-10 -15 0
-10 -16 0
-11 -12 0
-11 -13 0
-11 -14 0
-11 -15 0
-11 -16 0
-12 -13 0
-12 -14 0
-12 -15 0
-12 -16 0
-13 -14 0
-13 -15 0
-13 -16 0
-14 -15 0
-14 -16 0
-15 -16 0
17 18 19 20 21 22 23 0
-17 -18 0
-17 -19 0
-17 -20 0
-17 -21 0
-17 -22 0
-17 -23 0
-18 -19 0
-18 -20 0
-18 -21 0
-18 -22 0
-18 -23 0
-19 -20 0
-19 -21 0
-19 -22 0
-19 -23 0
-20 -21 0
-20 -22 0
-20 -23 0
-21 -22 0
-21 -23 0
-22 -23 0
24 25 26 27 28 29 30 31 0
-24 -25 0
-24 -26 0
-24 -27 0
-24 -28 0
-24 -29 0
-24 -30 0
-24 -31 0
-25 -26 0
-25 -27 0
-25 -28 0
-25 -29 0
-25 -30 0
-25 -31 0
-26 -27 0
-26 -28 0
-26 -29 0
-26 -30 0
-26 -31 0
-27 -28 0
-27 -29 0
-27 -30 0
-27 -31 0
-28 -29 0
-28 -30 0
-28 -31 0
-29 -30 0
-29 -31 0
-30 -31 0
32 33 34 35 36 37 38 0
-32 -33 0
-32 -34 0
-32 -35 0
-32 -36 0
-32 -37 0
-32 -38 0
-33 -34 0
-33 -35 0
-33 -36 0
-33 -37 0
-33 -38 0
-34 -35 0
-34 -36 0
-34 -37 0
-34 -38 0
-35 -36 0
-35 -37 0
-35 -38 0
-36 -37 0
-36 -38 0
-37 -38 0
39 40 41 42 43 44 45 46 0
-39 -40 0
-39 -41 0
-39 -42 0
-39 -43 0
-39 -44 0
-39 -45 0
-39 -46 0
-40 -41 0
-40 -42 0
-40 -43 0
-40 -44 0
-40 -45 0
-40 -46 0
-41 -42 0
-41 -43 0
-41 -44 0
-41 -45 0
-41 -46 0
-42 -43 0
-42 -44 0
-42 -45 0
-42 -46 0
-43 -44 0
-43 -45 0
-43 -46 0
-44 -45 0
-44 -46 0
-45 -46 0
47 48 49 50 51 52 53 0
-47 -48 0
-47 -49 0
-47 -50 0
-47 -51 0
-47 -52 0
-47 -53 0
-48 -49 0
-48 -50 0
-48 -51 0
-48 -52 0
-48 -53 0
-49 -50 0
-49 -51 0
-49 -52 0
-49 -53 0
-50 -51 0
-50 -52 0
-50 -53 0
-51 -52 0
-51 -53 0
-52 -53 0
54 55 56 57 58 59 0
-54 -55 0
-54 -56 0
-54 -57 0
-54 -58 0
-54 -59 0
-55 -56 0
-55 -57 0
-55 -58 0
-55 -59 0
-56 -57 0
-56 -58 0
-56 -59 0
-57 -58 0
-57 -59 0
-58 -59 0
60 61 62 63 64 65 0
-60 -61 0
-60 -62 0
-60 -63 0
-60 -64 0
-60 -65 0
-61 -62 0
-61 -63 0
-61 -64 0
-61 -65 0
-62 -63 0
-62 -64 0
-62 -65 0
-63 -64 0
-63 -65 0
-64 -65 0
66 67 68 69 70 71 72 0
-66 -67 0
-66 -68 0
-66 -69 0
-66 -70 0
-66 -71 0
-66 -72 0
-67 -68 0
-67 -69 0
-67 -70 0
-67 -71 0
-67 -72 0
-68 -69 0
-68 -70 0
-68 -71 0
-68 -72 0
-69 -70 0
-69 -71 0
-69 -72 0
-70 -71 0
-70 -72 0
-71 -72 0
73 74 75 76 77 78 79 80 0
-73 -74 0
-73 -75 0
-73 -76 0
-73 -77 0
-73 -78 0
-73 -79 0
-73 -80 0
-74 -75 0
-74 -76 0
-74 -77 0
-74 -78 0
-74 -79 0
-74 -80 0
-75 -76 0
-75 -77 0
-75 -78 0
-75 -79 0
-75 -80 0
-76 -77 0
-76 -78 0
-76 -79 0
-76 -80 0
-77 -78 0
-77 -79 0
-77 -80 0
-78 -79 0
-78 -80 0
-79 -80 0
81 82 83 84 85 86 87 0
-81 -82 0
-81 -83 0
-81 -84 0
-81 -85 0
-81 -86 0
-81 -87 0
-82 -83 0
-82 -84 0
-82 -85 0
-82 -86 0
-82 -87 0
-83 -84 0
-83 -85 0
-83 -86 0
-83 -87 0
-84 -85 0
-84 -86 0
-84 -87 0
-85 -86 0
-85 -87 0
-86 -87 0
88 89 90 91 92 93 0
-88 -89 0
-88 -90 0
-88 -91 0
-88 -92 0
-88 -93 0
-89 -90 0
-89 -91 0
-89 -92 0
-89 -93 0
-90 -91 0
-90 -92 0
-90 -93 0
-91 -92 0
-91 -93 0
-92 -93 0
94 95 96 97 98 99 100 0
-94 -95 0
-94 -96 0
-94 -97 0
-94 -98 0
-94 -99 0
-94 -100 0
-95 -96 0
-95 -97 0
-95 -98 0
-95 -99 0
-95 -100 0
-96 -97 0
-96 -98 0
-96 -99 0
-96 -100 0
-97 -98 0
-97 -99 0
-97 -100 0
-98 -99 0
-98 -100 0
-99 -100 0
101 0
102 103 104 105 106 107 108 0
-102 -103 0
-102 -104 0
-102 -105 0
-102 -106 0
-102 -107 0
-102 -108 0
-103 -104 0
-103 -105 0
-103 -106 0
-103 -107 0
-103 -108 0
-104 -105 0
-104 -106 0
-104 -107 0
-104 -108 0
-105 -106 0
-105 -107 0
-105 -108 0
-106 -107 0
-106 -108 0
-107 -108 0
109 110 111 112 113 114 115 116 0
-109 -110 0
-109 -111 0
-109 -112 0
-109 -113 0
-109 -114 0
-109 -115 0
-109 -116 0
-110 -111 0
-110 -112 0
-110 -113 0
-110 -114 0
-110 -115 0
-110 -116 0
-111 -112 0
-111 -113 0
-111 -114 0
-111 -115 0
-111 -116 0
-112 -113 0
-112 -114 0
-112 -115 0
-112 -116 0
-113 -114 0
-113 -115 0
-113 -116 0
-114 -115 0
-114 -116 0
-115 -116 0
117 118 119 120 121 122 123 124 0
-117 -118 0
-117 -119 0
-117 -120 0
-117 -121 0
-117 -122 0
-117 -123 0
-117 -124 0
-118 -119 0
-118 -120 0
-118 -121 0
-118 -122 0
-118 -123 0
-118 -124 0
-119 -120 0
-119 -121 0
-119 -122 0
-119 -123 0
-119 -124 0
-120 -121 0
-120 -122 0
-120 -123 0
-120 -124 0
-121 -122 0
-121 -123 0
-121 -124 0
-122 -123 0
-122 -124 0
-123 -124 0
125 126 127 128 129 130 0
-125 -126 0
-125 -127 0
-125 -128 0
-125 -129 0
-125 -130 0
-126 -127 0
-126 -128 0
-126 -129 0
-126 -130 0
-127 -128 0
-127 -129 0
-127 -130 0
-128 -129 0
-128 -130 0
-129 -130 0
131 132 133 134 135 136 137 0
-131 -132 0
-131 -133 0
-131 -134 0
-131 -135 0
-131 -136 0
-131 -137 0
-132 -133 0
-132 -134 0
-132 -135 0
-132 -136 0
-132 -137 0
-133 -134 0
-133 -135 0
-133 -136 0
-133 -137 0
-134 -135 0
-134 -136 0
-134 -137 0
-135 -136 0
-135 -137 0
-136 -137 0
138 139 140 141 142 143 144 145 146 0
-138 -139 0
-138 -140 0
-138 -141 0
-138 -142 0
-138 -143 0
-138 -144 0
-138 -145 0
-138 -146 0
-139 -140 0
-139 -141 0
-139 -142 0
-139 -143 0
-139 -144 0
-139 -145 0
-139 -146 0
-140 -141 0
-140 -142 0
-140 -143 0
-140 -144 0
-140 -145 0
-140 -146 0
-141 -142 0
-141 -143 0
-141 -144 0
-141 -145 0
-141 -146 0
-142 -143 0
-142 -144 0
-142 -145 0
-142 -146 0
-143 -144 0
-143 -145 0
-143 -146 0
-144 -145 0
-144 -146 0
-145 -146 0
147 148 149 150 151 152 153 154 155 156 0
-147 -148 0
-147 -149 0
-147 -150 0
-147 -151 0
-147 -152 0
-147 -153 0
-147 -154 0
-147 -155 0
-147 -156 0
-148 -149 0
-148 -150 0
-148 -151 0
-148 -152 0
-148 -153 0
-148 -154 0
-148 -155 0
-148 -156 0
-149 -150 0
-149 -151 0
-149 -152 0
-149 -153 0
-149 -154 0
-149 -155 0
-149 -156 0
-150 -151 0
-150 -152 0
-150 -153 0
-150 -154 0
-150 -155 0
-150 -156 0
-151 -152 0
-151 -153 0
-151 -154 0
-151 -155 0
-151 -156 0
-152 -153 0
-152 -154 0
-152 -155 0
-152 -156 0
-153 -154 0
-153 -155 0
-153 -156 0
-154 -155 0
-154 -156 0
-155 -156 0
157 158 159 160 161 162 163 164 0
-157 -158 0
-157 -159 0
-157 -160 0
-157 -161 0
-157 -162 0
-157 -163 0
-157 -164 0
-158 -159 0
-158 -160 0
-158 -161 0
-158 -162 0
-158 -163 0
-158 -164 0
-159 -160 0
-159 -161 0
-159 -162 0
-159 -163 0
-159 -164 0
-160 -161 0
-160 -162 0
-160 -163 0
-160 -164 0
-161 -162 0
-161 -163 0
-161 -164 0
-162 -163 0
-162 -164 0
-163 -164 0
165 166 167 168 169 170 171 172 173 174 0
-165 -166 0
-165 -167 0
-165 -168 0
-165 -169 0
-165 -170 0
-165 -171 0
-165 -172 0
-165 -173 0
-165 -174 0
-166 -167 0
-166 -168 0
-166 -169 0
-166 -170 0
-166 -171 0
-166 -172 0
-166 -173 0
-166 -174 0
-167 -168 0
-167 -169 0
-167 -170 0
-167 -171 0
-167 -172 0
-167 -173 0
-167 -174 0
-168 -169 0
-168 -170 0
-168 -171 0
-168 -172 0
-168 -173 0
-168 -174 0
-169 -170 0
-169 -171 0
-169 -172 0
-169 -173 0
-169 -174 0
-170 -171 0
-170 -172 0
-170 -173 0
-170 -174 0
-171 -172 0
-171 -173 0
-171 -174 0
-172 -173 0
-172 -174 0
-173 -174 0
175 176 177 178 179 180 181 182 0
-175 -176 0
-175 -177 0
-175 -178 0
-175 -179 0
-175 -180 0
-175 -181 0
-175 -182 0
-176 -177 0
-176 -178 0
-176 -179 0
-176 -180 0
-176 -181 0
-176 -182 0
-177 -178 0
-177 -179 0
-177 -180 0
-177 -181 0
-177 -182 0
-178 -179 0
-178 -180 0
-178 -181 0
-178 -182 0
-179 -180 0
-179 -181 0
-179 -182 0
-180 -181 0
-180 -182 0
-181 -182 0
183 184 185 186 187 188 189 190 191 192 0
-183 -184 0
-183 -185 0
-183 -186 0
-183 -187 0
-183 -188 0
-183 -189 0
-183 -190 0
-183 -191 0
-183 -192 0
-184 -185 0
-184 -186 0
-184 -187 0
-184 -188 0
-184 -189 0
-184 -190 0
-184 -191 0
-184 -192 0
-185 -186 0
-185 -187 0
-185 -188 0
-185 -189 0
-185 -190 0
-185 -191 0
-185 -192 0
-186 -187 0
-186 -188 0
-186 -189 0
-186 -190 0
-186 -191 0
-186 -192 0
-187 -188 0
-187 -189 0
-187 -190 0
-187 -191 0
-187 -192 0
-188 -189 0
-188 -190 0
-188 -191 0
-188 -192 0
-189 -190 0
-189 -191 0
-189 -192 0
-190 -191 0
-190 -192 0
-191 -192 0
193 194 195 196 197 198 199 200 201 202 0
-193 -194 0
-193 -195 0
-193 -196 0
-193 -197 0
-193 -198 0
-193 -199 0
-193 -200 0
-193 -201 0
-193 -202 0
-194 -195 0
-194 -196 0
-194 -197 0
-194 -198 0
-194 -199 0
-194 -200 0
-194 -201 0
-194 -202 0
-195 -196 0
-195 -197 0
-195 -198 0
-195 -199 0
-195 -200 0
-195 -201 0
-195 -202 0
-196 -197 0
-196 -198 0
-196 -199 0
-196 -200 0
-196 -201 0
-196 -202 0
-197 -198 0
-197 -199 0
-197 -200 0
-197 -201 0
-197 -202 0
-198 -199 0
-198 -200 0
-198 -201 0
-198 -202 0
-199 -200 0
-199 -201 0
-199 -202 0
-200 -201 0
-200 -202 0
-201 -202 0
203 204 205 206 207 208 209 210 0
-203 -204 0
-203 -205 0
-203 -206 0
-203 -207 0
-203 -208 0
-203 -209 0
-203 -210 0
-204 -205 0
-204 -206 0
-204 -207 0
-204 -208 0
-204 -209 0
-204 -210 0
-205 -206 0
-205 -207 0
-205 -208 0
-205 -209 0
-205 -210 0
-206 -207 0
-206 -208 0
-206 -209 0
-206 -210 0
-207 -208 0
-207 -209 0
-207 -210 0
-208 -209 0
-208 -210 0
-209 -210 0
211 212 213 214 215 216 217 0
-211 -212 0
-211 -213 0
-211 -214 0
-211 -215 0
-211 -216 0
-211 -217 0
-212 -213 0
-212 -214 0
-212 -215 0
-212 -216 0
-212 -217 0
-213 -214 0
-213 -215 0
-213 -216 0
-213 -217 0
-214 -215 0
-214 -216 0
-214 -217 0
-215 -216 0
-215 -217 0
-216 -217 0
218 219 220 221 222 223 224 225 0
-218 -219 0
-218 -220 0
-218 -221 0
-218 -222 0
-218 -223 0
-218 -224 0
-218 -225 0
-219 -220 0
-219 -221 0
-219 -222 0
-219 -223 0
-219 -224 0
-219 -225 0
-220 -221 0
-220 -222 0
-220 -223 0
-220 -224 0
-220 -225 0
-221 -222 0
-221 -223 0
-221 -224 0
-221 -225 0
-222 -223 0
-222 -224 0
-222 -225 0
-223 -224 0
-223 -225 0
-224 -225 0
226 227 228 229 230 231 0
-226 -227 0
-226 -228 0
-226 -229 0
-226 -230 0
-226 -231 0
-227 -228 0
-227 -229 0
-227 -230 0
-227 -231 0
-228 -229 0
-228 -230 0
-228 -231 0
-229 -230 0
-229 -231 0
-230 -231 0
232 233 234 235 236 237 238 239 240 0
-232 -233 0
-232 -234 0
-232 -235 0
-232 -236 0
-232 -237 0
-232 -238 0
-232 -239 0
-232 -240 0
-233 -234 0
-233 -235 0
-233 -236 0
-233 -237 0
-233 -238 0
-233 -239 0
-233 -240 0
-234 -235 0
-234 -236 0
-234 -237 0
-234 -238 0
-234 -239 0
-234 -240 0
-235 -236 0
-235 -237 0
-235 -238 0
-235 -239 0
-235 -240 0
-236 -237 0
-236 -238 0
-236 -239 0
-236 -240 0
-237 -238 0
-237 -239 0
-237 -240 0
-238 -239 0
-238 -240 0
-239 -240 0
241 242 243 244 245 246 247 0
-241 -242 0
-241 -243 0
-241 -244 0
-241 -245 0
-241 -246 0
-241 -247 0
-242 -243 0
-242 -244 0
-242 -245 0
-242 -246 0
-242 -247 0
-243 -244 0
-243 -245 0
-243 -246 0
-243 -247 0
-244 -245 0
-244 -246 0
-244 -247 0
-245 -246 0
-245 -247 0
-246 -247 0
248 249 250 251 252 253 0
-248 -249 0
-248 -250 0
-248 -251 0
-248 -252 0
-248 -253 0
-249 -250 0
-249 -251 0
-249 -252 0
-249 -253 0
-250 -251 0
-250 -252 0
-250 -253 0
-251 -252 0
-251 -253 0
-252 -253 0
254 255 256 257 258 259 260 261 262 0
-254 -255 0
-254 -256 0
-254 -257 0
-254 -258 0
-254 -259 0
-254 -260 0
-254 -261 0
-254 -262 0
-255 -256 0
-255 -257 0
-255 -258 0
-255 -259 0
-255 -260 0
-255 -261 0
-255 -262 0
-256 -257 0
-256 -258 0
-256 -259 0
-256 -260 0
-256 -261 0
-256 -262 0
-257 -258 0
-257 -259 0
-257 -260 0
-257 -261 0
-257 -262 0
-258 -259 0
-258 -260 0
-258 -261 0
-258 -262 0
-259 -260 0
-259 -261 0
-259 -262 0
-260 -261 0
-260 -262 0
-261 -262 0
263 264 265 266 267 268 0
-263 -264 0
-263 -265 0
-263 -266 0
-263 -267 0
-263 -268 0
-264 -265 0
-264 -266 0
-264 -267 0
-264 -268 0
-265 -266 0
-265 -267 0
-265 -268 0
-266 -267 0
-266 -268 0
-267 -268 0
269 270 271 272 273 274 0
-269 -270 0
-269 -271 0
-269 -272 0
-269 -273 0
-269 -274 0
-270 -271 0
-270 -272 0
-270 -273 0
-270 -274 0
-271 -272 0
-271 -273 0
-271 -274 0
-272 -273 0
-272 -274 0
-273 -274 0
275 276 277 278 279 280 281 0
-275 -276 0
-275 -277 0
-275 -278 0
-275 -279 0
-275 -280 0
-275 -281 0
-276 -277 0
-276 -278 0
-276 -279 0
-276 -280 0
-276 -281 0
-277 -278 0
-277 -279 0
-277 -280 0
-277 -281 0
-278 -279 0
-278 -280 0
-278 -281 0
-279 -280 0
-279 -281 0
-280 -281 0
282 283 284 285 286 287 288 289 0
-282 -283 0
-282 -284 0
-282 -285 0
-282 -286 0
-282 -287 0
-282 -288 0
-282 -289 0
-283 -284 0
-283 -285 0
-283 -286 0
-283 -287 0
-283 -288 0
-283 -289 0
-284 -285 0
-284 -286 0
-284 -287 0
-284 -288 0
-284 -289 0
-285 -286 0
-285 -287 0
-285 -288 0
-285 -289 0
-286 -287 0
-286 -288 0
-286 -289 0
-287 -288 0
-287 -289 0
-288 -289 0
290 291 292 293 294 295 296 297 0
-290 -291 0
-290 -292 0
-290 -293 0
-290 -294 0
-290 -295 0
-290 -296 0
-290 -297 0
-291 -292 0
-291 -293 0
-291 -294 0
-291 -295 0
-291 -296 0
-291 -297 0
-292 -293 0
-292 -294 0
-292 -295 0
-292 -296 0
-292 -297 0
-293 -294 0
-293 -295 0
-293 -296 0
-293 -297 0
-294 -295 0
-294 -296 0
-294 -297 0
-295 -296 0
-295 -297 0
-296 -297 0
298 299 300 301 302 303 304 0
-298 -299 0
-298 -300 0
-298 -301 0
-298 -302 0
-298 -303 0
-298 -304 0
-299 -300 0
-299 -301 0
-299 -302 0
-299 -303 0
-299 -304 0
-300 -301 0
-300 -302 0
-300 -303 0
-300 -304 0
-301 -302 0
-301 -303 0
-301 -304 0
-302 -303 0
-302 -304 0
-303 -304 0
305 306 307 308 309 310 0
-305 -306 0
-305 -307 0
-305 -308 0
-305 -309 0
-305 -310 0
-306 -307 0
-306 -308 0
-306 -309 0
-306 -310 0
-307 -308 0
-307 -309 0
-307 -310 0
-308 -309 0
-308 -310 0
-309 -310 0
311 312 313 314 315 316 317 0
-311 -312 0
-311 -313 0
-311 -314 0
-311 -315 0
-311 -316 0
-311 -317 0
-312 -313 0
-312 -314 0
-312 -315 0
-312 -316 0
-312 -317 0
-313 -314 0
-313 -315 0
-313 -316 0
-313 -317 0
-314 -315 0
-314 -316 0
-314 -317 0
-315 -316 0
-315 -317 0
-316 -317 0
318 319 320 321 322 323 0
-318 -319 0
-318 -320 0
-318 -321 0
-318 -322 0
-318 -323 0
-319 -320 0
-319 -321 0
-319 -322 0
-319 -323 0
-320 -321 0
-320 -322 0
-320 -323 0
-321 -322 0
-321 -323 0
-322 -323 0
324 325 326 327 328 329 330 0
-324 -325 0
-324 -326 0
-324 -327 0
-324 -328 0
-324 -329 0
-324 -330 0
-325 -326 0
-325 -327 0
-325 -328 0
-325 -329 0
-325 -330 0
-326 -327 0
-326 -328 0
-326 -329 0
-326 -330 0
-327 -328 0
-327 -329 0
-327 -330 0
-328 -329 0
-328 -330 0
-329 -330 0
331 332 333 334 335 336 337 0
-331 -332 0
-331 -333 0
-331 -334 0
-331 -335 0
-331 -336 0
-331 -337 0
-332 -333 0
-332 -334 0
-332 -335 0
-332 -336 0
-332 -337 0
-333 -334 0
-333 -335 0
-333 -336 0
-333 -337 0
-334 -335 0
-334 -336 0
-334 -337 0
-335 -336 0
-335 -337 0
-336 -337 0
338 339 340 341 342 343 344 0
-338 -339 0
-338 -340 0
-338 -341 0
-338 -342 0
-338 -343 0
-338 -344 0
-339 -340 0
-339 -341 0
-339 -342 0
-339 -343 0
-339 -344 0
-340 -341 0
-340 -342 0
-340 -343 0
-340 -344 0
-341 -342 0
-341 -343 0
-341 -344 0
-342 -343 0
-342 -344 0
-343 -344 0
345 346 347 348 349 350 351 352 353 0
-345 -346 0
-345 -347 0
-345 -348 0
-345 -349 0
-345 -350 0
-345 -351 0
-345 -352 0
-345 -353 0
-346 -347 0
-346 -348 0
-346 -349 0
-346 -350 0
-346 -351 0
-346 -352 0
-346 -353 0
-347 -348 0
-347 -349 0
-347 -350 0
-347 -351 0
-347 -352 0
-347 -353 0
-348 -349 0
-348 -350 0
-348 -351 0
-348 -352 0
-348 -353 0
-349 -350 0
-349 -351 0
-349 -352 0
-349 -353 0
-350 -351 0
-350 -352 0
-350 -353 0
-351 -352 0
-351 -353 0
-352 -353 0
354 355 356 357 358 359 360 361 362 363 0
-354 -355 0
-354 -356 0
-354 -357 0
-354 -358 0
-354 -359 0
-354 -360 0
-354 -361 0
-354 -362 0
-354 -363 0
-355 -356 0
-355 -357 0
-355 -358 0
-355 -359 0
-355 -360 0
-355 -361 0
-355 -362 0
-355 -363 0
-356 -357 0
-356 -358 0
-356 -359 0
-356 -360 0
-356 -361 0
-356 -362 0
-356 -363 0
-357 -358 0
-357 -359 0
-357 -360 0
-357 -361 0
-357 -362 0
-357 -363 0
-358 -359 0
-358 -360 0
-358 -361 0
-358 -362 0
-358 -363 0
-359 -360 0
-359 -361 0
-359 -362 0
-359 -363 0
-360 -361 0
-360 -362 0
-360 -363 0
-361 -362 0
-361 -363 0
-362 -363 0
364 365 366 367 368 369 370 371 0
-364 -365 0
-364 -366 0
-364 -367 0
-364 -368 0
-364 -369 0
-364 -370 0
-364 -371 0
-365 -366 0
-365 -367 0
-365 -368 0
-365 -369 0
-365 -370 0
-365 -371 0
-366 -367 0
-366 -368 0
-366 -369 0
-366 -370 0
-366 -371 0
-367 -368 0
-367 -369 0
-367 -370 0
-367 -371 0
-368 -369 0
-368 -370 0
-368 -371 0
-369 -370 0
-369 -371 0
-370 -371 0
372 373 374 375 376 377 378 0
-372 -373 0
-372 -374 0
-372 -375 0
-372 -376 0
-372 -377 0
-372 -378 0
-373 -374 0
-373 -375 0
-373 -376 0
-373 -377 0
-373 -378 0
-374 -375 0
-374 -376 0
-374 -377 0
-374 -378 0
-375 -376 0
-375 -377 0
-375 -378 0
-376 -377 0
-376 -378 0
-377 -378 0
379 380 381 382 383 384 0
-379 -380 0
-379 -381 0
-379 -382 0
-379 -383 0
-379 -384 0
-380 -381 0
-380 -382 0
-380 -383 0
-380 -384 0
-381 -382 0
-381 -383 0
-381 -384 0
-382 -383 0
-382 -384 0
-383 -384 0
385 386 387 388 389 390 391 392 393 394 0
-385 -386 0
-385 -387 0
-385 -388 0
-385 -389 0
-385 -390 0
-385 -391 0
-385 -392 0
-385 -393 0
-385 -394 0
-386 -387 0
-386 -388 0
-386 -389 0
-386 -390 0
-386 -391 0
-386 -392 0
-386 -393 0
-386 -394 0
-387 -388 0
-387 -389 0
-387 -390 0
-387 -391 0
-387 -392 0
-387 -393 0
-387 -394 0
-388 -389 0
-388 -390 0
-388 -391 0
-388 -392 0
-388 -393 0
-388 -394 0
-389 -390 0
-389 -391 0
-389 -392 0
-389 -393 0
-389 -394 0
-390 -391 0
-390 -392 0
-390 -393 0
-390 -394 0
-391 -392 0
-391 -393 0
-391 -394 0
-392 -393 0
-392 -394 0
-393 -394 0
395 396 397 398 399 400 401 0
-395 -396 0
-395 -397 0
-395 -398 0
-395 -399 0
-395 -400 0
-395 -401 0
-396 -397 0
-396 -398 0
-396 -399 0
-396 -400 0
-396 -401 0
-397 -398 0
-397 -399 0
-397 -400 0
-397 -401 0
-398 -399 0
-398 -400 0
-398 -401 0
-399 -400 0
-399 -401 0
-400 -401 0
402 403 404 405 406 407 408 0
-402 -403 0
-402 -404 0
-402 -405 0
-402 -406 0
-402 -407 0
-402 -408 0
-403 -404 0
-403 -405 0
-403 -406 0
-403 -407 0
-403 -408 0
-404 -405 0
-404 -406 0
-404 -407 0
-404 -408 0
-405 -406 0
-405 -407 0
-405 -408 0
-406 -407 0
-406 -408 0
-407 -408 0
409 410 411 412 413 414 415 0
-409 -410 0
-409 -411 0
-409 -412 0
-409 -413 0
-409 -414 0
-409 -415 0
-410 -411 0
-410 -412 0
-410 -413 0
-410 -414 0
-410 -415 0
-411 -412 0
-411 -413 0
-411 -414 0
-411 -415 0
-412 -413 0
-412 -414 0
-412 -415 0
-413 -414 0
-413 -415 0
-414 -415 0
416 417 418 419 420 421 422 0
-416 -417 0
-416 -418 0
-416 -419 0
-416 -420 0
-416 -421 0
-416 -422 0
-417 -418 0
-417 -419 0
-417 -420 0
-417 -421 0
-417 -422 0
-418 -419 0
-418 -420 0
-418 -421 0
-418 -422 0
-419 -420 0
-419 -421 0
-419 -422 0
-420 -421 0
-420 -422 0
-421 -422 0
423 424 425 426 427 428 0
-423 -424 0
-423 -425 0
-423 -426 0
-423 -427 0
-423 -428 0
-424 -425 0
-424 -426 0
-424 -427 0
-424 -428 0
-425 -426 0
-425 -427 0
-425 -428 0
-426 -427 0
-426 -428 0
-427 -428 0
429 430 431 432 433 434 0
-429 -430 0
-429 -431 0
-429 -432 0
-429 -433 0
-429 -434 0
-430 -431 0
-430 -432 0
-430 -433 0
-430 -434 0
-431 -432 0
-431 -433 0
-431 -434 0
-432 -433 0
-432 -434 0
-433 -434 0
435 436 437 438 439 440 441 0
-435 -436 0
-435 -437 0
-435 -438 0
-435 -439 0
-435 -440 0
-435 -441 0
-436 -437 0
-436 -438 0
-436 -439 0
-436 -440 0
-436 -441 0
-437 -438 0
-437 -439 0
-437 -440 0
-437 -441 0
-438 -439 0
-438 -440 0
-438 -441 0
-439 -440 0
-439 -441 0
-440 -441 0
442 443 444 445 446 447 448 449 0
-442 -443 0
-442 -444 0
-442 -445 0
-442 -446 0
-442 -447 0
-442 -448 0
-442 -449 0
-443 -444 0
-443 -445 0
-443 -446 0
-443 -447 0
-443 -448 0
-443 -449 0
-444 -445 0
-444 -446 0
-444 -447 0
-444 -448 0
-444 -449 0
-445 -446 0
-445 -447 0
-445 -448 0
-445 -449 0
-446 -447 0
-446 -448 0
-446 -449 0
-447 -448 0
-447 -449 0
-448 -449 0
450 451 452 453 454 455 456 0
-450 -451 0
-450 -452 0
-450 -453 0
-450 -454 0
-450 -455 0
-450 -456 0
-451 -452 0
-451 -453 0
-451 -454 0
-451 -455 0
-451 -456 0
-452 -453 0
-452 -454 0
-452 -455 0
-452 -456 0
-453 -454 0
-453 -455 0
-453 -456 0
-454 -455 0
-454 -456 0
-455 -456 0
457 458 459 460 461 462 463 464 465 466 0
-457 -458 0
-457 -459 0
-457 -460 0
-457 -461 0
-457 -462 0
-457 -463 0
-457 -464 0
-457 -465 0
-457 -466 0
-458 -459 0
-458 -460 0
-458 -461 0
-458 -462 0
-458 -463 0
-458 -464 0
-458 -465 0
-458 -466 0
-459 -460 0
-459 -461 0
-459 -462 0
-459 -463 0
-459 -464 0
-459 -465 0
-459 -466 0
-460 -461 0
-460 -462 0
-460 -463 0
-460 -464 0
-460 -465 0
-460 -466 0
-461 -462 0
-461 -463 0
-461 -464 0
-461 -465 0
-461 -466 0
-462 -463 0
-462 -464 0
-462 -465 0
-462 -466 0
-463 -464 0
-463 -465 0
-463 -466 0
-464 -465 0
-464 -466 0
-465 -466 0
467 468 469 470 471 472 0
-467 -468 0
-467 -469 0
-467 -470 0
-467 -471 0
-467 -472 0
-468 -469 0
-468 -470 0
-468 -471 0
-468 -472 0
-469 -470 0
-469 -471 0
-469 -472 0
-470 -471 0
-470 -472 0
-471 -472 0
473 474 475 476 477 478 479 0
-473 -474 0
-473 -475 0
-473 -476 0
-473 -477 0
-473 -478 0
-473 -479 0
-474 -475 0
-474 -476 0
-474 -477 0
-474 -478 0
-474 -479 0
-475 -476 0
-475 -477 0
-475 -478 0
-475 -479 0
-476 -477 0
-476 -478 0
-476 -479 0
-477 -478 0
-477 -479 0
-478 -479 0
480 481 482 483 484 485 486 487 488 0
-480 -481 0
-480 -482 0
-480 -483 0
-480 -484 0
-480 -485 0
-480 -486 0
-480 -487 0
-480 -488 0
-481 -482 0
-481 -483 0
-481 -484 0
-481 -485 0
-481 -486 0
-481 -487 0
-481 -488 0
-482 -483 0
-482 -484 0
-482 -485 0
-482 -486 0
-482 -487 0
-482 -488 0
-483 -484 0
-483 -485 0
-483 -486 0
-483 -487 0
-483 -488 0
-484 -485 0
-484 -486 0
-484 -487 0
-484 -488 0
-485 -486 0
-485 -487 0
-485 -488 0
-486 -487 0
-486 -488 0
-487 -488 0
489 490 491 492 493 494 495 0
-489 -490 0
-489 -491 0
-489 -492 0
-489 -493 0
-489 -494 0
-489 -495 0
-490 -491 0
-490 -492 0
-490 -493 0
-490 -494 0
-490 -495 0
-491 -492 0
-491 -493 0
-491 -494 0
-491 -495 0
-492 -493 0
-492 -494 0
-492 -495 0
-493 -494 0
-493 -495 0
-494 -495 0
496 497 498 499 500 501 502 0
-496 -497 0
-496 -498 0
-496 -499 0
-496 -500 0
-496 -501 0
-496 -502 0
-497 -498 0
-497 -499 0
-497 -500 0
-497 -501 0
-497 -502 0
-498 -499 0
-498 -500 0
-498 -501 0
-498 -502 0
-499 -500 0
-499 -501 0
-499 -502 0
-500 -501 0
-500 -502 0
-501 -502 0
503 504 505 506 507 508 509 0
-503 -504 0
-503 -505 0
-503 -506 0
-503 -507 0
-503 -508 0
-503 -509 0
-504 -505 0
-504 -506 0
-504 -507 0
-504 -508 0
-504 -509 0
-505 -506 0
-505 -507 0
-505 -508 0
-505 -509 0
-506 -507 0
-506 -508 0
-506 -509 0
-507 -508 0
-507 -509 0
-508 -509 0
510 511 512 513 514 515 516 517 518 0
-510 -511 0
-510 -512 0
-510 -513 0
-510 -514 0
-510 -515 0
-510 -516 0
-510 -517 0
-510 -518 0
-511 -512 0
-511 -513 0
-511 -514 0
-511 -515 0
-511 -516 0
-511 -517 0
-511 -518 0
-512 -513 0
-512 -514 0
-512 -515 0
-512 -516 0
-512 -517 0
-512 -518 0
-513 -514 0
-513 -515 0
-513 -516 0
-513 -517 0
-513 -518 0
-514 -515 0
-514 -516 0
-514 -517 0
-514 -518 0
-515 -516 0
-515 -517 0
-515 -518 0
-516 -517 0
-516 -518 0
-517 -518 0
519 520 521 522 523 524 525 0
-519 -520 0
-519 -521 0
-519 -522 0
-519 -523 0
-519 -524 0
-519 -525 0
-520 -521 0
-520 -522 0
-520 -523 0
-520 -524 0
-520 -525 0
-521 -522 0
-521 -523 0
-521 -524 0
-521 -525 0
-522 -523 0
-522 -524 0
-522 -525 0
-523 -524 0
-523 -525 0
-524 -525 0
526 527 528 529 530 531 532 533 0
-526 -527 0
-526 -528 0
-526 -529 0
-526 -530 0
-526 -531 0
-526 -532 0
-526 -533 0
-527 -528 0
-527 -529 0
-527 -530 0
-527 -531 0
-527 -532 0
-527 -533 0
-528 -529 0
-528 -530 0
-528 -531 0
-528 -532 0
-528 -533 0
-529 -530 0
-529 -531 0
-529 -532 0
-529 -533 0
-530 -531 0
-530 -532 0
-530 -533 0
-531 -532 0
-531 -533 0
-532 -533 0
534 535 536 537 538 539 540 0
-534 -535 0
-534 -536 0
-534 -537 0
-534 -538 0
-534 -539 0
-534 -540 0
-535 -536 0
-535 -537 0
-535 -538 0
-535 -539 0
-535 -540 0
-536 -537 0
-536 -538 0
-536 -539 0
-536 -540 0
-537 -538 0
-537 -539 0
-537 -540 0
-538 -539 0
-538 -540 0
-539 -540 0
541 542 543 544 545 546 547 0
-541 -542 0
-541 -543 0
-541 -544 0
-541 -545 0
-541 -546 0
-541 -547 0
-542 -543 0
-542 -544 0
-542 -545 0
-542 -546 0
-542 -547 0
-543 -544 0
-543 -545 0
-543 -546 0
-543 -547 0
-544 -545 0
-544 -546 0
-544 -547 0
-545 -546 0
-545 -547 0
-546 -547 0
548 549 550 551 552 553 554 0
-548 -549 0
-548 -550 0
-548 -551 0
-548 -552 0
-548 -553 0
-548 -554 0
-549 -550 0
-549 -551 0
-549 -552 0
-549 -553 0
-549 -554 0
-550 -551 0
-550 -552 0
-550 -553 0
-550 -554 0
-551 -552 0
-551 -553 0
-551 -554 0
-552 -553 0
-552 -554 0
-553 -554 0
555 556 557 558 559 560 0
-555 -556 0
-555 -557 0
-555 -558 0
-555 -559 0
-555 -560 0
-556 -557 0
-556 -558 0
-556 -559 0
-556 -560 0
-557 -558 0
-557 -559 0
-557 -560 0
-558 -559 0
-558 -560 0
-559 -560 0
561 562 563 564 565 566 567 0
-561 -562 0
-561 -563 0
-561 -564 0
-561 -565 0
-561 -566 0
-561 -567 0
-562 -563 0
-562 -564 0
-562 -565 0
-562 -566 0
-562 -567 0
-563 -564 0
-563 -565 0
-563 -566 0
-563 -567 0
-564 -565 0
-564 -566 0
-564 -567 0
-565 -566 0
-565 -567 0
-566 -567 0
568 569 570 571 572 573 0
-568 -569 0
-568 -570 0
-568 -571 0
-568 -572 0
-568 -573 0
-569 -570 0
-569 -571 0
-569 -572 0
-569 -573 0
-570 -571 0
-570 -572 0
-570 -573 0
-571 -572 0
-571 -573 0
-572 -573 0
574 575 576 577 578 579 580 581 582 0
-574 -575 0
-574 -576 0
-574 -577 0
-574 -578 0
-574 -579 0
-574 -580 0
-574 -581 0
-574 -582 0
-575 -576 0
-575 -577 0
-575 -578 0
-575 -579 0
-575 -580 0
-575 -581 0
-575 -582 0
-576 -577 0
-576 -578 0
-576 -579 0
-576 -580 0
-576 -581 0
-576 -582 0
-577 -578 0
-577 -579 0
-577 -580 0
-577 -581 0
-577 -582 0
-578 -579 0
-578 -580 0
-578 -581 0
-578 -582 0
-579 -580 0
-579 -581 0
-579 -582 0
-580 -581 0
-580 -582 0
-581 -582 0
583 584 585 586 587 588 0
-583 -584 0
-583 -585 0
-583 -586 0
-583 -587 0
-583 -588 0
-584 -585 0
-584 -586 0
-584 -587 0
-584 -588 0
-585 -586 0
-585 -587 0
-585 -588 0
-586 -587 0
-586 -588 0
-587 -588 0
589 590 591 592 593 594 595 0
-589 -590 0
-589 -591 0
-589 -592 0
-589 -593 0
-589 -594 0
-589 -595 0
-590 -591 0
-590 -592 0
-590 -593 0
-590 -594 0
-590 -595 0
-591 -592 0
-591 -593 0
-591 -594 0
-591 -595 0
-592 -593 0
-592 -594 0
-592 -595 0
-593 -594 0
-593 -595 0
-594 -595 0
596 597 598 599 600 601 602 0
-596 -597 0
-596 -598 0
-596 -599 0
-596 -600 0
-596 -601 0
-596 -602 0
-597 -598 0
-597 -599 0
-597 -600 0
-597 -601 0
-597 -602 0
-598 -599 0
-598 -600 0
-598 -601 0
-598 -602 0
-599 -600 0
-599 -601 0
-599 -602 0
-600 -601 0
-600 -602 0
-601 -602 0
603 604 605 606 607 608 609 0
-603 -604 0
-603 -605 0
-603 -606 0
-603 -607 0
-603 -608 0
-603 -609 0
-604 -605 0
-604 -606 0
-604 -607 0
-604 -608 0
-604 -609 0
-605 -606 0
-605 -607 0
-605 -608 0
-605 -609 0
-606 -607 0
-606 -608 0
-606 -609 0
-607 -608 0
-607 -609 0
-608 -609 0
610 611 612 613 614 615 616 0
-610 -611 0
-610 -612 0
-610 -613 0
-610 -614 0
-610 -615 0
-610 -616 0
-611 -612 0
-611 -613 0
-611 -614 0
-611 -615 0
-611 -616 0
-612 -613 0
-612 -614 0
-612 -615 0
-612 -616 0
-613 -614 0
-613 -615 0
-613 -616 0
-614 -615 0
-614 -616 0
-615 -616 0
617 618 619 620 621 622 623 624 625 0
-617 -618 0
-617 -619 0
-617 -620 0
-617 -621 0
-617 -622 0
-617 -623 0
-617 -624 0
-617 -625 0
-618 -619 0
-618 -620 0
-618 -621 0
-618 -622 0
-618 -623 0
-618 -624 0
-618 -625 0
-619 -620 0
-619 -621 0
-619 -622 0
-619 -623 0
-619 -624 0
-619 -625 0
-620 -621 0
-620 -622 0
-620 -623 0
-620 -624 0
-620 -625 0
-621 -622 0
-621 -623 0
-621 -624 0
-621 -625 0
-622 -623 0
-622 -624 0
-622 -625 0
-623 -624 0
-623 -625 0
-624 -625 0
626 627 628 629 630 631 632 633 0
-626 -627 0
-626 -628 0
-626 -629 0
-626 -630 0
-626 -631 0
-626 -632 0
-626 -633 0
-627 -628 0
-627 -629 0
-627 -630 0
-627 -631 0
-627 -632 0
-627 -633 0
-628 -629 0
-628 -630 0
-628 -631 0
-628 -632 0
-628 -633 0
-629 -630 0
-629 -631 0
-629 -632 0
-629 -633 0
-630 -631 0
-630 -632 0
-630 -633 0
-631 -632 0
-631 -633 0
-632 -633 0
634 635 636 637 638 639 640 0
-634 -635 0
-634 -636 0
-634 -637 0
-634 -638 0
-634 -639 0
-634 -640 0
-635 -636 0
-635 -637 0
-635 -638 0
-635 -639 0
-635 -640 0
-636 -637 0
-636 -638 0
-636 -639 0
-636 -640 0
-637 -638 0
-637 -639 0
-637 -640 0
-638 -639 0
-638 -640 0
-639 -640 0
641 642 643 644 645 646 647 0
-641 -642 0
-641 -643 0
-641 -644 0
-641 -645 0
-641 -646 0
-641 -647 0
-642 -643 0
-642 -644 0
-642 -645 0
-642 -646 0
-642 -647 0
-643 -644 0
-643 -645 0
-643 -646 0
-643 -647 0
-644 -645 0
-644 -646 0
-644 -647 0
-645 -646 0
-645 -647 0
-646 -647 0
648 649 650 651 652 653 654 655 656 0
-648 -649 0
-648 -650 0
-648 -651 0
-648 -652 0
-648 -653 0
-648 -654 0
-648 -655 0
-648 -656 0
-649 -650 0
-649 -651 0
-649 -652 0
-649 -653 0
-649 -654 0
-649 -655 0
-649 -656 0
-650 -651 0
-650 -652 0
-650 -653 0
-650 -654 0
-650 -655 0
-650 -656 0
-651 -652 0
-651 -653 0
-651 -654 0
-651 -655 0
-651 -656 0
-652 -653 0
-652 -654 0
-652 -655 0
-652 -656 0
-653 -654 0
-653 -655 0
-653 -656 0
-654 -655 0
-654 -656 0
-655 -656 0
657 658 659 660 661 662 663 0
-657 -658 0
-657 -659 0
-657 -660 0
-657 -661 0
-657 -662 0
-657 -663 0
-658 -659 0
-658 -660 0
-658 -661 0
-658 -662 0
-658 -663 0
-659 -660 0
-659 -661 0
-659 -662 0
-659 -663 0
-660 -661 0
-660 -662 0
-660 -663 0
-661 -662 0
-661 -663 0
-662 -663 0
664 665 666 667 668 669 670 0
-664 -665 0
-664 -666 0
-664 -667 0
-664 -668 0
-664 -669 0
-664 -670 0
-665 -666 0
-665 -667 0
-665 -668 0
-665 -669 0
-665 -670 0
-666 -667 0
-666 -668 0
-666 -669 0
-666 -670 0
-667 -668 0
-667 -669 0
-667 -670 0
-668 -669 0
-668 -670 0
-669 -670 0
671 672 673 674 675 676 677 678 0
-671 -672 0
-671 -673 0
-671 -674 0
-671 -675 0
-671 -676 0
-671 -677 0
-671 -678 0
-672 -673 0
-672 -674 0
-672 -675 0
-672 -676 0
-672 -677 0
-672 -678 0
-673 -674 0
-673 -675 0
-673 -676 0
-673 -677 0
-673 -678 0
-674 -675 0
-674 -676 0
-674 -677 0
-674 -678 0
-675 -676 0
-675 -677 0
-675 -678 0
-676 -677 0
-676 -678 0
-677 -678 0
679 680 681 682 683 684 685 0
-679 -680 0
-679 -681 0
-679 -682 0
-679 -683 0
-679 -684 0
-679 -685 0
-680 -681 0
-680 -682 0
-680 -683 0
-680 -684 0
-680 -685 0
-681 -682 0
-681 -683 0
-681 -684 0
-681 -685 0
-682 -683 0
-682 -684 0
-682 -685 0
-683 -684 0
-683 -685 0
-684 -685 0
686 687 688 689 690 691 692 0
-686 -687 0
-686 -688 0
-686 -689 0
-686 -690 0
-686 -691 0
-686 -692 0
-687 -688 0
-687 -689 0
-687 -690 0
-687 -691 0
-687 -692 0
-688 -689 0
-688 -690 0
-688 -691 0
-688 -692 0
-689 -690 0
-689 -691 0
-689 -692 0
-690 -691 0
-690 -692 0
-691 -692 0
693 694 695 696 697 698 699 0
-693 -694 0
-693 -695 0
-693 -696 0
-693 -697 0
-693 -698 0
-693 -699 0
-694 -695 0
-694 -696 0
-694 -697 0
-694 -698 0
-694 -699 0
-695 -696 0
-695 -697 0
-695 -698 0
-695 -699 0
-696 -697 0
-696 -698 0
-696 -699 0
-697 -698 0
-697 -699 0
-698 -699 0
700 701 702 703 704 705 706 707 0
-700 -701 0
-700 -702 0
-700 -703 0
-700 -704 0
-700 -705 0
-700 -706 0
-700 -707 0
-701 -702 0
-701 -703 0
-701 -704 0
-701 -705 0
-701 -706 0
-701 -707 0
-702 -703 0
-702 -704 0
-702 -705 0
-702 -706 0
-702 -707 0
-703 -704 0
-703 -705 0
-703 -706 0
-703 -707 0
-704 -705 0
-704 -706 0
-704 -707 0
-705 -706 0
-705 -707 0
-706 -707 0
708 709 710 711 712 713 714 715 716 717 0
-708 -709 0
-708 -710 0
-708 -711 0
-708 -712 0
-708 -713 0
-708 -714 0
-708 -715 0
-708 -716 0
-708 -717 0
-709 -710 0
-709 -711 0
-709 -712 0
-709 -713 0
-709 -714 0
-709 -715 0
-709 -716 0
-709 -717 0
-710 -711 0
-710 -712 0
-710 -713 0
-710 -714 0
-710 -715 0
-710 -716 0
-710 -717 0
-711 -712 0
-711 -713 0
-711 -714 0
-711 -715 0
-711 -716 0
-711 -717 0
-712 -713 0
-712 -714 0
-712 -715 0
-712 -716 0
-712 -717 0
-713 -714 0
-713 -715 0
-713 -716 0
-713 -717 0
-714 -715 0
-714 -716 0
-714 -717 0
-715 -716 0
-715 -717 0
-716 -717 0
718 719 720 721 722 723 0
-718 -719 0
-718 -720 0
-718 -721 0
-718 -722 0
-718 -723 0
-719 -720 0
-719 -721 0
-719 -722 0
-719 -723 0
-720 -721 0
-720 -722 0
-720 -723 0
-721 -722 0
-721 -723 0
-722 -723 0
724 725 726 727 728 729 0
-724 -725 0
-724 -726 0
-724 -727 0
-724 -728 0
-724 -729 0
-725 -726 0
-725 -727 0
-725 -728 0
-725 -729 0
-726 -727 0
-726 -728 0
-726 -729 0
-727 -728 0
-727 -729 0
-728 -729 0
730 731 732 733 734 735 0
-730 -731 0
-730 -732 0
-730 -733 0
-730 -734 0
-730 -735 0
-731 -732 0
-731 -733 0
-731 -734 0
-731 -735 0
-732 -733 0
-732 -734 0
-732 -735 0
-733 -734 0
-733 -735 0
-734 -735 0
736 737 738 739 740 741 742 0
-736 -737 0
-736 -738 0
-736 -739 0
-736 -740 0
-736 -741 0
-736 -742 0
-737 -738 0
-737 -739 0
-737 -740 0
-737 -741 0
-737 -742 0
-738 -739 0
-738 -740 0
-738 -741 0
-738 -742 0
-739 -740 0
-739 -741 0
-739 -742 0
-740 -741 0
-740 -742 0
-741 -742 0
743 744 745 746 747 748 0
-743 -744 0
-743 -745 0
-743 -746 0
-743 -747 0
-743 -748 0
-744 -745 0
-744 -746 0
-744 -747 0
-744 -748 0
-745 -746 0
-745 -747 0
-745 -748 0
-746 -747 0
-746 -748 0
-747 -748 0
749 750 751 752 753 754 755 0
-749 -750 0
-749 -751 0
-749 -752 0
-749 -753 0
-749 -754 0
-749 -755 0
-750 -751 0
-750 -752 0
-750 -753 0
-750 -754 0
-750 -755 0
-751 -752 0
-751 -753 0
-751 -754 0
-751 -755 0
-752 -753 0
-752 -754 0
-752 -755 0
-753 -754 0
-753 -755 0
-754 -755 0
756 757 758 759 760 761 762 0
-756 -757 0
-756 -758 0
-756 -759 0
-756 -760 0
-756 -761 0
-756 -762 0
-757 -758 0
-757 -759 0
-757 -760 0
-757 -761 0
-757 -762 0
-758 -759 0
-758 -760 0
-758 -761 0
-758 -762 0
-759 -760 0
-759 -761 0
-759 -762 0
-760 -761 0
-760 -762 0
-761 -762 0
763 764 765 766 767 768 769 770 0
-763 -764 0
-763 -765 0
-763 -766 0
-763 -767 0
-763 -768 0
-763 -769 0
-763 -770 0
-764 -765 0
-764 -766 0
-764 -767 0
-764 -768 0
-764 -769 0
-764 -770 0
-765 -766 0
-765 -767 0
-765 -768 0
-765 -769 0
-765 -770 0
-766 -767 0
-766 -768 0
-766 -769 0
-766 -770 0
-767 -768 0
-767 -769 0
-767 -770 0
-768 -769 0
-768 -770 0
-769 -770 0
771 772 773 774 775 776 777 778 0
-771 -772 0
-771 -773 0
-771 -774 0
-771 -775 0
-771 -776 0
-771 -777 0
-771 -778 0
-772 -773 0
-772 -774 0
-772 -775 0
-772 -776 0
-772 -777 0
-772 -778 0
-773 -774 0
-773 -775 0
-773 -776 0
-773 -777 0
-773 -778 0
-774 -775 0
-774 -776 0
-774 -777 0
-774 -778 0
-775 -776 0
-775 -777 0
-775 -778 0
-776 -777 0
-776 -778 0
-777 -778 0
779 780 781 782 783 784 785 0
-779 -780 0
-779 -781 0
-779 -782 0
-779 -783 0
-779 -784 0
-779 -785 0
-780 -781 0
-780 -782 0
-780 -783 0
-780 -784 0
-780 -785 0
-781 -782 0
-781 -783 0
-781 -784 0
-781 -785 0
-782 -783 0
-782 -784 0
-782 -785 0
-783 -784 0
-783 -785 0
-784 -785 0
786 0
787 788 789 790 791 792 793 0
-787 -788 0
-787 -789 0
-787 -790 0
-787 -791 0
-787 -792 0
-787 -793 0
-788 -789 0
-788 -790 0
-788 -791 0
-788 -792 0
-788 -793 0
-789 -790 0
-789 -791 0
-789 -792 0
-789 -793 0
-790 -791 0
-790 -792 0
-790 -793 0
-791 -792 0
-791 -793 0
-792 -793 0
794 795 796 797 798 799 0
-794 -795 0
-794 -796 0
-794 -797 0
-794 -798 0
-794 -799 0
-795 -796 0
-795 -797 0
-795 -798 0
-795 -799 0
-796 -797 0
-796 -798 0
-796 -799 0
-797 -798 0
-797 -799 0
-798 -799 0
800 801 802 803 804 805 806 0
-800 -801 0
-800 -802 0
-800 -803 0
-800 -804 0
-800 -805 0
-800 -806 0
-801 -802 0
-801 -803 0
-801 -804 0
-801 -805 0
-801 -806 0
-802 -803 0
-802 -804 0
-802 -805 0
-802 -806 0
-803 -804 0
-803 -805 0
-803 -806 0
-804 -805 0
-804 -806 0
-805 -806 0
807 808 809 810 811 812 813 0
-807 -808 0
-807 -809 0
-807 -810 0
-807 -811 0
-807 -812 0
-807 -813 0
-808 -809 0
-808 -810 0
-808 -811 0
-808 -812 0
-808 -813 0
-809 -810 0
-809 -811 0
-809 -812 0
-809 -813 0
-810 -811 0
-810 -812 0
-810 -813 0
-811 -812 0
-811 -813 0
-812 -813 0
814 815 816 817 818 819 820 0
-814 -815 0
-814 -816 0
-814 -817 0
-814 -818 0
-814 -819 0
-814 -820 0
-815 -816 0
-815 -817 0
-815 -818 0
-815 -819 0
-815 -820 0
-816 -817 0
-816 -818 0
-816 -819 0
-816 -820 0
-817 -818 0
-817 -819 0
-817 -820 0
-818 -819 0
-818 -820 0
-819 -820 0
821 822 823 824 825 826 827 828 0
-821 -822 0
-821 -823 0
-821 -824 0
-821 -825 0
-821 -826 0
-821 -827 0
-821 -828 0
-822 -823 0
-822 -824 0
-822 -825 0
-822 -826 0
-822 -827 0
-822 -828 0
-823 -824 0
-823 -825 0
-823 -826 0
-823 -827 0
-823 -828 0
-824 -825 0
-824 -826 0
-824 -827 0
-824 -828 0
-825 -826 0
-825 -827 0
-825 -828 0
-826 -827 0
-826 -828 0
-827 -828 0
829 830 831 832 833 834 0
-829 -830 0
-829 -831 0
-829 -832 0
-829 -833 0
-829 -834 0
-830 -831 0
-830 -832 0
-830 -833 0
-830 -834 0
-831 -832 0
-831 -833 0
-831 -834 0
-832 -833 0
-832 -834 0
-833 -834 0
835 836 837 838 839 840 0
-835 -836 0
-835 -837 0
-835 -838 0
-835 -839 0
-835 -840 0
-836 -837 0
-836 -838 0
-836 -839 0
-836 -840 0
-837 -838 0
-837 -839 0
-837 -840 0
-838 -839 0
-838 -840 0
-839 -840 0
841 842 843 844 845 846 847 0
-841 -842 0
-841 -843 0
-841 -844 0
-841 -845 0
-841 -846 0
-841 -847 0
-842 -843 0
-842 -844 0
-842 -845 0
-842 -846 0
-842 -847 0
-843 -844 0
-843 -845 0
-843 -846 0
-843 -847 0
-844 -845 0
-844 -846 0
-844 -847 0
-845 -846 0
-845 -847 0
-846 -847 0
848 849 850 851 852 853 0
-848 -849 0
-848 -850 0
-848 -851 0
-848 -852 0
-848 -853 0
-849 -850 0
-849 -851 0
-849 -852 0
-849 -853 0
-850 -851 0
-850 -852 0
-850 -853 0
-851 -852 0
-851 -853 0
-852 -853 0
854 855 856 857 858 859 860 861 862 0
-854 -855 0
-854 -856 0
-854 -857 0
-854 -858 0
-854 -859 0
-854 -860 0
-854 -861 0
-854 -862 0
-855 -856 0
-855 -857 0
-855 -858 0
-855 -859 0
-855 -860 0
-855 -861 0
-855 -862 0
-856 -857 0
-856 -858 0
-856 -859 0
-856 -860 0
-856 -861 0
-856 -862 0
-857 -858 0
-857 -859 0
-857 -860 0
-857 -861 0
-857 -862 0
-858 -859 0
-858 -860 0
-858 -861 0
-858 -862 0
-859 -860 0
-859 -861 0
-859 -862 0
-860 -861 0
-860 -862 0
-861 -862 0
863 864 865 866 867 868 869 0
-863 -864 0
-863 -865 0
-863 -866 0
-863 -867 0
-863 -868 0
-863 -869 0
-864 -865 0
-864 -866 0
-864 -867 0
-864 -868 0
-864 -869 0
-865 -866 0
-865 -867 0
-865 -868 0
-865 -869 0
-866 -867 0
-866 -868 0
-866 -869 0
-867 -868 0
-867 -869 0
-868 -869 0
870 871 872 873 874 875 876 877 0
-870 -871 0
-870 -872 0
-870 -873 0
-870 -874 0
-870 -875 0
-870 -876 0
-870 -877 0
-871 -872 0
-871 -873 0
-871 -874 0
-871 -875 0
-871 -876 0
-871 -877 0
-872 -873 0
-872 -874 0
-872 -875 0
-872 -876 0
-872 -877 0
-873 -874 0
-873 -875 0
-873 -876 0
-873 -877 0
-874 -875 0
-874 -876 0
-874 -877 0
-875 -876 0
-875 -877 0
-876 -877 0
878 879 880 881 882 883 884 885 886 887 0
-878 -879 0
-878 -880 0
-878 -881 0
-878 -882 0
-878 -883 0
-878 -884 0
-878 -885 0
-878 -886 0
-878 -887 0
-879 -880 0
-879 -881 0
-879 -882 0
-879 -883 0
-879 -884 0
-879 -885 0
-879 -886 0
-879 -887 0
-880 -881 0
-880 -882 0
-880 -883 0
-880 -884 0
-880 -885 0
-880 -886 0
-880 -887 0
-881 -882 0
-881 -883 0
-881 -884 0
-881 -885 0
-881 -886 0
-881 -887 0
-882 -883 0
-882 -884 0
-882 -885 0
-882 -886 0
-882 -887 0
-883 -884 0
-883 -885 0
-883 -886 0
-883 -887 0
-884 -885 0
-884 -886 0
-884 -887 0
-885 -886 0
-885 -887 0
-886 -887 0
888 889 890 891 892 893 0
-888 -889 0
-888 -890 0
-888 -891 0
-888 -892 0
-888 -893 0
-889 -890 0
-889 -891 0
-889 -892 0
-889 -893 0
-890 -891 0
-890 -892 0
-890 -893 0
-891 -892 0
-891 -893 0
-892 -893 0
894 895 896 897 898 899 900 901 902 0
-894 -895 0
-894 -896 0
-894 -897 0
-894 -898 0
-894 -899 0
-894 -900 0
-894 -901 0
-894 -902 0
-895 -896 0
-895 -897 0
-895 -898 0
-895 -899 0
-895 -900 0
-895 -901 0
-895 -902 0
-896 -897 0
-896 -898 0
-896 -899 0
-896 -900 0
-896 -901 0
-896 -902 0
-897 -898 0
-897 -899 0
-897 -900 0
-897 -901 0
-897 -902 0
-898 -899 0
-898 -900 0
-898 -901 0
-898 -902 0
-899 -900 0
-899 -901 0
-899 -902 0
-900 -901 0
-900 -902 0
-901 -902 0
903 904 905 906 907 908 0
-903 -904 0
-903 -905 0
-903 -906 0
-903 -907 0
-903 -908 0
-904 -905 0
-904 -906 0
-904 -907 0
-904 -908 0
-905 -906 0
-905 -907 0
-905 -908 0
-906 -907 0
-906 -908 0
-907 -908 0
909 910 911 912 913 914 0
-909 -910 0
-909 -911 0
-909 -912 0
-909 -913 0
-909 -914 0
-910 -911 0
-910 -912 0
-910 -913 0
-910 -914 0
-911 -912 0
-911 -913 0
-911 -914 0
-912 -913 0
-912 -914 0
-913 -914 0
915 916 917 918 919 920 921 922 0
-915 -916 0
-915 -917 0
-915 -918 0
-915 -919 0
-915 -920 0
-915 -921 0
-915 -922 0
-916 -917 0
-916 -918 0
-916 -919 0
-916 -920 0
-916 -921 0
-916 -922 0
-917 -918 0
-917 -919 0
-917 -920 0
-917 -921 0
-917 -922 0
-918 -919 0
-918 -920 0
-918 -921 0
-918 -922 0
-919 -920 0
-919 -921 0
-919 -922 0
-920 -921 0
-920 -922 0
-921 -922 0
923 924 925 926 927 928 929 0
-923 -924 0
-923 -925 0
-923 -926 0
-923 -927 0
-923 -928 0
-923 -929 0
-924 -925 0
-924 -926 0
-924 -927 0
-924 -928 0
-924 -929 0
-925 -926 0
-925 -927 0
-925 -928 0
-925 -929 0
-926 -927 0
-926 -928 0
-926 -929 0
-927 -928 0
-927 -929 0
-928 -929 0
930 931 932 933 934 935 936 937 0
-930 -931 0
-930 -932 0
-930 -933 0
-930 -934 0
-930 -935 0
-930 -936 0
-930 -937 0
-931 -932 0
-931 -933 0
-931 -934 0
-931 -935 0
-931 -936 0
-931 -937 0
-932 -933 0
-932 -934 0
-932 -935 0
-932 -936 0
-932 -937 0
-933 -934 0
-933 -935 0
-933 -936 0
-933 -937 0
-934 -935 0
-934 -936 0
-934 -937 0
-935 -936 0
-935 -937 0
-936 -937 0
938 939 940 941 942 943 0
-938 -939 0
-938 -940 0
-938 -941 0
-938 -942 0
-938 -943 0
-939 -940 0
-939 -941 0
-939 -942 0
-939 -943 0
-940 -941 0
-940 -942 0
-940 -943 0
-941 -942 0
-941 -943 0
-942 -943 0
944 945 946 947 948 949 950 0
-944 -945 0
-944 -946 0
-944 -947 0
-944 -948 0
-944 -949 0
-944 -950 0
-945 -946 0
-945 -947 0
-945 -948 0
-945 -949 0
-945 -950 0
-946 -947 0
-946 -948 0
-946 -949 0
-946 -950 0
-947 -948 0
-947 -949 0
-947 -950 0
-948 -949 0
-948 -950 0
-949 -950 0
951 952 953 954 955 956 957 0
-951 -952 0
-951 -953 0
-951 -954 0
-951 -955 0
-951 -956 0
-951 -957 0
-952 -953 0
-952 -954 0
-952 -955 0
-952 -956 0
-952 -957 0
-953 -954 0
-953 -955 0
-953 -956 0
-953 -957 0
-954 -955 0
-954 -956 0
-954 -957 0
-955 -956 0
-955 -957 0
-956 -957 0
958 959 960 961 962 963 964 965 0
-958 -959 0
-958 -960 0
-958 -961 0
-958 -962 0
-958 -963 0
-958 -964 0
-958 -965 0
-959 -960 0
-959 -961 0
-959 -962 0
-959 -963 0
-959 -964 0
-959 -965 0
-960 -961 0
-960 -962 0
-960 -963 0
-960 -964 0
-960 -965 0
-961 -962 0
-961 -963 0
-961 -964 0
-961 -965 0
-962 -963 0
-962 -964 0
-962 -965 0
-963 -964 0
-963 -965 0
-964 -965 0
966 967 968 969 970 971 972 973 0
-966 -967 0
-966 -968 0
-966 -969 0
-966 -970 0
-966 -971 0
-966 -972 0
-966 -973 0
-967 -968 0
-967 -969 0
-967 -970 0
-967 -971 0
-967 -972 0
-967 -973 0
-968 -969 0
-968 -970 0
-968 -971 0
-968 -972 0
-968 -973 0
-969 -970 0
-969 -971 0
-969 -972 0
-969 -973 0
-970 -971 0
-970 -972 0
-970 -973 0
-971 -972 0
-971 -973 0
-972 -973 0
974 975 976 977 978 979 980 0
-974 -975 0
-974 -976 0
-974 -977 0
-974 -978 0
-974 -979 0
-974 -980 0
-975 -976 0
-975 -977 0
-975 -978 0
-975 -979 0
-975 -980 0
-976 -977 0
-976 -978 0
-976 -979 0
-976 -980 0
-977 -978 0
-977 -979 0
-977 -980 0
-978 -979 0
-978 -980 0
-979 -980 0
981 982 983 984 985 986 987 988 989 0
-981 -982 0
-981 -983 0
-981 -984 0
-981 -985 0
-981 -986 0
-981 -987 0
-981 -988 0
-981 -989 0
-982 -983 0
-982 -984 0
-982 -985 0
-982 -986 0
-982 -987 0
-982 -988 0
-982 -989 0
-983 -984 0
-983 -985 0
-983 -986 0
-983 -987 0
-983 -988 0
-983 -989 0
-984 -985 0
-984 -986 0
-984 -987 0
-984 -988 0
-984 -989 0
-985 -986 0
-985 -987 0
-985 -988 0
-985 -989 0
-986 -987 0
-986 -988 0
-986 -989 0
-987 -988 0
-987 -989 0
-988 -989 0
990 991 992 993 994 995 996 997 998 0
-990 -991 0
-990 -992 0
-990 -993 0
-990 -994 0
-990 -995 0
-990 -996 0
-990 -997 0
-990 -998 0
-991 -992 0
-991 -993 0
-991 -994 0
-991 -995 0
-991 -996 0
-991 -997 0
-991 -998 0
-992 -993 0
-992 -994 0
-992 -995 0
-992 -996 0
-992 -997 0
-992 -998 0
-993 -994 0
-993 -995 0
-993 -996 0
-993 -997 0
-993 -998 0
-994 -995 0
-994 -996 0
-994 -997 0
-994 -998 0
-995 -996 0
-995 -997 0
-995 -998 0
-996 -997 0
-996 -998 0
-997 -998 0
999 1000 1001 1002 1003 1004 1005 0
-999 -1000 0
-999 -1001 0
-999 -1002 0
-999 -1003 0
-999 -1004 0
-999 -1005 0
-1000 -1001 0
-1000 -1002 0
-1000 -1003 0
-1000 -1004 0
-1000 -1005 0
-1001 -1002 0
-1001 -1003 0
-1001 -1004 0
-1001 -1005 0
-1002 -1003 0
-1002 -1004 0
-1002 -1005 0
-1003 -1004 0
-1003 -1005 0
-1004 -1005 0
1006 1007 1008 1009 1010 1011 1012 1013 0
-1006 -1007 0
-1006 -1008 0
-1006 -1009 0
-1006 -1010 0
-1006 -1011 0
-1006 -1012 0
-1006 -1013 0
-1007 -1008 0
-1007 -1009 0
-1007 -1010 0
-1007 -1011 0
-1007 -1012 0
-1007 -1013 0
-1008 -1009 0
-1008 -1010 0
-1008 -1011 0
-1008 -1012 0
-1008 -1013 0
-1009 -1010 0
-1009 -1011 0
-1009 -1012 0
-1009 -1013 0
-1010 -1011 0
-1010 -1012 0
-1010 -1013 0
-1011 -1012 0
-1011 -1013 0
-1012 -1013 0
1014 1015 1016 1017 1018 1019 1020 0
-1014 -1015 0
-1014 -1016 0
-1014 -1017 0
-1014 -1018 0
-1014 -1019 0
-1014 -1020 0
-1015 -1016 0
-1015 -1017 0
-1015 -1018 0
-1015 -1019 0
-1015 -1020 0
-1016 -1017 0
-1016 -1018 0
-1016 -1019 0
-1016 -1020 0
-1017 -1018 0
-1017 -1019 0
-1017 -1020 0
-1018 -1019 0
-1018 -1020 0
-1019 -1020 0
1021 1022 1023 1024 1025 1026 1027 0
-1021 -1022 0
-1021 -1023 0
-1021 -1024 0
-1021 -1025 0
-1021 -1026 0
-1021 -1027 0
-1022 -1023 0
-1022 -1024 0
-1022 -1025 0
-1022 -1026 0
-1022 -1027 0
-1023 -1024 0
-1023 -1025 0
-1023 -1026 0
-1023 -1027 0
-1024 -1025 0
-1024 -1026 0
-1024 -1027 0
-1025 -1026 0
-1025 -1027 0
-1026 -1027 0
1028 1029 1030 1031 1032 1033 1034 1035 0
-1028 -1029 0
-1028 -1030 0
-1028 -1031 0
-1028 -1032 0
-1028 -1033 0
-1028 -1034 0
-1028 -1035 0
-1029 -1030 0
-1029 -1031 0
-1029 -1032 0
-1029 -1033 0
-1029 -1034 0
-1029 -1035 0
-1030 -1031 0
-1030 -1032 0
-1030 -1033 0
-1030 -1034 0
-1030 -1035 0
-1031 -1032 0
-1031 -1033 0
-1031 -1034 0
-1031 -1035 0
-1032 -1033 0
-1032 -1034 0
-1032 -1035 0
-1033 -1034 0
-1033 -1035 0
-1034 -1035 0
1036 1037 1038 1039 1040 1041 1042 1043 0
-1036 -1037 0
-1036 -1038 0
-1036 -1039 0
-1036 -1040 0
-1036 -1041 0
-1036 -1042 0
-1036 -1043 0
-1037 -1038 0
-1037 -1039 0
-1037 -1040 0
-1037 -1041 0
-1037 -1042 0
-1037 -1043 0
-1038 -1039 0
-1038 -1040 0
-1038 -1041 0
-1038 -1042 0
-1038 -1043 0
-1039 -1040 0
-1039 -1041 0
-1039 -1042 0
-1039 -1043 0
-1040 -1041 0
-1040 -1042 0
-1040 -1043 0
-1041 -1042 0
-1041 -1043 0
-1042 -1043 0
1044 1045 1046 1047 1048 1049 1050 0
-1044 -1045 0
-1044 -1046 0
-1044 -1047 0
-1044 -1048 0
-1044 -1049 0
-1044 -1050 0
-1045 -1046 0
-1045 -1047 0
-1045 -1048 0
-1045 -1049 0
-1045 -1050 0
-1046 -1047 0
-1046 -1048 0
-1046 -1049 0
-1046 -1050 0
-1047 -1048 0
-1047 -1049 0
-1047 -1050 0
-1048 -1049 0
-1048 -1050 0
-1049 -1050 0
1051 1052 1053 1054 1055 1056 1057 1058 1059 0
-1051 -1052 0
-1051 -1053 0
-1051 -1054 0
-1051 -1055 0
-1051 -1056 0
-1051 -1057 0
-1051 -1058 0
-1051 -1059 0
-1052 -1053 0
-1052 -1054 0
-1052 -1055 0
-1052 -1056 0
-1052 -1057 0
-1052 -1058 0
-1052 -1059 0
-1053 -1054 0
-1053 -1055 0
-1053 -1056 0
-1053 -1057 0
-1053 -1058 0
-1053 -1059 0
-1054 -1055 0
-1054 -1056 0
-1054 -1057 0
-1054 -1058 0
-1054 -1059 0
-1055 -1056 0
-1055 -1057 0
-1055 -1058 0
-1055 -1059 0
-1056 -1057 0
-1056 -1058 0
-1056 -1059 0
-1057 -1058 0
-1057 -1059 0
-1058 -1059 0
1060 1061 1062 1063 1064 1065 1066 0
-1060 -1061 0
-1060 -1062 0
-1060 -1063 0
-1060 -1064 0
-1060 -1065 0
-1060 -1066 0
-1061 -1062 0
-1061 -1063 0
-1061 -1064 0
-1061 -1065 0
-1061 -1066 0
-1062 -1063 0
-1062 -1064 0
-1062 -1065 0
-1062 -1066 0
-1063 -1064 0
-1063 -1065 0
-1063 -1066 0
-1064 -1065 0
-1064 -1066 0
-1065 -1066 0
1067 1068 1069 1070 1071 1072 1073 0
-1067 -1068 0
-1067 -1069 0
-1067 -1070 0
-1067 -1071 0
-1067 -1072 0
-1067 -1073 0
-1068 -1069 0
-1068 -1070 0
-1068 -1071 0
-1068 -1072 0
-1068 -1073 0
-1069 -1070 0
-1069 -1071 0
-1069 -1072 0
-1069 -1073 0
-1070 -1071 0
-1070 -1072 0
-1070 -1073 0
-1071 -1072 0
-1071 -1073 0
-1072 -1073 0
1074 1075 1076 1077 1078 1079 1080 1081 0
-1074 -1075 0
-1074 -1076 0
-1074 -1077 0
-1074 -1078 0
-1074 -1079 0
-1074 -1080 0
-1074 -1081 0
-1075 -1076 0
-1075 -1077 0
-1075 -1078 0
-1075 -1079 0
-1075 -1080 0
-1075 -1081 0
-1076 -1077 0
-1076 -1078 0
-1076 -1079 0
-1076 -1080 0
-1076 -1081 0
-1077 -1078 0
-1077 -1079 0
-1077 -1080 0
-1077 -1081 0
-1078 -1079 0
-1078 -1080 0
-1078 -1081 0
-1079 -1080 0
-1079 -1081 0
-1080 -1081 0
1082 1083 1084 1085 1086 1087 1088 0
-1082 -1083 0
-1082 -1084 0
-1082 -1085 0
-1082 -1086 0
-1082 -1087 0
-1082 -1088 0
-1083 -1084 0
-1083 -1085 0
-1083 -1086 0
-1083 -1087 0
-1083 -1088 0
-1084 -1085 0
-1084 -1086 0
-1084 -1087 0
-1084 -1088 0
-1085 -1086 0
-1085 -1087 0
-1085 -1088 0
-1086 -1087 0
-1086 -1088 0
-1087 -1088 0
1089 1090 1091 1092 1093 1094 1095 0
-1089 -1090 0
-1089 -1091 0
-1089 -1092 0
-1089 -1093 0
-1089 -1094 0
-1089 -1095 0
-1090 -1091 0
-1090 -1092 0
-1090 -1093 0
-1090 -1094 0
-1090 -1095 0
-1091 -1092 0
-1091 -1093 0
-1091 -1094 0
-1091 -1095 0
-1092 -1093 0
-1092 -1094 0
-1092 -1095 0
-1093 -1094 0
-1093 -1095 0
-1094 -1095 0
1096 1097 1098 1099 1100 1101 1102 0
-1096 -1097 0
-1096 -1098 0
-1096 -1099 0
-1096 -1100 0
-1096 -1101 0
-1096 -1102 0
-1097 -1098 0
-1097 -1099 0
-1097 -1100 0
-1097 -1101 0
-1097 -1102 0
-1098 -1099 0
-1098 -1100 0
-1098 -1101 0
-1098 -1102 0
-1099 -1100 0
-1099 -1101 0
-1099 -1102 0
-1100 -1101 0
-1100 -1102 0
-1101 -1102 0
1103 1104 1105 1106 1107 1108 1109 1110 1111 0
-1103 -1104 0
-1103 -1105 0
-1103 -1106 0
-1103 -1107 0
-1103 -1108 0
-1103 -1109 0
-1103 -1110 0
-1103 -1111 0
-1104 -1105 0
-1104 -1106 0
-1104 -1107 0
-1104 -1108 0
-1104 -1109 0
-1104 -1110 0
-1104 -1111 0
-1105 -1106 0
-1105 -1107 0
-1105 -1108 0
-1105 -1109 0
-1105 -1110 0
-1105 -1111 0
-1106 -1107 0
-1106 -1108 0
-1106 -1109 0
-1106 -1110 0
-1106 -1111 0
-1107 -1108 0
-1107 -1109 0
-1107 -1110 0
-1107 -1111 0
-1108 -1109 0
-1108 -1110 0
-1108 -1111 0
-1109 -1110 0
-1109 -1111 0
-1110 -1111 0
1112 1113 1114 1115 1116 1117 1118 1119 1120 0
-1112 -1113 0
-1112 -1114 0
-1112 -1115 0
-1112 -1116 0
-1112 -1117 0
-1112 -1118 0
-1112 -1119 0
-1112 -1120 0
-1113 -1114 0
-1113 -1115 0
-1113 -1116 0
-1113 -1117 0
-1113 -1118 0
-1113 -1119 0
-1113 -1120 0
-1114 -1115 0
-1114 -1116 0
-1114 -1117 0
-1114 -1118 0
-1114 -1119 0
-1114 -1120 0
-1115 -1116 0
-1115 -1117 0
-1115 -1118 0
-1115 -1119 0
-1115 -1120 0
-1116 -1117 0
-1116 -1118 0
-1116 -1119 0
-1116 -1120 0
-1117 -1118 0
-1117 -1119 0
-1117 -1120 0
-1118 -1119 0
-1118 -1120 0
-1119 -1120 0
1121 1122 1123 1124 1125 1126 1127 0
-1121 -1122 0
-1121 -1123 0
-1121 -1124 0
-1121 -1125 0
-1121 -1126 0
-1121 -1127 0
-1122 -1123 0
-1122 -1124 0
-1122 -1125 0
-1122 -1126 0
-1122 -1127 0
-1123 -1124 0
-1123 -1125 0
-1123 -1126 0
-1123 -1127 0
-1124 -1125 0
-1124 -1126 0
-1124 -1127 0
-1125 -1126 0
-1125 -1127 0
-1126 -1127 0
1128 1129 1130 1131 1132 1133 1134 1135 0
-1128 -1129 0
-1128 -1130 0
-1128 -1131 0
-1128 -1132 0
-1128 -1133 0
-1128 -1134 0
-1128 -1135 0
-1129 -1130 0
-1129 -1131 0
-1129 -1132 0
-1129 -1133 0
-1129 -1134 0
-1129 -1135 0
-1130 -1131 0
-1130 -1132 0
-1130 -1133 0
-1130 -1134 0
-1130 -1135 0
-1131 -1132 0
-1131 -1133 0
-1131 -1134 0
-1131 -1135 0
-1132 -1133 0
-1132 -1134 0
-1132 -1135 0
-1133 -1134 0
-1133 -1135 0
-1134 -1135 0
1136 1137 1138 1139 1140 1141 1142 1143 1144 1145 0
-1136 -1137 0
-1136 -1138 0
-1136 -1139 0
-1136 -1140 0
-1136 -1141 0
-1136 -1142 0
-1136 -1143 0
-1136 -1144 0
-1136 -1145 0
-1137 -1138 0
-1137 -1139 0
-1137 -1140 0
-1137 -1141 0
-1137 -1142 0
-1137 -1143 0
-1137 -1144 0
-1137 -1145 0
-1138 -1139 0
-1138 -1140 0
-1138 -1141 0
-1138 -1142 0
-1138 -1143 0
-1138 -1144 0
-1138 -1145 0
-1139 -1140 0
-1139 -1141 0
-1139 -1142 0
-1139 -1143 0
-1139 -1144 0
-1139 -1145 0
-1140 -1141 0
-1140 -1142 0
-1140 -1143 0
-1140 -1144 0
-1140 -1145 0
-1141 -1142 0
-1141 -1143 0
-1141 -1144 0
-1141 -1145 0
-1142 -1143 0
-1142 -1144 0
-1142 -1145 0
-1143 -1144 0
-1143 -1145 0
-1144 -1145 0
1146 1147 1148 1149 1150 1151 1152 0
-1146 -1147 0
-1146 -1148 0
-1146 -1149 0
-1146 -1150 0
-1146 -1151 0
-1146 -1152 0
-1147 -1148 0
-1147 -1149 0
-1147 -1150 0
-1147 -1151 0
-1147 -1152 0
-1148 -1149 0
-1148 -1150 0
-1148 -1151 0
-1148 -1152 0
-1149 -1150 0
-1149 -1151 0
-1149 -1152 0
-1150 -1151 0
-1150 -1152 0
-1151 -1152 0
1153 1154 1155 1156 1157 1158 0
-1153 -1154 0
-1153 -1155 0
-1153 -1156 0
-1153 -1157 0
-1153 -1158 0
-1154 -1155 0
-1154 -1156 0
-1154 -1157 0
-1154 -1158 0
-1155 -1156 0
-1155 -1157 0
-1155 -1158 0
-1156 -1157 0
-1156 -1158 0
-1157 -1158 0
1159 1160 1161 1162 1163 1164 0
-1159 -1160 0
-1159 -1161 0
-1159 -1162 0
-1159 -1163 0
-1159 -1164 0
-1160 -1161 0
-1160 -1162 0
-1160 -1163 0
-1160 -1164 0
-1161 -1162 0
-1161 -1163 0
-1161 -1164 0
-1162 -1163 0
-1162 -1164 0
-1163 -1164 0
1165 1166 1167 1168 1169 1170 1171 0
-1165 -1166 0
-1165 -1167 0
-1165 -1168 0
-1165 -1169 0
-1165 -1170 0
-1165 -1171 0
-1166 -1167 0
-1166 -1168 0
-1166 -1169 0
-1166 -1170 0
-1166 -1171 0
-1167 -1168 0
-1167 -1169 0
-1167 -1170 0
-1167 -1171 0
-1168 -1169 0
-1168 -1170 0
-1168 -1171 0
-1169 -1170 0
-1169 -1171 0
-1170 -1171 0
1172 1173 1174 1175 1176 1177 1178 0
-1172 -1173 0
-1172 -1174 0
-1172 -1175 0
-1172 -1176 0
-1172 -1177 0
-1172 -1178 0
-1173 -1174 0
-1173 -1175 0
-1173 -1176 0
-1173 -1177 0
-1173 -1178 0
-1174 -1175 0
-1174 -1176 0
-1174 -1177 0
-1174 -1178 0
-1175 -1176 0
-1175 -1177 0
-1175 -1178 0
-1176 -1177 0
-1176 -1178 0
-1177 -1178 0
1179 1180 1181 1182 1183 1184 0
-1179 -1180 0
-1179 -1181 0
-1179 -1182 0
-1179 -1183 0
-1179 -1184 0
-1180 -1181 0
-1180 -1182 0
-1180 -1183 0
-1180 -1184 0
-1181 -1182 0
-1181 -1183 0
-1181 -1184 0
-1182 -1183 0
-1182 -1184 0
-1183 -1184 0
1185 1186 1187 1188 1189 1190 0
-1185 -1186 0
-1185 -1187 0
-1185 -1188 0
-1185 -1189 0
-1185 -1190 0
-1186 -1187 0
-1186 -1188 0
-1186 -1189 0
-1186 -1190 0
-1187 -1188 0
-1187 -1189 0
-1187 -1190 0
-1188 -1189 0
-1188 -1190 0
-1189 -1190 0
1191 1192 1193 1194 1195 1196 1197 0
-1191 -1192 0
-1191 -1193 0
-1191 -1194 0
-1191 -1195 0
-1191 -1196 0
-1191 -1197 0
-1192 -1193 0
-1192 -1194 0
-1192 -1195 0
-1192 -1196 0
-1192 -1197 0
-1193 -1194 0
-1193 -1195 0
-1193 -1196 0
-1193 -1197 0
-1194 -1195 0
-1194 -1196 0
-1194 -1197 0
-1195 -1196 0
-1195 -1197 0
-1196 -1197 0
1198 1199 1200 1201 1202 1203 1204 0
-1198 -1199 0
-1198 -1200 0
-1198 -1201 0
-1198 -1202 0
-1198 -1203 0
-1198 -1204 0
-1199 -1200 0
-1199 -1201 0
-1199 -1202 0
-1199 -1203 0
-1199 -1204 0
-1200 -1201 0
-1200 -1202 0
-1200 -1203 0
-1200 -1204 0
-1201 -1202 0
-1201 -1203 0
-1201 -1204 0
-1202 -1203 0
-1202 -1204 0
-1203 -1204 0
1205 1206 1207 1208 1209 1210 0
-1205 -1206 0
-1205 -1207 0
-1205 -1208 0
-1205 -1209 0
-1205 -1210 0
-1206 -1207 0
-1206 -1208 0
-1206 -1209 0
-1206 -1210 0
-1207 -1208 0
-1207 -1209 0
-1207 -1210 0
-1208 -1209 0
-1208 -1210 0
-1209 -1210 0
1211 1212 1213 1214 1215 1216 1217 0
-1211 -1212 0
-1211 -1213 0
-1211 -1214 0
-1211 -1215 0
-1211 -1216 0
-1211 -1217 0
-1212 -1213 0
-1212 -1214 0
-1212 -1215 0
-1212 -1216 0
-1212 -1217 0
-1213 -1214 0
-1213 -1215 0
-1213 -1216 0
-1213 -1217 0
-1214 -1215 0
-1214 -1216 0
-1214 -1217 0
-1215 -1216 0
-1215 -1217 0
-1216 -1217 0
1218 1219 1220 1221 1222 1223 1224 1225 0
-1218 -1219 0
-1218 -1220 0
-1218 -1221 0
-1218 -1222 0
-1218 -1223 0
-1218 -1224 0
-1218 -1225 0
-1219 -1220 0
-1219 -1221 0
-1219 -1222 0
-1219 -1223 0
-1219 -1224 0
-1219 -1225 0
-1220 -1221 0
-1220 -1222 0
-1220 -1223 0
-1220 -1224 0
-1220 -1225 0
-1221 -1222 0
-1221 -1223 0
-1221 -1224 0
-1221 -1225 0
-1222 -1223 0
-1222 -1224 0
-1222 -1225 0
-1223 -1224 0
-1223 -1225 0
-1224 -1225 0
1226 1227 1228 1229 1230 1231 1232 0
-1226 -1227 0
-1226 -1228 0
-1226 -1229 0
-1226 -1230 0
-1226 -1231 0
-1226 -1232 0
-1227 -1228 0
-1227 -1229 0
-1227 -1230 0
-1227 -1231 0
-1227 -1232 0
-1228 -1229 0
-1228 -1230 0
-1228 -1231 0
-1228 -1232 0
-1229 -1230 0
-1229 -1231 0
-1229 -1232 0
-1230 -1231 0
-1230 -1232 0
-1231 -1232 0
1233 1234 1235 1236 1237 1238 1239 0
-1233 -1234 0
-1233 -1235 0
-1233 -1236 0
-1233 -1237 0
-1233 -1238 0
-1233 -1239 0
-1234 -1235 0
-1234 -1236 0
-1234 -1237 0
-1234 -1238 0
-1234 -1239 0
-1235 -1236 0
-1235 -1237 0
-1235 -1238 0
-1235 -1239 0
-1236 -1237 0
-1236 -1238 0
-1236 -1239 0
-1237 -1238 0
-1237 -1239 0
-1238 -1239 0
1240 1241 1242 1243 1244 1245 0
-1240 -1241 0
-1240 -1242 0
-1240 -1243 0
-1240 -1244 0
-1240 -1245 0
-1241 -1242 0
-1241 -1243 0
-1241 -1244 0
-1241 -1245 0
-1242 -1243 0
-1242 -1244 0
-1242 -1245 0
-1243 -1244 0
-1243 -1245 0
-1244 -1245 0
1246 1247 1248 1249 1250 1251 1252 0
-1246 -1247 0
-1246 -1248 0
-1246 -1249 0
-1246 -1250 0
-1246 -1251 0
-1246 -1252 0
-1247 -1248 0
-1247 -1249 0
-1247 -1250 0
-1247 -1251 0
-1247 -1252 0
-1248 -1249 0
-1248 -1250 0
-1248 -1251 0
-1248 -1252 0
-1249 -1250 0
-1249 -1251 0
-1249 -1252 0
-1250 -1251 0
-1250 -1252 0
-1251 -1252 0
1253 1254 1255 1256 1257 1258 1259 1260 0
-1253 -1254 0
-1253 -1255 0
-1253 -1256 0
-1253 -1257 0
-1253 -1258 0
-1253 -1259 0
-1253 -1260 0
-1254 -1255 0
-1254 -1256 0
-1254 -1257 0
-1254 -1258 0
-1254 -1259 0
-1254 -1260 0
-1255 -1256 0
-1255 -1257 0
-1255 -1258 0
-1255 -1259 0
-1255 -1260 0
-1256 -1257 0
-1256 -1258 0
-1256 -1259 0
-1256 -1260 0
-1257 -1258 0
-1257 -1259 0
-1257 -1260 0
-1258 -1259 0
-1258 -1260 0
-1259 -1260 0
1261 1262 1263 1264 1265 1266 1267 0
-1261 -1262 0
-1261 -1263 0
-1261 -1264 0
-1261 -1265 0
-1261 -1266 0
-1261 -1267 0
-1262 -1263 0
-1262 -1264 0
-1262 -1265 0
-1262 -1266 0
-1262 -1267 0
-1263 -1264 0
-1263 -1265 0
-1263 -1266 0
-1263 -1267 0
-1264 -1265 0
-1264 -1266 0
-1264 -1267 0
-1265 -1266 0
-1265 -1267 0
-1266 -1267 0
1268 1269 1270 1271 1272 1273 1274 0
-1268 -1269 0
-1268 -1270 0
-1268 -1271 0
-1268 -1272 0
-1268 -1273 0
-1268 -1274 0
-1269 -1270 0
-1269 -1271 0
-1269 -1272 0
-1269 -1273 0
-1269 -1274 0
-1270 -1271 0
-1270 -1272 0
-1270 -1273 0
-1270 -1274 0
-1271 -1272 0
-1271 -1273 0
-1271 -1274 0
-1272 -1273 0
-1272 -1274 0
-1273 -1274 0
1275 1276 1277 1278 1279 1280 0
-1275 -1276 0
-1275 -1277 0
-1275 -1278 0
-1275 -1279 0
-1275 -1280 0
-1276 -1277 0
-1276 -1278 0
-1276 -1279 0
-1276 -1280 0
-1277 -1278 0
-1277 -1279 0
-1277 -1280 0
-1278 -1279 0
-1278 -1280 0
-1279 -1280 0
1281 1282 1283 1284 1285 1286 0
-1281 -1282 0
-1281 -1283 0
-1281 -1284 0
-1281 -1285 0
-1281 -1286 0
-1282 -1283 0
-1282 -1284 0
-1282 -1285 0
-1282 -1286 0
-1283 -1284 0
-1283 -1285 0
-1283 -1286 0
-1284 -1285 0
-1284 -1286 0
-1285 -1286 0
1287 1288 1289 1290 1291 1292 1293 0
-1287 -1288 0
-1287 -1289 0
-1287 -1290 0
-1287 -1291 0
-1287 -1292 0
-1287 -1293 0
-1288 -1289 0
-1288 -1290 0
-1288 -1291 0
-1288 -1292 0
-1288 -1293 0
-1289 -1290 0
-1289 -1291 0
-1289 -1292 0
-1289 -1293 0
-1290 -1291 0
-1290 -1292 0
-1290 -1293 0
-1291 -1292 0
-1291 -1293 0
-1292 -1293 0
1294 0
1295 1296 1297 1298 1299 1300 1301 1302 1303 0
-1295 -1296 0
-1295 -1297 0
-1295 -1298 0
-1295 -1299 0
-1295 -1300 0
-1295 -1301 0
-1295 -1302 0
-1295 -1303 0
-1296 -1297 0
-1296 -1298 0
-1296 -1299 0
-1296 -1300 0
-1296 -1301 0
-1296 -1302 0
-1296 -1303 0
-1297 -1298 0
-1297 -1299 0
-1297 -1300 0
-1297 -1301 0
-1297 -1302 0
-1297 -1303 0
-1298 -1299 0
-1298 -1300 0
-1298 -1301 0
-1298 -1302 0
-1298 -1303 0
-1299 -1300 0
-1299 -1301 0
-1299 -1302 0
-1299 -1303 0
-1300 -1301 0
-1300 -1302 0
-1300 -1303 0
-1301 -1302 0
-1301 -1303 0
-1302 -1303 0
1304 1305 1306 1307 1308 1309 1310 0
-1304 -1305 0
-1304 -1306 0
-1304 -1307 0
-1304 -1308 0
-1304 -1309 0
-1304 -1310 0
-1305 -1306 0
-1305 -1307 0
-1305 -1308 0
-1305 -1309 0
-1305 -1310 0
-1306 -1307 0
-1306 -1308 0
-1306 -1309 0
-1306 -1310 0
-1307 -1308 0
-1307 -1309 0
-1307 -1310 0
-1308 -1309 0
-1308 -1310 0
-1309 -1310 0
1311 1312 1313 1314 1315 1316 1317 1318 0
-1311 -1312 0
-1311 -1313 0
-1311 -1314 0
-1311 -1315 0
-1311 -1316 0
-1311 -1317 0
-1311 -1318 0
-1312 -1313 0
-1312 -1314 0
-1312 -1315 0
-1312 -1316 0
-1312 -1317 0
-1312 -1318 0
-1313 -1314 0
-1313 -1315 0
-1313 -1316 0
-1313 -1317 0
-1313 -1318 0
-1314 -1315 0
-1314 -1316 0
-1314 -1317 0
-1314 -1318 0
-1315 -1316 0
-1315 -1317 0
-1315 -1318 0
-1316 -1317 0
-1316 -1318 0
-1317 -1318 0
1319 1320 1321 1322 1323 1324 1325 0
-1319 -1320 0
-1319 -1321 0
-1319 -1322 0
-1319 -1323 0
-1319 -1324 0
-1319 -1325 0
-1320 -1321 0
-1320 -1322 0
-1320 -1323 0
-1320 -1324 0
-1320 -1325 0
-1321 -1322 0
-1321 -1323 0
-1321 -1324 0
-1321 -1325 0
-1322 -1323 0
-1322 -1324 0
-1322 -1325 0
-1323 -1324 0
-1323 -1325 0
-1324 -1325 0
1326 1327 1328 1329 1330 1331 1332 0
-1326 -1327 0
-1326 -1328 0
-1326 -1329 0
-1326 -1330 0
-1326 -1331 0
-1326 -1332 0
-1327 -1328 0
-1327 -1329 0
-1327 -1330 0
-1327 -1331 0
-1327 -1332 0
-1328 -1329 0
-1328 -1330 0
-1328 -1331 0
-1328 -1332 0
-1329 -1330 0
-1329 -1331 0
-1329 -1332 0
-1330 -1331 0
-1330 -1332 0
-1331 -1332 0
1333 1334 1335 1336 1337 1338 0
-1333 -1334 0
-1333 -1335 0
-1333 -1336 0
-1333 -1337 0
-1333 -1338 0
-1334 -1335 0
-1334 -1336 0
-1334 -1337 0
-1334 -1338 0
-1335 -1336 0
-1335 -1337 0
-1335 -1338 0
-1336 -1337 0
-1336 -1338 0
-1337 -1338 0
1339 1340 1341 1342 1343 1344 0
-1339 -1340 0
-1339 -1341 0
-1339 -1342 0
-1339 -1343 0
-1339 -1344 0
-1340 -1341 0
-1340 -1342 0
-1340 -1343 0
-1340 -1344 0
-1341 -1342 0
-1341 -1343 0
-1341 -1344 0
-1342 -1343 0
-1342 -1344 0
-1343 -1344 0
1345 1346 1347 1348 1349 1350 1351 0
-1345 -1346 0
-1345 -1347 0
-1345 -1348 0
-1345 -1349 0
-1345 -1350 0
-1345 -1351 0
-1346 -1347 0
-1346 -1348 0
-1346 -1349 0
-1346 -1350 0
-1346 -1351 0
-1347 -1348 0
-1347 -1349 0
-1347 -1350 0
-1347 -1351 0
-1348 -1349 0
-1348 -1350 0
-1348 -1351 0
-1349 -1350 0
-1349 -1351 0
-1350 -1351 0
1352 1353 1354 1355 1356 1357 1358 1359 0
-1352 -1353 0
-1352 -1354 0
-1352 -1355 0
-1352 -1356 0
-1352 -1357 0
-1352 -1358 0
-1352 -1359 0
-1353 -1354 0
-1353 -1355 0
-1353 -1356 0
-1353 -1357 0
-1353 -1358 0
-1353 -1359 0
-1354 -1355 0
-1354 -1356 0
-1354 -1357 0
-1354 -1358 0
-1354 -1359 0
-1355 -1356 0
-1355 -1357 0
-1355 -1358 0
-1355 -1359 0
-1356 -1357 0
-1356 -1358 0
-1356 -1359 0
-1357 -1358 0
-1357 -1359 0
-1358 -1359 0
1360 1361 1362 1363 1364 1365 1366 0
-1360 -1361 0
-1360 -1362 0
-1360 -1363 0
-1360 -1364 0
-1360 -1365 0
-1360 -1366 0
-1361 -1362 0
-1361 -1363 0
-1361 -1364 0
-1361 -1365 0
-1361 -1366 0
-1362 -1363 0
-1362 -1364 0
-1362 -1365 0
-1362 -1366 0
-1363 -1364 0
-1363 -1365 0
-1363 -1366 0
-1364 -1365 0
-1364 -1366 0
-1365 -1366 0
1367 1368 1369 1370 1371 1372 1373 0
-1367 -1368 0
-1367 -1369 0
-1367 -1370 0
-1367 -1371 0
-1367 -1372 0
-1367 -1373 0
-1368 -1369 0
-1368 -1370 0
-1368 -1371 0
-1368 -1372 0
-1368 -1373 0
-1369 -1370 0
-1369 -1371 0
-1369 -1372 0
-1369 -1373 0
-1370 -1371 0
-1370 -1372 0
-1370 -1373 0
-1371 -1372 0
-1371 -1373 0
-1372 -1373 0
1374 1375 1376 1377 1378 1379 0
-1374 -1375 0
-1374 -1376 0
-1374 -1377 0
-1374 -1378 0
-1374 -1379 0
-1375 -1376 0
-1375 -1377 0
-1375 -1378 0
-1375 -1379 0
-1376 -1377 0
-1376 -1378 0
-1376 -1379 0
-1377 -1378 0
-1377 -1379 0
-1378 -1379 0
1380 1381 1382 1383 1384 1385 0
-1380 -1381 0
-1380 -1382 0
-1380 -1383 0
-1380 -1384 0
-1380 -1385 0
-1381 -1382 0
-1381 -1383 0
-1381 -1384 0
-1381 -1385 0
-1382 -1383 0
-1382 -1384 0
-1382 -1385 0
-1383 -1384 0
-1383 -1385 0
-1384 -1385 0
1386 1387 1388 1389 1390 1391 0
-1386 -1387 0
-1386 -1388 0
-1386 -1389 0
-1386 -1390 0
-1386 -1391 0
-1387 -1388 0
-1387 -1389 0
-1387 -1390 0
-1387 -1391 0
-1388 -1389 0
-1388 -1390 0
-1388 -1391 0
-1389 -1390 0
-1389 -1391 0
-1390 -1391 0
1392 1393 1394 1395 1396 1397 1398 1399 1400 0
-1392 -1393 0
-1392 -1394 0
-1392 -1395 0
-1392 -1396 0
-1392 -1397 0
-1392 -1398 0
-1392 -1399 0
-1392 -1400 0
-1393 -1394 0
-1393 -1395 0
-1393 -1396 0
-1393 -1397 0
-1393 -1398 0
-1393 -1399 0
-1393 -1400 0
-1394 -1395 0
-1394 -1396 0
-1394 -1397 0
-1394 -1398 0
-1394 -1399 0
-1394 -1400 0
-1395 -1396 0
-1395 -1397 0
-1395 -1398 0
-1395 -1399 0
-1395 -1400 0
-1396 -1397 0
-1396 -1398 0
-1396 -1399 0
-1396 -1400 0
-1397 -1398 0
-1397 -1399 0
-1397 -1400 0
-1398 -1399 0
-1398 -1400 0
-1399 -1400 0
1401 1402 1403 1404 1405 1406 1407 0
-1401 -1402 0
-1401 -1403 0
-1401 -1404 0
-1401 -1405 0
-1401 -1406 0
-1401 -1407 0
-1402 -1403 0
-1402 -1404 0
-1402 -1405 0
-1402 -1406 0
-1402 -1407 0
-1403 -1404 0
-1403 -1405 0
-1403 -1406 0
-1403 -1407 0
-1404 -1405 0
-1404 -1406 0
-1404 -1407 0
-1405 -1406 0
-1405 -1407 0
-1406 -1407 0
1408 1409 1410 1411 1412 1413 1414 0
-1408 -1409 0
-1408 -1410 0
-1408 -1411 0
-1408 -1412 0
-1408 -1413 0
-1408 -1414 0
-1409 -1410 0
-1409 -1411 0
-1409 -1412 0
-1409 -1413 0
-1409 -1414 0
-1410 -1411 0
-1410 -1412 0
-1410 -1413 0
-1410 -1414 0
-1411 -1412 0
-1411 -1413 0
-1411 -1414 0
-1412 -1413 0
-1412 -1414 0
-1413 -1414 0
1415 1416 1417 1418 1419 1420 1421 0
-1415 -1416 0
-1415 -1417 0
-1415 -1418 0
-1415 -1419 0
-1415 -1420 0
-1415 -1421 0
-1416 -1417 0
-1416 -1418 0
-1416 -1419 0
-1416 -1420 0
-1416 -1421 0
-1417 -1418 0
-1417 -1419 0
-1417 -1420 0
-1417 -1421 0
-1418 -1419 0
-1418 -1420 0
-1418 -1421 0
-1419 -1420 0
-1419 -1421 0
-1420 -1421 0
1422 1423 1424 1425 1426 1427 0
-1422 -1423 0
-1422 -1424 0
-1422 -1425 0
-1422 -1426 0
-1422 -1427 0
-1423 -1424 0
-1423 -1425 0
-1423 -1426 0
-1423 -1427 0
-1424 -1425 0
-1424 -1426 0
-1424 -1427 0
-1425 -1426 0
-1425 -1427 0
-1426 -1427 0
1428 1429 1430 1431 1432 1433 1434 1435 0
-1428 -1429 0
-1428 -1430 0
-1428 -1431 0
-1428 -1432 0
-1428 -1433 0
-1428 -1434 0
-1428 -1435 0
-1429 -1430 0
-1429 -1431 0
-1429 -1432 0
-1429 -1433 0
-1429 -1434 0
-1429 -1435 0
-1430 -1431 0
-1430 -1432 0
-1430 -1433 0
-1430 -1434 0
-1430 -1435 0
-1431 -1432 0
-1431 -1433 0
-1431 -1434 0
-1431 -1435 0
-1432 -1433 0
-1432 -1434 0
-1432 -1435 0
-1433 -1434 0
-1433 -1435 0
-1434 -1435 0
1436 1437 1438 1439 1440 1441 0
-1436 -1437 0
-1436 -1438 0
-1436 -1439 0
-1436 -1440 0
-1436 -1441 0
-1437 -1438 0
-1437 -1439 0
-1437 -1440 0
-1437 -1441 0
-1438 -1439 0
-1438 -1440 0
-1438 -1441 0
-1439 -1440 0
-1439 -1441 0
-1440 -1441 0
1442 1443 1444 1445 1446 1447 1448 1449 0
-1442 -1443 0
-1442 -1444 0
-1442 -1445 0
-1442 -1446 0
-1442 -1447 0
-1442 -1448 0
-1442 -1449 0
-1443 -1444 0
-1443 -1445 0
-1443 -1446 0
-1443 -1447 0
-1443 -1448 0
-1443 -1449 0
-1444 -1445 0
-1444 -1446 0
-1444 -1447 0
-1444 -1448 0
-1444 -1449 0
-1445 -1446 0
-1445 -1447 0
-1445 -1448 0
-1445 -1449 0
-1446 -1447 0
-1446 -1448 0
-1446 -1449 0
-1447 -1448 0
-1447 -1449 0
-1448 -1449 0
1450 1451 1452 1453 1454 1455 1456 0
-1450 -1451 0
-1450 -1452 0
-1450 -1453 0
-1450 -1454 0
-1450 -1455 0
-1450 -1456 0
-1451 -1452 0
-1451 -1453 0
-1451 -1454 0
-1451 -1455 0
-1451 -1456 0
-1452 -1453 0
-1452 -1454 0
-1452 -1455 0
-1452 -1456 0
-1453 -1454 0
-1453 -1455 0
-1453 -1456 0
-1454 -1455 0
-1454 -1456 0
-1455 -1456 0
1457 1458 1459 1460 1461 1462 0
-1457 -1458 0
-1457 -1459 0
-1457 -1460 0
-1457 -1461 0
-1457 -1462 0
-1458 -1459 0
-1458 -1460 0
-1458 -1461 0
-1458 -1462 0
-1459 -1460 0
-1459 -1461 0
-1459 -1462 0
-1460 -1461 0
-1460 -1462 0
-1461 -1462 0
1463 1464 1465 1466 1467 1468 1469 0
-1463 -1464 0
-1463 -1465 0
-1463 -1466 0
-1463 -1467 0
-1463 -1468 0
-1463 -1469 0
-1464 -1465 0
-1464 -1466 0
-1464 -1467 0
-1464 -1468 0
-1464 -1469 0
-1465 -1466 0
-1465 -1467 0
-1465 -1468 0
-1465 -1469 0
-1466 -1467 0
-1466 -1468 0
-1466 -1469 0
-1467 -1468 0
-1467 -1469 0
-1468 -1469 0
1470 0
1471 1472 1473 1474 1475 1476 1477 0
-1471 -1472 0
-1471 -1473 0
-1471 -1474 0
-1471 -1475 0
-1471 -1476 0
-1471 -1477 0
-1472 -1473 0
-1472 -1474 0
-1472 -1475 0
-1472 -1476 0
-1472 -1477 0
-1473 -1474 0
-1473 -1475 0
-1473 -1476 0
-1473 -1477 0
-1474 -1475 0
-1474 -1476 0
-1474 -1477 0
-1475 -1476 0
-1475 -1477 0
-1476 -1477 0
1478 1479 1480 1481 1482 1483 0
-1478 -1479 0
-1478 -1480 0
-1478 -1481 0
-1478 -1482 0
-1478 -1483 0
-1479 -1480 0
-1479 -1481 0
-1479 -1482 0
-1479 -1483 0
-1480 -1481 0
-1480 -1482 0
-1480 -1483 0
-1481 -1482 0
-1481 -1483 0
-1482 -1483 0
1484 1485 1486 1487 1488 1489 1490 0
-1484 -1485 0
-1484 -1486 0
-1484 -1487 0
-1484 -1488 0
-1484 -1489 0
-1484 -1490 0
-1485 -1486 0
-1485 -1487 0
-1485 -1488 0
-1485 -1489 0
-1485 -1490 0
-1486 -1487 0
-1486 -1488 0
-1486 -1489 0
-1486 -1490 0
-1487 -1488 0
-1487 -1489 0
-1487 -1490 0
-1488 -1489 0
-1488 -1490 0
-1489 -1490 0
1491 1492 1493 1494 1495 1496 1497 1498 0
-1491 -1492 0
-1491 -1493 0
-1491 -1494 0
-1491 -1495 0
-1491 -1496 0
-1491 -1497 0
-1491 -1498 0
-1492 -1493 0
-1492 -1494 0
-1492 -1495 0
-1492 -1496 0
-1492 -1497 0
-1492 -1498 0
-1493 -1494 0
-1493 -1495 0
-1493 -1496 0
-1493 -1497 0
-1493 -1498 0
-1494 -1495 0
-1494 -1496 0
-1494 -1497 0
-1494 -1498 0
-1495 -1496 0
-1495 -1497 0
-1495 -1498 0
-1496 -1497 0
-1496 -1498 0
-1497 -1498 0
1499 1500 1501 1502 1503 1504 1505 0
-1499 -1500 0
-1499 -1501 0
-1499 -1502 0
-1499 -1503 0
-1499 -1504 0
-1499 -1505 0
-1500 -1501 0
-1500 -1502 0
-1500 -1503 0
-1500 -1504 0
-1500 -1505 0
-1501 -1502 0
-1501 -1503 0
-1501 -1504 0
-1501 -1505 0
-1502 -1503 0
-1502 -1504 0
-1502 -1505 0
-1503 -1504 0
-1503 -1505 0
-1504 -1505 0
1506 1507 1508 1509 1510 1511 0
-1506 -1507 0
-1506 -1508 0
-1506 -1509 0
-1506 -1510 0
-1506 -1511 0
-1507 -1508 0
-1507 -1509 0
-1507 -1510 0
-1507 -1511 0
-1508 -1509 0
-1508 -1510 0
-1508 -1511 0
-1509 -1510 0
-1509 -1511 0
-1510 -1511 0
1512 1513 1514 1515 1516 1517 1518 0
-1512 -1513 0
-1512 -1514 0
-1512 -1515 0
-1512 -1516 0
-1512 -1517 0
-1512 -1518 0
-1513 -1514 0
-1513 -1515 0
-1513 -1516 0
-1513 -1517 0
-1513 -1518 0
-1514 -1515 0
-1514 -1516 0
-1514 -1517 0
-1514 -1518 0
-1515 -1516 0
-1515 -1517 0
-1515 -1518 0
-1516 -1517 0
-1516 -1518 0
-1517 -1518 0
1519 1520 1521 1522 1523 1524 0
-1519 -1520 0
-1519 -1521 0
-1519 -1522 0
-1519 -1523 0
-1519 -1524 0
-1520 -1521 0
-1520 -1522 0
-1520 -1523 0
-1520 -1524 0
-1521 -1522 0
-1521 -1523 0
-1521 -1524 0
-1522 -1523 0
-1522 -1524 0
-1523 -1524 0
1525 1526 1527 1528 1529 1530 1531 0
-1525 -1526 0
-1525 -1527 0
-1525 -1528 0
-1525 -1529 0
-1525 -1530 0
-1525 -1531 0
-1526 -1527 0
-1526 -1528 0
-1526 -1529 0
-1526 -1530 0
-1526 -1531 0
-1527 -1528 0
-1527 -1529 0
-1527 -1530 0
-1527 -1531 0
-1528 -1529 0
-1528 -1530 0
-1528 -1531 0
-1529 -1530 0
-1529 -1531 0
-1530 -1531 0
1532 0
1533 1534 1535 1536 1537 1538 1539 1540 1541 1542 0
-1533 -1534 0
-1533 -1535 0
-1533 -1536 0
-1533 -1537 0
-1533 -1538 0
-1533 -1539 0
-1533 -1540 0
-1533 -1541 0
-1533 -1542 0
-1534 -1535 0
-1534 -1536 0
-1534 -1537 0
-1534 -1538 0
-1534 -1539 0
-1534 -1540 0
-1534 -1541 0
-1534 -1542 0
-1535 -1536 0
-1535 -1537 0
-1535 -1538 0
-1535 -1539 0
-1535 -1540 0
-1535 -1541 0
-1535 -1542 0
-1536 -1537 0
-1536 -1538 0
-1536 -1539 0
-1536 -1540 0
-1536 -1541 0
-1536 -1542 0
-1537 -1538 0
-1537 -1539 0
-1537 -1540 0
-1537 -1541 0
-1537 -1542 0
-1538 -1539 0
-1538 -1540 0
-1538 -1541 0
-1538 -1542 0
-1539 -1540 0
-1539 -1541 0
-1539 -1542 0
-1540 -1541 0
-1540 -1542 0
-1541 -1542 0
1543 1544 1545 1546 1547 1548 0
-1543 -1544 0
-1543 -1545 0
-1543 -1546 0
-1543 -1547 0
-1543 -1548 0
-1544 -1545 0
-1544 -1546 0
-1544 -1547 0
-1544 -1548 0
-1545 -1546 0
-1545 -1547 0
-1545 -1548 0
-1546 -1547 0
-1546 -1548 0
-1547 -1548 0
1549 1550 1551 1552 1553 1554 1555 0
-1549 -1550 0
-1549 -1551 0
-1549 -1552 0
-1549 -1553 0
-1549 -1554 0
-1549 -1555 0
-1550 -1551 0
-1550 -1552 0
-1550 -1553 0
-1550 -1554 0
-1550 -1555 0
-1551 -1552 0
-1551 -1553 0
-1551 -1554 0
-1551 -1555 0
-1552 -1553 0
-1552 -1554 0
-1552 -1555 0
-1553 -1554 0
-1553 -1555 0
-1554 -1555 0
1556 1557 1558 1559 1560 1561 1562 0
-1556 -1557 0
-1556 -1558 0
-1556 -1559 0
-1556 -1560 0
-1556 -1561 0
-1556 -1562 0
-1557 -1558 0
-1557 -1559 0
-1557 -1560 0
-1557 -1561 0
-1557 -1562 0
-1558 -1559 0
-1558 -1560 0
-1558 -1561 0
-1558 -1562 0
-1559 -1560 0
-1559 -1561 0
-1559 -1562 0
-1560 -1561 0
-1560 -1562 0
-1561 -1562 0
1563 1564 1565 1566 1567 1568 1569 0
-1563 -1564 0
-1563 -1565 0
-1563 -1566 0
-1563 -1567 0
-1563 -1568 0
-1563 -1569 0
-1564 -1565 0
-1564 -1566 0
-1564 -1567 0
-1564 -1568 0
-1564 -1569 0
-1565 -1566 0
-1565 -1567 0
-1565 -1568 0
-1565 -1569 0
-1566 -1567 0
-1566 -1568 0
-1566 -1569 0
-1567 -1568 0
-1567 -1569 0
-1568 -1569 0
1570 1571 1572 1573 1574 1575 0
-1570 -1571 0
-1570 -1572 0
-1570 -1573 0
-1570 -1574 0
-1570 -1575 0
-1571 -1572 0
-1571 -1573 0
-1571 -1574 0
-1571 -1575 0
-1572 -1573 0
-1572 -1574 0
-1572 -1575 0
-1573 -1574 0
-1573 -1575 0
-1574 -1575 0
1576 1577 1578 1579 1580 1581 1582 0
-1576 -1577 0
-1576 -1578 0
-1576 -1579 0
-1576 -1580 0
-1576 -1581 0
-1576 -1582 0
-1577 -1578 0
-1577 -1579 0
-1577 -1580 0
-1577 -1581 0
-1577 -1582 0
-1578 -1579 0
-1578 -1580 0
-1578 -1581 0
-1578 -1582 0
-1579 -1580 0
-1579 -1581 0
-1579 -1582 0
-1580 -1581 0
-1580 -1582 0
-1581 -1582 0
1583 1584 1585 1586 1587 1588 1589 0
-1583 -1584 0
-1583 -1585 0
-1583 -1586 0
-1583 -1587 0
-1583 -1588 0
-1583 -1589 0
-1584 -1585 0
-1584 -1586 0
-1584 -1587 0
-1584 -1588 0
-1584 -1589 0
-1585 -1586 0
-1585 -1587 0
-1585 -1588 0
-1585 -1589 0
-1586 -1587 0
-1586 -1588 0
-1586 -1589 0
-1587 -1588 0
-1587 -1589 0
-1588 -1589 0
1590 1591 1592 1593 1594 1595 1596 1597 0
-1590 -1591 0
-1590 -1592 0
-1590 -1593 0
-1590 -1594 0
-1590 -1595 0
-1590 -1596 0
-1590 -1597 0
-1591 -1592 0
-1591 -1593 0
-1591 -1594 0
-1591 -1595 0
-1591 -1596 0
-1591 -1597 0
-1592 -1593 0
-1592 -1594 0
-1592 -1595 0
-1592 -1596 0
-1592 -1597 0
-1593 -1594 0
-1593 -1595 0
-1593 -1596 0
-1593 -1597 0
-1594 -1595 0
-1594 -1596 0
-1594 -1597 0
-1595 -1596 0
-1595 -1597 0
-1596 -1597 0
1598 1599 1600 1601 1602 1603 1604 0
-1598 -1599 0
-1598 -1600 0
-1598 -1601 0
-1598 -1602 0
-1598 -1603 0
-1598 -1604 0
-1599 -1600 0
-1599 -1601 0
-1599 -1602 0
-1599 -1603 0
-1599 -1604 0
-1600 -1601 0
-1600 -1602 0
-1600 -1603 0
-1600 -1604 0
-1601 -1602 0
-1601 -1603 0
-1601 -1604 0
-1602 -1603 0
-1602 -1604 0
-1603 -1604 0
1605 1606 1607 1608 1609 1610 1611 0
-1605 -1606 0
-1605 -1607 0
-1605 -1608 0
-1605 -1609 0
-1605 -1610 0
-1605 -1611 0
-1606 -1607 0
-1606 -1608 0
-1606 -1609 0
-1606 -1610 0
-1606 -1611 0
-1607 -1608 0
-1607 -1609 0
-1607 -1610 0
-1607 -1611 0
-1608 -1609 0
-1608 -1610 0
-1608 -1611 0
-1609 -1610 0
-1609 -1611 0
-1610 -1611 0
1612 1613 1614 1615 1616 1617 1618 1619 0
-1612 -1613 0
-1612 -1614 0
-1612 -1615 0
-1612 -1616 0
-1612 -1617 0
-1612 -1618 0
-1612 -1619 0
-1613 -1614 0
-1613 -1615 0
-1613 -1616 0
-1613 -1617 0
-1613 -1618 0
-1613 -1619 0
-1614 -1615 0
-1614 -1616 0
-1614 -1617 0
-1614 -1618 0
-1614 -1619 0
-1615 -1616 0
-1615 -1617 0
-1615 -1618 0
-1615 -1619 0
-1616 -1617 0
-1616 -1618 0
-1616 -1619 0
-1617 -1618 0
-1617 -1619 0
-1618 -1619 0
1620 1621 1622 1623 1624 1625 1626 0
-1620 -1621 0
-1620 -1622 0
-1620 -1623 0
-1620 -1624 0
-1620 -1625 0
-1620 -1626 0
-1621 -1622 0
-1621 -1623 0
-1621 -1624 0
-1621 -1625 0
-1621 -1626 0
-1622 -1623 0
-1622 -1624 0
-1622 -1625 0
-1622 -1626 0
-1623 -1624 0
-1623 -1625 0
-1623 -1626 0
-1624 -1625 0
-1624 -1626 0
-1625 -1626 0
1627 1628 1629 1630 1631 1632 1633 1634 1635 0
-1627 -1628 0
-1627 -1629 0
-1627 -1630 0
-1627 -1631 0
-1627 -1632 0
-1627 -1633 0
-1627 -1634 0
-1627 -1635 0
-1628 -1629 0
-1628 -1630 0
-1628 -1631 0
-1628 -1632 0
-1628 -1633 0
-1628 -1634 0
-1628 -1635 0
-1629 -1630 0
-1629 -1631 0
-1629 -1632 0
-1629 -1633 0
-1629 -1634 0
-1629 -1635 0
-1630 -1631 0
-1630 -1632 0
-1630 -1633 0
-1630 -1634 0
-1630 -1635 0
-1631 -1632 0
-1631 -1633 0
-1631 -1634 0
-1631 -1635 0
-1632 -1633 0
-1632 -1634 0
-1632 -1635 0
-1633 -1634 0
-1633 -1635 0
-1634 -1635 0
1636 1637 1638 1639 1640 1641 0
-1636 -1637 0
-1636 -1638 0
-1636 -1639 0
-1636 -1640 0
-1636 -1641 0
-1637 -1638 0
-1637 -1639 0
-1637 -1640 0
-1637 -1641 0
-1638 -1639 0
-1638 -1640 0
-1638 -1641 0
-1639 -1640 0
-1639 -1641 0
-1640 -1641 0
1642 1643 1644 1645 1646 1647 1648 0
-1642 -1643 0
-1642 -1644 0
-1642 -1645 0
-1642 -1646 0
-1642 -1647 0
-1642 -1648 0
-1643 -1644 0
-1643 -1645 0
-1643 -1646 0
-1643 -1647 0
-1643 -1648 0
-1644 -1645 0
-1644 -1646 0
-1644 -1647 0
-1644 -1648 0
-1645 -1646 0
-1645 -1647 0
-1645 -1648 0
-1646 -1647 0
-1646 -1648 0
-1647 -1648 0
1649 1650 1651 1652 1653 1654 1655 0
-1649 -1650 0
-1649 -1651 0
-1649 -1652 0
-1649 -1653 0
-1649 -1654 0
-1649 -1655 0
-1650 -1651 0
-1650 -1652 0
-1650 -1653 0
-1650 -1654 0
-1650 -1655 0
-1651 -1652 0
-1651 -1653 0
-1651 -1654 0
-1651 -1655 0
-1652 -1653 0
-1652 -1654 0
-1652 -1655 0
-1653 -1654 0
-1653 -1655 0
-1654 -1655 0
1656 1657 1658 1659 1660 1661 0
-1656 -1657 0
-1656 -1658 0
-1656 -1659 0
-1656 -1660 0
-1656 -1661 0
-1657 -1658 0
-1657 -1659 0
-1657 -1660 0
-1657 -1661 0
-1658 -1659 0
-1658 -1660 0
-1658 -1661 0
-1659 -1660 0
-1659 -1661 0
-1660 -1661 0
1662 1663 1664 1665 1666 1667 1668 1669 0
-1662 -1663 0
-1662 -1664 0
-1662 -1665 0
-1662 -1666 0
-1662 -1667 0
-1662 -1668 0
-1662 -1669 0
-1663 -1664 0
-1663 -1665 0
-1663 -1666 0
-1663 -1667 0
-1663 -1668 0
-1663 -1669 0
-1664 -1665 0
-1664 -1666 0
-1664 -1667 0
-1664 -1668 0
-1664 -1669 0
-1665 -1666 0
-1665 -1667 0
-1665 -1668 0
-1665 -1669 0
-1666 -1667 0
-1666 -1668 0
-1666 -1669 0
-1667 -1668 0
-1667 -1669 0
-1668 -1669 0
1670 1671 1672 1673 1674 1675 1676 0
-1670 -1671 0
-1670 -1672 0
-1670 -1673 0
-1670 -1674 0
-1670 -1675 0
-1670 -1676 0
-1671 -1672 0
-1671 -1673 0
-1671 -1674 0
-1671 -1675 0
-1671 -1676 0
-1672 -1673 0
-1672 -1674 0
-1672 -1675 0
-1672 -1676 0
-1673 -1674 0
-1673 -1675 0
-1673 -1676 0
-1674 -1675 0
-1674 -1676 0
-1675 -1676 0
1677 1678 1679 1680 1681 1682 1683 0
-1677 -1678 0
-1677 -1679 0
-1677 -1680 0
-1677 -1681 0
-1677 -1682 0
-1677 -1683 0
-1678 -1679 0
-1678 -1680 0
-1678 -1681 0
-1678 -1682 0
-1678 -1683 0
-1679 -1680 0
-1679 -1681 0
-1679 -1682 0
-1679 -1683 0
-1680 -1681 0
-1680 -1682 0
-1680 -1683 0
-1681 -1682 0
-1681 -1683 0
-1682 -1683 0
1684 1685 1686 1687 1688 1689 1690 1691 0
-1684 -1685 0
-1684 -1686 0
-1684 -1687 0
-1684 -1688 0
-1684 -1689 0
-1684 -1690 0
-1684 -1691 0
-1685 -1686 0
-1685 -1687 0
-1685 -1688 0
-1685 -1689 0
-1685 -1690 0
-1685 -1691 0
-1686 -1687 0
-1686 -1688 0
-1686 -1689 0
-1686 -1690 0
-1686 -1691 0
-1687 -1688 0
-1687 -1689 0
-1687 -1690 0
-1687 -1691 0
-1688 -1689 0
-1688 -1690 0
-1688 -1691 0
-1689 -1690 0
-1689 -1691 0
-1690 -1691 0
1692 1693 1694 1695 1696 1697 1698 0
-1692 -1693 0
-1692 -1694 0
-1692 -1695 0
-1692 -1696 0
-1692 -1697 0
-1692 -1698 0
-1693 -1694 0
-1693 -1695 0
-1693 -1696 0
-1693 -1697 0
-1693 -1698 0
-1694 -1695 0
-1694 -1696 0
-1694 -1697 0
-1694 -1698 0
-1695 -1696 0
-1695 -1697 0
-1695 -1698 0
-1696 -1697 0
-1696 -1698 0
-1697 -1698 0
1699 1700 1701 1702 1703 1704 1705 1706 0
-1699 -1700 0
-1699 -1701 0
-1699 -1702 0
-1699 -1703 0
-1699 -1704 0
-1699 -1705 0
-1699 -1706 0
-1700 -1701 0
-1700 -1702 0
-1700 -1703 0
-1700 -1704 0
-1700 -1705 0
-1700 -1706 0
-1701 -1702 0
-1701 -1703 0
-1701 -1704 0
-1701 -1705 0
-1701 -1706 0
-1702 -1703 0
-1702 -1704 0
-1702 -1705 0
-1702 -1706 0
-1703 -1704 0
-1703 -1705 0
-1703 -1706 0
-1704 -1705 0
-1704 -1706 0
-1705 -1706 0
1707 1708 1709 1710 1711 1712 1713 0
-1707 -1708 0
-1707 -1709 0
-1707 -1710 0
-1707 -1711 0
-1707 -1712 0
-1707 -1713 0
-1708 -1709 0
-1708 -1710 0
-1708 -1711 0
-1708 -1712 0
-1708 -1713 0
-1709 -1710 0
-1709 -1711 0
-1709 -1712 0
-1709 -1713 0
-1710 -1711 0
-1710 -1712 0
-1710 -1713 0
-1711 -1712 0
-1711 -1713 0
-1712 -1713 0
1714 1715 1716 1717 1718 1719 0
-1714 -1715 0
-1714 -1716 0
-1714 -1717 0
-1714 -1718 0
-1714 -1719 0
-1715 -1716 0
-1715 -1717 0
-1715 -1718 0
-1715 -1719 0
-1716 -1717 0
-1716 -1718 0
-1716 -1719 0
-1717 -1718 0
-1717 -1719 0
-1718 -1719 0
1720 1721 1722 1723 1724 1725 1726 1727 1728 0
-1720 -1721 0
-1720 -1722 0
-1720 -1723 0
-1720 -1724 0
-1720 -1725 0
-1720 -1726 0
-1720 -1727 0
-1720 -1728 0
-1721 -1722 0
-1721 -1723 0
-1721 -1724 0
-1721 -1725 0
-1721 -1726 0
-1721 -1727 0
-1721 -1728 0
-1722 -1723 0
-1722 -1724 0
-1722 -1725 0
-1722 -1726 0
-1722 -1727 0
-1722 -1728 0
-1723 -1724 0
-1723 -1725 0
-1723 -1726 0
-1723 -1727 0
-1723 -1728 0
-1724 -1725 0
-1724 -1726 0
-1724 -1727 0
-1724 -1728 0
-1725 -1726 0
-1725 -1727 0
-1725 -1728 0
-1726 -1727 0
-1726 -1728 0
-1727 -1728 0
1729 1730 1731 1732 1733 1734 1735 0
-1729 -1730 0
-1729 -1731 0
-1729 -1732 0
-1729 -1733 0
-1729 -1734 0
-1729 -1735 0
-1730 -1731 0
-1730 -1732 0
-1730 -1733 0
-1730 -1734 0
-1730 -1735 0
-1731 -1732 0
-1731 -1733 0
-1731 -1734 0
-1731 -1735 0
-1732 -1733 0
-1732 -1734 0
-1732 -1735 0
-1733 -1734 0
-1733 -1735 0
-1734 -1735 0
1736 1737 1738 1739 1740 1741 1742 1743 0
-1736 -1737 0
-1736 -1738 0
-1736 -1739 0
-1736 -1740 0
-1736 -1741 0
-1736 -1742 0
-1736 -1743 0
-1737 -1738 0
-1737 -1739 0
-1737 -1740 0
-1737 -1741 0
-1737 -1742 0
-1737 -1743 0
-1738 -1739 0
-1738 -1740 0
-1738 -1741 0
-1738 -1742 0
-1738 -1743 0
-1739 -1740 0
-1739 -1741 0
-1739 -1742 0
-1739 -1743 0
-1740 -1741 0
-1740 -1742 0
-1740 -1743 0
-1741 -1742 0
-1741 -1743 0
-1742 -1743 0
1744 1745 1746 1747 1748 1749 1750 0
-1744 -1745 0
-1744 -1746 0
-1744 -1747 0
-1744 -1748 0
-1744 -1749 0
-1744 -1750 0
-1745 -1746 0
-1745 -1747 0
-1745 -1748 0
-1745 -1749 0
-1745 -1750 0
-1746 -1747 0
-1746 -1748 0
-1746 -1749 0
-1746 -1750 0
-1747 -1748 0
-1747 -1749 0
-1747 -1750 0
-1748 -1749 0
-1748 -1750 0
-1749 -1750 0
1751 1752 1753 1754 1755 1756 0
-1751 -1752 0
-1751 -1753 0
-1751 -1754 0
-1751 -1755 0
-1751 -1756 0
-1752 -1753 0
-1752 -1754 0
-1752 -1755 0
-1752 -1756 0
-1753 -1754 0
-1753 -1755 0
-1753 -1756 0
-1754 -1755 0
-1754 -1756 0
-1755 -1756 0
1757 1758 1759 1760 1761 1762 1763 0
-1757 -1758 0
-1757 -1759 0
-1757 -1760 0
-1757 -1761 0
-1757 -1762 0
-1757 -1763 0
-1758 -1759 0
-1758 -1760 0
-1758 -1761 0
-1758 -1762 0
-1758 -1763 0
-1759 -1760 0
-1759 -1761 0
-1759 -1762 0
-1759 -1763 0
-1760 -1761 0
-1760 -1762 0
-1760 -1763 0
-1761 -1762 0
-1761 -1763 0
-1762 -1763 0
1764 1765 1766 1767 1768 1769 1770 1771 0
-1764 -1765 0
-1764 -1766 0
-1764 -1767 0
-1764 -1768 0
-1764 -1769 0
-1764 -1770 0
-1764 -1771 0
-1765 -1766 0
-1765 -1767 0
-1765 -1768 0
-1765 -1769 0
-1765 -1770 0
-1765 -1771 0
-1766 -1767 0
-1766 -1768 0
-1766 -1769 0
-1766 -1770 0
-1766 -1771 0
-1767 -1768 0
-1767 -1769 0
-1767 -1770 0
-1767 -1771 0
-1768 -1769 0
-1768 -1770 0
-1768 -1771 0
-1769 -1770 0
-1769 -1771 0
-1770 -1771 0
1772 1773 1774 1775 1776 1777 1778 0
-1772 -1773 0
-1772 -1774 0
-1772 -1775 0
-1772 -1776 0
-1772 -1777 0
-1772 -1778 0
-1773 -1774 0
-1773 -1775 0
-1773 -1776 0
-1773 -1777 0
-1773 -1778 0
-1774 -1775 0
-1774 -1776 0
-1774 -1777 0
-1774 -1778 0
-1775 -1776 0
-1775 -1777 0
-1775 -1778 0
-1776 -1777 0
-1776 -1778 0
-1777 -1778 0
1779 1780 1781 1782 1783 1784 1785 1786 1787 0
-1779 -1780 0
-1779 -1781 0
-1779 -1782 0
-1779 -1783 0
-1779 -1784 0
-1779 -1785 0
-1779 -1786 0
-1779 -1787 0
-1780 -1781 0
-1780 -1782 0
-1780 -1783 0
-1780 -1784 0
-1780 -1785 0
-1780 -1786 0
-1780 -1787 0
-1781 -1782 0
-1781 -1783 0
-1781 -1784 0
-1781 -1785 0
-1781 -1786 0
-1781 -1787 0
-1782 -1783 0
-1782 -1784 0
-1782 -1785 0
-1782 -1786 0
-1782 -1787 0
-1783 -1784 0
-1783 -1785 0
-1783 -1786 0
-1783 -1787 0
-1784 -1785 0
-1784 -1786 0
-1784 -1787 0
-1785 -1786 0
-1785 -1787 0
-1786 -1787 0
1788 1789 1790 1791 1792 1793 1794 0
-1788 -1789 0
-1788 -1790 0
-1788 -1791 0
-1788 -1792 0
-1788 -1793 0
-1788 -1794 0
-1789 -1790 0
-1789 -1791 0
-1789 -1792 0
-1789 -1793 0
-1789 -1794 0
-1790 -1791 0
-1790 -1792 0
-1790 -1793 0
-1790 -1794 0
-1791 -1792 0
-1791 -1793 0
-1791 -1794 0
-1792 -1793 0
-1792 -1794 0
-1793 -1794 0
1795 1796 1797 1798 1799 1800 1801 0
-1795 -1796 0
-1795 -1797 0
-1795 -1798 0
-1795 -1799 0
-1795 -1800 0
-1795 -1801 0
-1796 -1797 0
-1796 -1798 0
-1796 -1799 0
-1796 -1800 0
-1796 -1801 0
-1797 -1798 0
-1797 -1799 0
-1797 -1800 0
-1797 -1801 0
-1798 -1799 0
-1798 -1800 0
-1798 -1801 0
-1799 -1800 0
-1799 -1801 0
-1800 -1801 0
1802 1803 1804 1805 1806 1807 1808 1809 0
-1802 -1803 0
-1802 -1804 0
-1802 -1805 0
-1802 -1806 0
-1802 -1807 0
-1802 -1808 0
-1802 -1809 0
-1803 -1804 0
-1803 -1805 0
-1803 -1806 0
-1803 -1807 0
-1803 -1808 0
-1803 -1809 0
-1804 -1805 0
-1804 -1806 0
-1804 -1807 0
-1804 -1808 0
-1804 -1809 0
-1805 -1806 0
-1805 -1807 0
-1805 -1808 0
-1805 -1809 0
-1806 -1807 0
-1806 -1808 0
-1806 -1809 0
-1807 -1808 0
-1807 -1809 0
-1808 -1809 0
1810 1811 1812 1813 1814 1815 1816 0
-1810 -1811 0
-1810 -1812 0
-1810 -1813 0
-1810 -1814 0
-1810 -1815 0
-1810 -1816 0
-1811 -1812 0
-1811 -1813 0
-1811 -1814 0
-1811 -1815 0
-1811 -1816 0
-1812 -1813 0
-1812 -1814 0
-1812 -1815 0
-1812 -1816 0
-1813 -1814 0
-1813 -1815 0
-1813 -1816 0
-1814 -1815 0
-1814 -1816 0
-1815 -1816 0
1817 1818 1819 1820 1821 1822 1823 0
-1817 -1818 0
-1817 -1819 0
-1817 -1820 0
-1817 -1821 0
-1817 -1822 0
-1817 -1823 0
-1818 -1819 0
-1818 -1820 0
-1818 -1821 0
-1818 -1822 0
-1818 -1823 0
-1819 -1820 0
-1819 -1821 0
-1819 -1822 0
-1819 -1823 0
-1820 -1821 0
-1820 -1822 0
-1820 -1823 0
-1821 -1822 0
-1821 -1823 0
-1822 -1823 0
1824 1825 1826 1827 1828 1829 1830 1831 0
-1824 -1825 0
-1824 -1826 0
-1824 -1827 0
-1824 -1828 0
-1824 -1829 0
-1824 -1830 0
-1824 -1831 0
-1825 -1826 0
-1825 -1827 0
-1825 -1828 0
-1825 -1829 0
-1825 -1830 0
-1825 -1831 0
-1826 -1827 0
-1826 -1828 0
-1826 -1829 0
-1826 -1830 0
-1826 -1831 0
-1827 -1828 0
-1827 -1829 0
-1827 -1830 0
-1827 -1831 0
-1828 -1829 0
-1828 -1830 0
-1828 -1831 0
-1829 -1830 0
-1829 -1831 0
-1830 -1831 0
1832 1833 1834 1835 1836 1837 1838 0
-1832 -1833 0
-1832 -1834 0
-1832 -1835 0
-1832 -1836 0
-1832 -1837 0
-1832 -1838 0
-1833 -1834 0
-1833 -1835 0
-1833 -1836 0
-1833 -1837 0
-1833 -1838 0
-1834 -1835 0
-1834 -1836 0
-1834 -1837 0
-1834 -1838 0
-1835 -1836 0
-1835 -1837 0
-1835 -1838 0
-1836 -1837 0
-1836 -1838 0
-1837 -1838 0
1839 1840 1841 1842 1843 1844 0
-1839 -1840 0
-1839 -1841 0
-1839 -1842 0
-1839 -1843 0
-1839 -1844 0
-1840 -1841 0
-1840 -1842 0
-1840 -1843 0
-1840 -1844 0
-1841 -1842 0
-1841 -1843 0
-1841 -1844 0
-1842 -1843 0
-1842 -1844 0
-1843 -1844 0
1845 1846 1847 1848 1849 1850 1851 0
-1845 -1846 0
-1845 -1847 0
-1845 -1848 0
-1845 -1849 0
-1845 -1850 0
-1845 -1851 0
-1846 -1847 0
-1846 -1848 0
-1846 -1849 0
-1846 -1850 0
-1846 -1851 0
-1847 -1848 0
-1847 -1849 0
-1847 -1850 0
-1847 -1851 0
-1848 -1849 0
-1848 -1850 0
-1848 -1851 0
-1849 -1850 0
-1849 -1851 0
-1850 -1851 0
1852 1853 1854 1855 1856 1857 0
-1852 -1853 0
-1852 -1854 0
-1852 -1855 0
-1852 -1856 0
-1852 -1857 0
-1853 -1854 0
-1853 -1855 0
-1853 -1856 0
-1853 -1857 0
-1854 -1855 0
-1854 -1856 0
-1854 -1857 0
-1855 -1856 0
-1855 -1857 0
-1856 -1857 0
1858 1859 1860 1861 1862 1863 0
-1858 -1859 0
-1858 -1860 0
-1858 -1861 0
-1858 -1862 0
-1858 -1863 0
-1859 -1860 0
-1859 -1861 0
-1859 -1862 0
-1859 -1863 0
-1860 -1861 0
-1860 -1862 0
-1860 -1863 0
-1861 -1862 0
-1861 -1863 0
-1862 -1863 0
1864 1865 1866 1867 1868 1869 0
-1864 -1865 0
-1864 -1866 0
-1864 -1867 0
-1864 -1868 0
-1864 -1869 0
-1865 -1866 0
-1865 -1867 0
-1865 -1868 0
-1865 -1869 0
-1866 -1867 0
-1866 -1868 0
-1866 -1869 0
-1867 -1868 0
-1867 -1869 0
-1868 -1869 0
1870 1871 1872 1873 1874 1875 1876 0
-1870 -1871 0
-1870 -1872 0
-1870 -1873 0
-1870 -1874 0
-1870 -1875 0
-1870 -1876 0
-1871 -1872 0
-1871 -1873 0
-1871 -1874 0
-1871 -1875 0
-1871 -1876 0
-1872 -1873 0
-1872 -1874 0
-1872 -1875 0
-1872 -1876 0
-1873 -1874 0
-1873 -1875 0
-1873 -1876 0
-1874 -1875 0
-1874 -1876 0
-1875 -1876 0
1877 0
1878 1879 1880 1881 1882 1883 0
-1878 -1879 0
-1878 -1880 0
-1878 -1881 0
-1878 -1882 0
-1878 -1883 0
-1879 -1880 0
-1879 -1881 0
-1879 -1882 0
-1879 -1883 0
-1880 -1881 0
-1880 -1882 0
-1880 -1883 0
-1881 -1882 0
-1881 -1883 0
-1882 -1883 0
1884 1885 1886 1887 1888 1889 0
-1884 -1885 0
-1884 -1886 0
-1884 -1887 0
-1884 -1888 0
-1884 -1889 0
-1885 -1886 0
-1885 -1887 0
-1885 -1888 0
-1885 -1889 0
-1886 -1887 0
-1886 -1888 0
-1886 -1889 0
-1887 -1888 0
-1887 -1889 0
-1888 -1889 0
1890 1891 1892 1893 1894 1895 1896 0
-1890 -1891 0
-1890 -1892 0
-1890 -1893 0
-1890 -1894 0
-1890 -1895 0
-1890 -1896 0
-1891 -1892 0
-1891 -1893 0
-1891 -1894 0
-1891 -1895 0
-1891 -1896 0
-1892 -1893 0
-1892 -1894 0
-1892 -1895 0
-1892 -1896 0
-1893 -1894 0
-1893 -1895 0
-1893 -1896 0
-1894 -1895 0
-1894 -1896 0
-1895 -1896 0
1897 1898 1899 1900 1901 1902 0
-1897 -1898 0
-1897 -1899 0
-1897 -1900 0
-1897 -1901 0
-1897 -1902 0
-1898 -1899 0
-1898 -1900 0
-1898 -1901 0
-1898 -1902 0
-1899 -1900 0
-1899 -1901 0
-1899 -1902 0
-1900 -1901 0
-1900 -1902 0
-1901 -1902 0
1903 1904 1905 1906 1907 1908 1909 0
-1903 -1904 0
-1903 -1905 0
-1903 -1906 0
-1903 -1907 0
-1903 -1908 0
-1903 -1909 0
-1904 -1905 0
-1904 -1906 0
-1904 -1907 0
-1904 -1908 0
-1904 -1909 0
-1905 -1906 0
-1905 -1907 0
-1905 -1908 0
-1905 -1909 0
-1906 -1907 0
-1906 -1908 0
-1906 -1909 0
-1907 -1908 0
-1907 -1909 0
-1908 -1909 0
1910 1911 1912 1913 1914 1915 0
-1910 -1911 0
-1910 -1912 0
-1910 -1913 0
-1910 -1914 0
-1910 -1915 0
-1911 -1912 0
-1911 -1913 0
-1911 -1914 0
-1911 -1915 0
-1912 -1913 0
-1912 -1914 0
-1912 -1915 0
-1913 -1914 0
-1913 -1915 0
-1914 -1915 0
1916 0
1917 1918 1919 1920 1921 1922 1923 0
-1917 -1918 0
-1917 -1919 0
-1917 -1920 0
-1917 -1921 0
-1917 -1922 0
-1917 -1923 0
-1918 -1919 0
-1918 -1920 0
-1918 -1921 0
-1918 -1922 0
-1918 -1923 0
-1919 -1920 0
-1919 -1921 0
-1919 -1922 0
-1919 -1923 0
-1920 -1921 0
-1920 -1922 0
-1920 -1923 0
-1921 -1922 0
-1921 -1923 0
-1922 -1923 0
1924 1925 1926 1927 1928 1929 1930 0
-1924 -1925 0
-1924 -1926 0
-1924 -1927 0
-1924 -1928 0
-1924 -1929 0
-1924 -1930 0
-1925 -1926 0
-1925 -1927 0
-1925 -1928 0
-1925 -1929 0
-1925 -1930 0
-1926 -1927 0
-1926 -1928 0
-1926 -1929 0
-1926 -1930 0
-1927 -1928 0
-1927 -1929 0
-1927 -1930 0
-1928 -1929 0
-1928 -1930 0
-1929 -1930 0
1931 1932 1933 1934 1935 1936 0
-1931 -1932 0
-1931 -1933 0
-1931 -1934 0
-1931 -1935 0
-1931 -1936 0
-1932 -1933 0
-1932 -1934 0
-1932 -1935 0
-1932 -1936 0
-1933 -1934 0
-1933 -1935 0
-1933 -1936 0
-1934 -1935 0
-1934 -1936 0
-1935 -1936 0
1937 0
1938 1939 1940 1941 1942 1943 0
-1938 -1939 0
-1938 -1940 0
-1938 -1941 0
-1938 -1942 0
-1938 -1943 0
-1939 -1940 0
-1939 -1941 0
-1939 -1942 0
-1939 -1943 0
-1940 -1941 0
-1940 -1942 0
-1940 -1943 0
-1941 -1942 0
-1941 -1943 0
-1942 -1943 0
1944 1945 1946 1947 1948 1949 0
-1944 -1945 0
-1944 -1946 0
-1944 -1947 0
-1944 -1948 0
-1944 -1949 0
-1945 -1946 0
-1945 -1947 0
-1945 -1948 0
-1945 -1949 0
-1946 -1947 0
-1946 -1948 0
-1946 -1949 0
-1947 -1948 0
-1947 -1949 0
-1948 -1949 0
1950 1951 1952 1953 1954 1955 1956 0
-1950 -1951 0
-1950 -1952 0
-1950 -1953 0
-1950 -1954 0
-1950 -1955 0
-1950 -1956 0
-1951 -1952 0
-1951 -1953 0
-1951 -1954 0
-1951 -1955 0
-1951 -1956 0
-1952 -1953 0
-1952 -1954 0
-1952 -1955 0
-1952 -1956 0
-1953 -1954 0
-1953 -1955 0
-1953 -1956 0
-1954 -1955 0
-1954 -1956 0
-1955 -1956 0
1957 1958 1959 1960 1961 1962 1963 1964 0
-1957 -1958 0
-1957 -1959 0
-1957 -1960 0
-1957 -1961 0
-1957 -1962 0
-1957 -1963 0
-1957 -1964 0
-1958 -1959 0
-1958 -1960 0
-1958 -1961 0
-1958 -1962 0
-1958 -1963 0
-1958 -1964 0
-1959 -1960 0
-1959 -1961 0
-1959 -1962 0
-1959 -1963 0
-1959 -1964 0
-1960 -1961 0
-1960 -1962 0
-1960 -1963 0
-1960 -1964 0
-1961 -1962 0
-1961 -1963 0
-1961 -1964 0
-1962 -1963 0
-1962 -1964 0
-1963 -1964 0
1965 1966 1967 1968 1969 1970 1971 0
-1965 -1966 0
-1965 -1967 0
-1965 -1968 0
-1965 -1969 0
-1965 -1970 0
-1965 -1971 0
-1966 -1967 0
-1966 -1968 0
-1966 -1969 0
-1966 -1970 0
-1966 -1971 0
-1967 -1968 0
-1967 -1969 0
-1967 -1970 0
-1967 -1971 0
-1968 -1969 0
-1968 -1970 0
-1968 -1971 0
-1969 -1970 0
-1969 -1971 0
-1970 -1971 0
1972 1973 1974 1975 1976 1977 0
-1972 -1973 0
-1972 -1974 0
-1972 -1975 0
-1972 -1976 0
-1972 -1977 0
-1973 -1974 0
-1973 -1975 0
-1973 -1976 0
-1973 -1977 0
-1974 -1975 0
-1974 -1976 0
-1974 -1977 0
-1975 -1976 0
-1975 -1977 0
-1976 -1977 0
1978 1979 1980 1981 1982 1983 0
-1978 -1979 0
-1978 -1980 0
-1978 -1981 0
-1978 -1982 0
-1978 -1983 0
-1979 -1980 0
-1979 -1981 0
-1979 -1982 0
-1979 -1983 0
-1980 -1981 0
-1980 -1982 0
-1980 -1983 0
-1981 -1982 0
-1981 -1983 0
-1982 -1983 0
1984 1985 1986 1987 1988 1989 0
-1984 -1985 0
-1984 -1986 0
-1984 -1987 0
-1984 -1988 0
-1984 -1989 0
-1985 -1986 0
-1985 -1987 0
-1985 -1988 0
-1985 -1989 0
-1986 -1987 0
-1986 -1988 0
-1986 -1989 0
-1987 -1988 0
-1987 -1989 0
-1988 -1989 0
1990 0
1991 1992 1993 1994 1995 1996 1997 0
-1991 -1992 0
-1991 -1993 0
-1991 -1994 0
-1991 -1995 0
-1991 -1996 0
-1991 -1997 0
-1992 -1993 0
-1992 -1994 0
-1992 -1995 0
-1992 -1996 0
-1992 -1997 0
-1993 -1994 0
-1993 -1995 0
-1993 -1996 0
-1993 -1997 0
-1994 -1995 0
-1994 -1996 0
-1994 -1997 0
-1995 -1996 0
-1995 -1997 0
-1996 -1997 0
-2 -203 0
-4 -206 0
-6 -207 0
-7 -208 0
-8 -209 0
-9 -210 0
-2 -254 0
-4 -256 0
-5 -258 0
-6 -259 0
-7 -260 0
-8 -261 0
-9 -262 0
-2 -282 0
-4 -283 0
-6 -285 0
-7 -287 0
-8 -288 0
-9 -289 0
-4 -299 0
-6 -300 0
-7 -302 0
-8 -303 0
-9 -304 0
-4 -312 0
-6 -314 0
-7 -315 0
-8 -316 0
-9 -317 0
-2 -385 0
-4 -387 0
-5 -389 0
-6 -390 0
-7 -392 0
-8 -393 0
-9 -394 0
-2 -409 0
-4 -410 0
-5 -411 0
-6 -412 0
-8 -414 0
-9 -415 0
-4 -423 0
-5 -425 0
-6 -426 0
-8 -427 0
-9 -428 0
-2 -457 0
-3 -459 0
-5 -461 0
-6 -462 0
-7 -464 0
-8 -465 0
-9 -466 0
-2 -489 0
-3 -491 0
-6 -492 0
-7 -493 0
-8 -494 0
-9 -495 0
-2 -503 0
-6 -506 0
-7 -507 0
-8 -508 0
-9 -509 0
-3 -511 0
-4 -513 0
-6 -515 0
-7 -516 0
-8 -517 0
-9 -518 0
-3 -527 0
-4 -528 0
-6 -529 0
-7 -531 0
-8 -532 0
-9 -533 0
-2 -541 0
-3 -542 0
-5 -544 0
-6 -545 0
-8 -546 0
-9 -547 0
-2 -555 0
-5 -557 0
-6 -558 0
-8 -559 0
-9 -560 0
-3 -561 0
-4 -563 0
-5 -564 0
-6 -565 0
-8 -566 0
-9 -567 0
-3 -575 0
-4 -576 0
-5 -578 0
-6 -579 0
-8 -581 0
-9 -582 0
-3 -583 0
-4 -584 0
-6 -585 0
-8 -587 0
-9 -588 0
-4 -590 0
-6 -592 0
-8 -594 0
-9 -595 0
-2 -634 0
-4 -635 0
-5 -637 0
-7 -638 0
-8 -639 0
-9 -640 0
-2 -657 0
-3 -658 0
-5 -660 0
-7 -661 0
-8 -662 0
-9 -663 0
-2 -679 0
-3 -680 0
-6 -681 0
-7 -683 0
-8 -684 0
-9 -685 0
-2 -693 0
-7 -697 0
-8 -698 0
-9 -699 0
-3 -700 0
-4 -702 0
-7 -705 0
-8 -706 0
-9 -707 0
-3 -719 0
-4 -720 0
-7 -721 0
-8 -722 0
-9 -723 0
-2 -724 0
-5 -725 0
-7 -727 0
-8 -728 0
-9 -729 0
-3 -736 0
-4 -737 0
-5 -739 0
-7 -740 0
-8 -741 0
-9 -742 0
-4 -743 0
-7 -746 0
-8 -747 0
-9 -748 0
-2 -763 0
-3 -764 0
-5 -766 0
-7 -768 0
-8 -769 0
-9 -770 0
-3 -779 0
-4 -780 0
-5 -782 0
-7 -783 0
-8 -784 0
-9 -785 0
-3 -787 0
-5 -790 0
-7 -791 0
-8 -792 0
-9 -793 0
-3 -801 0
-5 -802 0
-7 -804 0
-8 -805 0
-9 -806 0
-3 -807 0
-6 -809 0
-7 -811 0
-8 -812 0
-9 -813 0
-3 -815 0
-7 -818 0
-8 -819 0
-9 -820 0
-3 -829 0
-5 -831 0
-8 -833 0
-9 -834 0
-2 -958 0
-5 -962 0
-7 -963 0
-8 -964 0
-9 -965 0
-2 -981 0
-6 -985 0
-7 -987 0
-8 -988 0
-9 -989 0
-4 -1001 0
-7 -1003 0
-8 -1004 0
-9 -1005 0
-4 -1016 0
-7 -1018 0
-8 -1019 0
-9 -1020 0
-2 -1028 0
-5 -1031 0
-6 -1032 0
-8 -1034 0
-9 -1035 0
-4 -1045 0
-5 -1047 0
-8 -1049 0
-9 -1050 0
-4 -1062 0
-5 -1064 0
-8 -1065 0
-9 -1066 0
-4 -1068 0
-6 -1070 0
-8 -1072 0
-9 -1073 0
-4 -1083 0
-6 -1085 0
-8 -1087 0
-9 -1088 0
-2 -1121 0
-5 -1124 0
-8 -1126 0
-9 -1127 0
-2 -1153 0
-5 -1155 0
-6 -1156 0
-8 -1157 0
-9 -1158 0
-4 -1167 0
-5 -1169 0
-8 -1170 0
-9 -1171 0
-4 -1180 0
-5 -1181 0
-8 -1183 0
-9 -1184 0
-2 -1191 0
-5 -1193 0
-6 -1194 0
-7 -1195 0
-8 -1196 0
-9 -1197 0
-4 -1206 0
-5 -1207 0
-7 -1208 0
-8 -1209 0
-9 -1210 0
-4 -1219 0
-5 -1221 0
-7 -1223 0
-8 -1224 0
-9 -1225 0
-4 -1226 0
-5 -1227 0
-6 -1228 0
-7 -1230 0
-8 -1231 0
-9 -1232 0
-3 -1241 0
-5 -1243 0
-8 -1244 0
-9 -1245 0
-3 -1254 0
-5 -1257 0
-8 -1259 0
-9 -1260 0
-3 -1262 0
-6 -1264 0
-8 -1266 0
-9 -1267 0
-3 -1276 0
-6 -1278 0
-8 -1279 0
-9 -1280 0
-8 -1285 0
-9 -1286 0
-3 -1295 0
-5 -1298 0
-6 -1299 0
-7 -1301 0
-8 -1302 0
-9 -1303 0
-3 -1312 0
-5 -1314 0
-6 -1315 0
-7 -1316 0
-8 -1317 0
-9 -1318 0
-5 -1321 0
-7 -1323 0
-8 -1324 0
-9 -1325 0
-5 -1335 0
-7 -1336 0
-8 -1337 0
-9 -1338 0
-6 -1340 0
-7 -1342 0
-8 -1343 0
-9 -1344 0
-2 -1360 0
-5 -1362 0
-6 -1363 0
-7 -1364 0
-8 -1365 0
-9 -1366 0
-2 -1380 0
-5 -1381 0
-7 -1383 0
-8 -1384 0
-9 -1385 0
-4 -1393 0
-5 -1395 0
-6 -1396 0
-7 -1398 0
-8 -1399 0
-9 -1400 0
-4 -1409 0
-5 -1410 0
-6 -1411 0
-7 -1412 0
-8 -1413 0
-9 -1414 0
-4 -1422 0
-5 -1424 0
-6 -1425 0
-8 -1426 0
-9 -1427 0
-3 -1428 0
-5 -1430 0
-6 -1431 0
-7 -1433 0
-8 -1434 0
-9 -1435 0
-3 -1436 0
-7 -1439 0
-8 -1440 0
-9 -1441 0
-6 -1445 0
-7 -1447 0
-8 -1448 0
-9 -1449 0
-5 -1458 0
-6 -1459 0
-8 -1461 0
-9 -1462 0
-3 -1484 0
-5 -1487 0
-6 -1488 0
-8 -1489 0
-9 -1490 0
-3 -1500 0
-5 -1501 0
-6 -1502 0
-8 -1504 0
-9 -1505 0
-3 -1506 0
-5 -1508 0
-8 -1510 0
-9 -1511 0
-5 -1514 0
-6 -1515 0
-8 -1517 0
-9 -1518 0
-5 -1526 0
-6 -1527 0
-7 -1529 0
-8 -1530 0
-9 -1531 0
-2 -1576 0
-6 -1578 0
-7 -1580 0
-8 -1581 0
-9 -1582 0
-2 -1598 0
-5 -1600 0
-6 -1601 0
-7 -1602 0
-8 -1603 0
-9 -1604 0
-4 -1613 0
-5 -1615 0
-6 -1616 0
-7 -1617 0
-8 -1618 0
-9 -1619 0
-4 -1629 0
-5 -1630 0
-6 -1631 0
-7 -1633 0
-8 -1634 0
-9 -1635 0
-4 -1643 0
-6 -1645 0
-8 -1647 0
-9 -1648 0
-4 -1656 0
-5 -1658 0
-6 -1659 0
-8 -1660 0
-9 -1661 0
-2 -1684 0
-5 -1687 0
-6 -1688 0
-8 -1690 0
-9 -1691 0
-2 -1714 0
-6 -1716 0
-8 -1718 0
-9 -1719 0
-4 -1730 0
-6 -1732 0
-8 -1734 0
-9 -1735 0
-4 -1745 0
-6 -1747 0
-8 -1749 0
-9 -1750 0
-4 -1757 0
-5 -1758 0
-6 -1759 0
-7 -1761 0
-8 -1762 0
-9 -1763 0
-3 -1772 0
-6 -1775 0
-8 -1777 0
-9 -1778 0
-3 -1789 0
-6 -1791 0
-8 -1793 0
-9 -1794 0
-3 -1795 0
-5 -1798 0
-6 -1799 0
-8 -1800 0
-9 -1801 0
-3 -1811 0
-5 -1812 0
-6 -1813 0
-8 -1815 0
-9 -1816 0
-5 -1820 0
-6 -1821 0
-8 -1822 0
-9 -1823 0
-5 -1834 0
-6 -1835 0
-8 -1837 0
-9 -1838 0
-3 -1845 0
-6 -1847 0
-7 -1849 0
-8 -1850 0
-9 -1851 0
-6 -1854 0
-7 -1855 0
-8 -1856 0
-9 -1857 0
-6 -1865 0
-7 -1867 0
-8 -1868 0
-9 -1869 0
-5 -1871 0
-6 -1872 0
-7 -1874 0
-8 -1875 0
-9 -1876 0
-4 -1884 0
-7 -1887 0
-8 -1888 0
-9 -1889 0
-5 -1892 0
-7 -1894 0
-8 -1895 0
-9 -1896 0
-3 -1910 0
-5 -1912 0
-8 -1914 0
-9 -1915 0
-5 -1939 0
-6 -1940 0
-8 -1942 0
-9 -1943 0
-5 -1952 0
-7 -1954 0
-8 -1955 0
-9 -1956 0
-5 -1967 0
-7 -1969 0
-8 -1970 0
-9 -1971 0
-6 -1974 0
-7 -1975 0
-8 -1976 0
-9 -1977 0
-6 -1985 0
-7 -1987 0
-8 -1988 0
-9 -1989 0
-5 -1992 0
-6 -1993 0
-7 -1995 0
-8 -1996 0
-9 -1997 0
-10 -193 0
-12 -196 0
-13 -197 0
-14 -199 0
-15 -201 0
-16 -202 0
-10 -248 0
-12 -250 0
-14 -251 0
-15 -252 0
-16 -253 0
-10 -275 0
-12 -276 0
-14 -279 0
-15 -280 0
-16 -281 0
-12 -299 0
-14 -301 0
-15 -303 0
-16 -304 0
-12 -306 0
-14 -308 0
-15 -309 0
-16 -310 0
-10 -379 0
-12 -381 0
-13 -382 0
-15 -383 0
-16 -384 0
-10 -402 0
-12 -403 0
-13 -404 0
-15 -407 0
-16 -408 0
-12 -423 0
-13 -424 0
-15 -427 0
-16 -428 0
-10 -450 0
-11 -452 0
-13 -454 0
-15 -455 0
-16 -456 0
-10 -480 0
-11 -482 0
-13 -483 0
-14 -486 0
-15 -487 0
-16 -488 0
-10 -503 0
-13 -505 0
-15 -508 0
-16 -509 0
-11 -511 0
-12 -513 0
-13 -514 0
-15 -517 0
-16 -518 0
-11 -520 0
-12 -521 0
-13 -522 0
-15 -524 0
-16 -525 0
-10 -534 0
-11 -535 0
-14 -537 0
-15 -539 0
-16 -540 0
-10 -555 0
-15 -559 0
-16 -560 0
-11 -561 0
-12 -563 0
-15 -566 0
-16 -567 0
-11 -569 0
-12 -570 0
-15 -572 0
-16 -573 0
-11 -583 0
-12 -584 0
-14 -586 0
-15 -587 0
-16 -588 0
-12 -597 0
-15 -601 0
-16 -602 0
-10 -626 0
-12 -627 0
-13 -628 0
-14 -630 0
-15 -632 0
-16 -633 0
-10 -648 0
-11 -649 0
-13 -651 0
-14 -653 0
-15 -655 0
-16 -656 0
-10 -671 0
-11 -672 0
-13 -673 0
-14 -675 0
-15 -677 0
-16 -678 0
-10 -693 0
-13 -695 0
-14 -696 0
-15 -698 0
-16 -699 0
-11 -700 0
-12 -702 0
-13 -703 0
-14 -704 0
-15 -706 0
-16 -707 0
-11 -709 0
-12 -710 0
-13 -711 0
-14 -714 0
-15 -716 0
-16 -717 0
-10 -724 0
-14 -726 0
-15 -728 0
-16 -729 0
-11 -730 0
-12 -731 0
-14 -733 0
-15 -734 0
-16 -735 0
-12 -749 0
-14 -752 0
-15 -754 0
-16 -755 0
-10 -756 0
-11 -757 0
-13 -758 0
-15 -761 0
-16 -762 0
-11 -779 0
-12 -780 0
-13 -781 0
-15 -784 0
-16 -785 0
-11 -787 0
-13 -789 0
-15 -792 0
-16 -793 0
-11 -795 0
-13 -796 0
-15 -798 0
-16 -799 0
-11 -807 0
-13 -808 0
-14 -810 0
-15 -812 0
-16 -813 0
-11 -822 0
-13 -823 0
-15 -827 0
-16 -828 0
-11 -835 0
-15 -839 0
-16 -840 0
-10 -951 0
-14 -955 0
-15 -956 0
-16 -957 0
-10 -974 0
-14 -978 0
-15 -979 0
-16 -980 0
-12 -1001 0
-14 -1002 0
-15 -1004 0
-16 -1005 0
-12 -1008 0
-14 -1011 0
-15 -1012 0
-16 -1013 0
-10 -1021 0
-13 -1023 0
-14 -1024 0
-15 -1026 0
-16 -1027 0
-12 -1045 0
-13 -1046 0
-14 -1048 0
-15 -1049 0
-16 -1050 0
-12 -1053 0
-13 -1054 0
-14 -1056 0
-15 -1058 0
-16 -1059 0
-12 -1068 0
-13 -1069 0
-14 -1071 0
-15 -1072 0
-16 -1073 0
-12 -1075 0
-13 -1076 0
-14 -1078 0
-15 -1080 0
-16 -1081 0
-10 -1112 0
-13 -1115 0
-15 -1119 0
-16 -1120 0
-10 -1146 0
-13 -1148 0
-14 -1149 0
-15 -1151 0
-16 -1152 0
-12 -1167 0
-13 -1168 0
-15 -1170 0
-16 -1171 0
-12 -1173 0
-13 -1174 0
-15 -1177 0
-16 -1178 0
-10 -1185 0
-14 -1187 0
-15 -1189 0
-16 -1190 0
-12 -1206 0
-15 -1209 0
-16 -1210 0
-12 -1212 0
-15 -1216 0
-16 -1217 0
-12 -1226 0
-14 -1229 0
-15 -1231 0
-16 -1232 0
-11 -1241 0
-15 -1244 0
-16 -1245 0
-11 -1247 0
-15 -1251 0
-16 -1252 0
-11 -1262 0
-14 -1265 0
-15 -1266 0
-16 -1267 0
-11 -1269 0
-14 -1271 0
-15 -1273 0
-16 -1274 0
-15 -1292 0
-16 -1293 0
-11 -1295 0
-13 -1297 0
-14 -1300 0
-15 -1302 0
-16 -1303 0
-11 -1305 0
-13 -1306 0
-14 -1307 0
-15 -1309 0
-16 -1310 0
-13 -1328 0
-15 -1331 0
-16 -1332 0
-13 -1334 0
-15 -1337 0
-16 -1338 0
-13 -1346 0
-14 -1349 0
-15 -1350 0
-16 -1351 0
-10 -1352 0
-13 -1354 0
-14 -1357 0
-15 -1358 0
-16 -1359 0
-10 -1374 0
-13 -1375 0
-14 -1377 0
-15 -1378 0
-16 -1379 0
-12 -1393 0
-13 -1394 0
-14 -1397 0
-15 -1399 0
-16 -1400 0
-12 -1402 0
-13 -1403 0
-14 -1405 0
-15 -1406 0
-16 -1407 0
-12 -1415 0
-14 -1418 0
-15 -1420 0
-16 -1421 0
-11 -1428 0
-14 -1432 0
-15 -1434 0
-16 -1435 0
-11 -1436 0
-14 -1438 0
-15 -1440 0
-16 -1441 0
-14 -1453 0
-15 -1455 0
-16 -1456 0
-13 -1464 0
-14 -1466 0
-15 -1468 0
-16 -1469 0
-13 -1471 0
-14 -1474 0
-15 -1476 0
-16 -1477 0
-11 -1484 0
-13 -1486 0
-15 -1489 0
-16 -1490 0
-11 -1492 0
-13 -1493 0
-15 -1497 0
-16 -1498 0
-11 -1506 0
-13 -1507 0
-14 -1509 0
-15 -1510 0
-16 -1511 0
-13 -1520 0
-15 -1523 0
-16 -1524 0
-10 -1570 0
-13 -1572 0
-15 -1574 0
-16 -1575 0
-10 -1590 0
-13 -1592 0
-14 -1595 0
-15 -1596 0
-16 -1597 0
-12 -1613 0
-13 -1614 0
-15 -1618 0
-16 -1619 0
-12 -1622 0
-13 -1623 0
-15 -1625 0
-16 -1626 0
-12 -1637 0
-15 -1640 0
-16 -1641 0
-12 -1649 0
-14 -1652 0
-15 -1654 0
-16 -1655 0
-10 -1677 0
-13 -1679 0
-14 -1680 0
-15 -1682 0
-16 -1683 0
-10 -1707 0
-13 -1708 0
-15 -1712 0
-16 -1713 0
-12 -1730 0
-13 -1731 0
-14 -1733 0
-15 -1734 0
-16 -1735 0
-12 -1737 0
-13 -1738 0
-14 -1740 0
-15 -1742 0
-16 -1743 0
-12 -1751 0
-13 -1752 0
-14 -1753 0
-15 -1755 0
-16 -1756 0
-11 -1772 0
-13 -1774 0
-14 -1776 0
-15 -1777 0
-16 -1778 0
-11 -1780 0
-13 -1782 0
-14 -1784 0
-15 -1786 0
-16 -1787 0
-11 -1795 0
-13 -1797 0
-15 -1800 0
-16 -1801 0
-11 -1803 0
-13 -1804 0
-15 -1808 0
-16 -1809 0
-13 -1826 0
-14 -1828 0
-15 -1830 0
-16 -1831 0
-13 -1833 0
-14 -1836 0
-15 -1837 0
-16 -1838 0
-11 -1839 0
-15 -1843 0
-16 -1844 0
-14 -1861 0
-15 -1862 0
-16 -1863 0
-14 -1866 0
-15 -1868 0
-16 -1869 0
-12 -1878 0
-13 -1879 0
-15 -1882 0
-16 -1883 0
-13 -1898 0
-15 -1901 0
-16 -1902 0
-11 -1903 0
-13 -1904 0
-14 -1906 0
-15 -1908 0
-16 -1909 0
-13 -1917 0
-14 -1920 0
-15 -1922 0
-16 -1923 0
-14 -1941 0
-15 -1942 0
-16 -1943 0
-13 -1951 0
-14 -1953 0
-15 -1955 0
-16 -1956 0
-13 -1959 0
-14 -1961 0
-15 -1963 0
-16 -1964 0
-13 -1973 0
-15 -1976 0
-16 -1977 0
-13 -1979 0
-15 -1982 0
-16 -1983 0
-17 -183 0
-19 -186 0
-20 -187 0
-21 -189 0
-22 -191 0
-23 -192 0
-17 -241 0
-19 -243 0
-20 -244 0
-21 -245 0
-22 -246 0
-23 -247 0
-17 -282 0
-19 -283 0
-20 -284 0
-21 -285 0
-22 -288 0
-23 -289 0
-19 -291 0
-20 -292 0
-21 -294 0
-22 -296 0
-23 -297 0
-19 -312 0
-20 -313 0
-21 -314 0
-22 -316 0
-23 -317 0
-17 -442 0
-20 -445 0
-21 -446 0
-22 -448 0
-23 -449 0
-17 -489 0
-21 -492 0
-22 -494 0
-23 -495 0
-19 -498 0
-21 -500 0
-22 -501 0
-23 -502 0
-19 -528 0
-21 -529 0
-22 -532 0
-23 -533 0
-17 -541 0
-20 -543 0
-21 -545 0
-22 -546 0
-23 -547 0
-19 -549 0
-20 -550 0
-21 -551 0
-22 -553 0
-23 -554 0
-19 -576 0
-20 -577 0
-21 -579 0
-22 -581 0
-23 -582 0
-19 -584 0
-21 -585 0
-22 -587 0
-23 -588 0
-19 -597 0
-21 -599 0
-22 -601 0
-23 -602 0
-17 -679 0
-21 -681 0
-22 -684 0
-23 -685 0
-19 -687 0
-22 -691 0
-23 -692 0
-19 -720 0
-22 -722 0
-23 -723 0
-19 -737 0
-20 -738 0
-22 -741 0
-23 -742 0
-19 -749 0
-21 -751 0
-22 -754 0
-23 -755 0
-22 -805 0
-23 -806 0
-20 -808 0
-21 -809 0
-22 -812 0
-23 -813 0
-20 -823 0
-21 -825 0
-22 -827 0
-23 -828 0
-21 -837 0
-22 -839 0
-23 -840 0
-17 -903 0
-19 -905 0
-20 -906 0
-22 -907 0
-23 -908 0
-17 -923 0
-19 -924 0
-20 -925 0
-22 -928 0
-23 -929 0
-19 -938 0
-20 -939 0
-22 -942 0
-23 -943 0
-17 -981 0
-18 -983 0
-20 -984 0
-21 -985 0
-22 -988 0
-23 -989 0
-18 -992 0
-19 -993 0
-20 -994 0
-22 -997 0
-23 -998 0
-18 -1015 0
-19 -1016 0
-20 -1017 0
-22 -1019 0
-23 -1020 0
-17 -1028 0
-18 -1029 0
-20 -1030 0
-21 -1032 0
-22 -1034 0
-23 -1035 0
-18 -1037 0
-19 -1038 0
-20 -1039 0
-22 -1042 0
-23 -1043 0
-18 -1061 0
-19 -1062 0
-20 -1063 0
-22 -1065 0
-23 -1066 0
-18 -1067 0
-19 -1068 0
-20 -1069 0
-21 -1070 0
-22 -1072 0
-23 -1073 0
-19 -1075 0
-20 -1076 0
-22 -1080 0
-23 -1081 0
-17 -1103 0
-20 -1106 0
-22 -1110 0
-23 -1111 0
-17 -1153 0
-21 -1156 0
-22 -1157 0
-23 -1158 0
-19 -1161 0
-22 -1163 0
-23 -1164 0
-19 -1180 0
-22 -1183 0
-23 -1184 0
-17 -1191 0
-20 -1192 0
-21 -1194 0
-22 -1196 0
-23 -1197 0
-19 -1199 0
-20 -1200 0
-22 -1203 0
-23 -1204 0
-19 -1219 0
-20 -1220 0
-22 -1224 0
-23 -1225 0
-19 -1226 0
-21 -1228 0
-22 -1231 0
-23 -1232 0
-18 -1235 0
-20 -1236 0
-22 -1238 0
-23 -1239 0
-18 -1255 0
-20 -1256 0
-22 -1259 0
-23 -1260 0
-18 -1263 0
-21 -1264 0
-22 -1266 0
-23 -1267 0
-22 -1273 0
-23 -1274 0
-18 -1288 0
-21 -1290 0
-22 -1292 0
-23 -1293 0
-18 -1296 0
-20 -1297 0
-21 -1299 0
-22 -1302 0
-23 -1303 0
-20 -1306 0
-22 -1309 0
-23 -1310 0
-18 -1327 0
-20 -1328 0
-21 -1330 0
-22 -1331 0
-23 -1332 0
-20 -1334 0
-22 -1337 0
-23 -1338 0
-21 -1340 0
-22 -1343 0
-23 -1344 0
-17 -1380 0
-22 -1384 0
-23 -1385 0
-19 -1387 0
-21 -1388 0
-22 -1390 0
-23 -1391 0
-19 -1409 0
-21 -1411 0
-22 -1413 0
-23 -1414 0
-19 -1422 0
-20 -1423 0
-21 -1425 0
-22 -1426 0
-23 -1427 0
-18 -1437 0
-22 -1440 0
-23 -1441 0
-18 -1451 0
-22 -1455 0
-23 -1456 0
-18 -1463 0
-20 -1464 0
-22 -1468 0
-23 -1469 0
-21 -1480 0
-22 -1482 0
-23 -1483 0
-21 -1502 0
-22 -1504 0
-23 -1505 0
-20 -1507 0
-22 -1510 0
-23 -1511 0
-20 -1520 0
-22 -1523 0
-23 -1524 0
-17 -1556 0
-19 -1557 0
-21 -1559 0
-22 -1561 0
-23 -1562 0
-17 -1598 0
-18 -1599 0
-21 -1601 0
-22 -1603 0
-23 -1604 0
-18 -1606 0
-19 -1607 0
-21 -1609 0
-22 -1610 0
-23 -1611 0
-18 -1628 0
-19 -1629 0
-21 -1631 0
-22 -1634 0
-23 -1635 0
-18 -1642 0
-19 -1643 0
-20 -1644 0
-21 -1645 0
-22 -1647 0
-23 -1648 0
-19 -1649 0
-21 -1651 0
-22 -1654 0
-23 -1655 0
-17 -1670 0
-21 -1672 0
-22 -1675 0
-23 -1676 0
-17 -1714 0
-20 -1715 0
-21 -1716 0
-22 -1718 0
-23 -1719 0
-19 -1721 0
-20 -1722 0
-21 -1724 0
-22 -1727 0
-23 -1728 0
-19 -1745 0
-20 -1746 0
-21 -1747 0
-22 -1749 0
-23 -1750 0
-19 -1757 0
-21 -1759 0
-22 -1762 0
-23 -1763 0
-18 -1765 0
-21 -1767 0
-22 -1770 0
-23 -1771 0
-18 -1790 0
-21 -1791 0
-22 -1793 0
-23 -1794 0
-18 -1796 0
-20 -1797 0
-21 -1799 0
-22 -1800 0
-23 -1801 0
-20 -1804 0
-21 -1806 0
-22 -1808 0
-23 -1809 0
-18 -1825 0
-20 -1826 0
-21 -1827 0
-22 -1830 0
-23 -1831 0
-20 -1833 0
-21 -1835 0
-22 -1837 0
-23 -1838 0
-21 -1841 0
-22 -1843 0
-23 -1844 0
-18 -1858 0
-21 -1860 0
-22 -1862 0
-23 -1863 0
-21 -1865 0
-22 -1868 0
-23 -1869 0
-20 -1870 0
-21 -1872 0
-22 -1875 0
-23 -1876 0
-19 -1884 0
-20 -1885 0
-22 -1888 0
-23 -1889 0
-18 -1897 0
-20 -1898 0
-21 -1899 0
-22 -1901 0
-23 -1902 0
-20 -1911 0
-22 -1914 0
-23 -1915 0
-20 -1917 0
-21 -1919 0
-22 -1922 0
-23 -1923 0
-18 -1931 0
-19 -1932 0
-22 -1935 0
-23 -1936 0
-18 -1938 0
-21 -1940 0
-22 -1942 0
-23 -1943 0
-18 -1945 0
-22 -1948 0
-23 -1949 0
-18 -1966 0
-22 -1970 0
-23 -1971 0
-18 -1972 0
-20 -1973 0
-21 -1974 0
-22 -1976 0
-23 -1977 0
-20 -1979 0
-22 -1982 0
-23 -1983 0
-24 -175 0
-26 -178 0
-27 -179 0
-28 -180 0
-30 -181 0
-31 -182 0
-24 -232 0
-26 -234 0
-27 -236 0
-28 -237 0
-29 -238 0
-30 -239 0
-31 -240 0
-24 -275 0
-26 -276 0
-27 -277 0
-28 -279 0
-30 -280 0
-31 -281 0
-26 -291 0
-27 -293 0
-28 -295 0
-30 -296 0
-31 -297 0
-26 -306 0
-27 -307 0
-28 -308 0
-30 -309 0
-31 -310 0
-24 -435 0
-27 -438 0
-29 -439 0
-30 -440 0
-31 -441 0
-24 -480 0
-27 -484 0
-28 -486 0
-30 -487 0
-31 -488 0
-26 -498 0
-27 -499 0
-30 -501 0
-31 -502 0
-26 -521 0
-27 -523 0
-30 -524 0
-31 -525 0
-24 -534 0
-28 -537 0
-29 -538 0
-30 -539 0
-31 -540 0
-26 -549 0
-29 -552 0
-30 -553 0
-31 -554 0
-26 -570 0
-29 -571 0
-30 -572 0
-31 -573 0
-26 -584 0
-28 -586 0
-30 -587 0
-31 -588 0
-26 -590 0
-28 -593 0
-30 -594 0
-31 -595 0
-24 -671 0
-27 -674 0
-28 -675 0
-29 -676 0
-30 -677 0
-31 -678 0
-26 -687 0
-27 -688 0
-28 -689 0
-29 -690 0
-30 -691 0
-31 -692 0
-26 -710 0
-27 -712 0
-28 -714 0
-29 -715 0
-30 -716 0
-31 -717 0
-26 -731 0
-28 -733 0
-30 -734 0
-31 -735 0
-26 -743 0
-28 -745 0
-29 -746 0
-30 -747 0
-31 -748 0
-30 -798 0
-31 -799 0
-28 -810 0
-29 -811 0
-30 -812 0
-31 -813 0
-28 -817 0
-29 -818 0
-30 -819 0
-31 -820 0
-27 -831 0
-28 -832 0
-30 -833 0
-31 -834 0
-24 -894 0
-26 -896 0
-27 -897 0
-28 -899 0
-29 -900 0
-30 -901 0
-31 -902 0
-24 -915 0
-26 -916 0
-28 -919 0
-29 -920 0
-30 -921 0
-31 -922 0
-26 -938 0
-28 -940 0
-29 -941 0
-30 -942 0
-31 -943 0
-24 -974 0
-25 -976 0
-27 -977 0
-28 -978 0
-30 -979 0
-31 -980 0
-25 -992 0
-26 -993 0
-27 -995 0
-28 -996 0
-30 -997 0
-31 -998 0
-25 -1007 0
-26 -1008 0
-27 -1009 0
-28 -1011 0
-30 -1012 0
-31 -1013 0
-24 -1021 0
-25 -1022 0
-28 -1024 0
-29 -1025 0
-30 -1026 0
-31 -1027 0
-25 -1037 0
-26 -1038 0
-28 -1040 0
-29 -1041 0
-30 -1042 0
-31 -1043 0
-25 -1052 0
-26 -1053 0
-28 -1056 0
-29 -1057 0
-30 -1058 0
-31 -1059 0
-25 -1067 0
-26 -1068 0
-28 -1071 0
-30 -1072 0
-31 -1073 0
-26 -1083 0
-28 -1086 0
-30 -1087 0
-31 -1088 0
-24 -1096 0
-29 -1100 0
-30 -1101 0
-31 -1102 0
-24 -1146 0
-28 -1149 0
-29 -1150 0
-30 -1151 0
-31 -1152 0
-26 -1161 0
-29 -1162 0
-30 -1163 0
-31 -1164 0
-26 -1173 0
-29 -1176 0
-30 -1177 0
-31 -1178 0
-24 -1185 0
-27 -1186 0
-28 -1187 0
-29 -1188 0
-30 -1189 0
-31 -1190 0
-26 -1199 0
-27 -1201 0
-29 -1202 0
-30 -1203 0
-31 -1204 0
-26 -1212 0
-27 -1213 0
-29 -1215 0
-30 -1216 0
-31 -1217 0
-26 -1226 0
-27 -1227 0
-28 -1229 0
-29 -1230 0
-30 -1231 0
-31 -1232 0
-25 -1235 0
-29 -1237 0
-30 -1238 0
-31 -1239 0
-25 -1248 0
-29 -1250 0
-30 -1251 0
-31 -1252 0
-25 -1263 0
-28 -1265 0
-30 -1266 0
-31 -1267 0
-30 -1279 0
-31 -1280 0
-25 -1282 0
-28 -1284 0
-30 -1285 0
-31 -1286 0
-25 -1296 0
-27 -1298 0
-28 -1300 0
-29 -1301 0
-30 -1302 0
-31 -1303 0
-27 -1314 0
-29 -1316 0
-30 -1317 0
-31 -1318 0
-25 -1320 0
-27 -1321 0
-28 -1322 0
-29 -1323 0
-30 -1324 0
-31 -1325 0
-27 -1335 0
-29 -1336 0
-30 -1337 0
-31 -1338 0
-27 -1347 0
-28 -1349 0
-30 -1350 0
-31 -1351 0
-24 -1374 0
-28 -1377 0
-30 -1378 0
-31 -1379 0
-26 -1387 0
-28 -1389 0
-30 -1390 0
-31 -1391 0
-26 -1402 0
-28 -1405 0
-30 -1406 0
-31 -1407 0
-26 -1415 0
-27 -1416 0
-28 -1418 0
-29 -1419 0
-30 -1420 0
-31 -1421 0
-25 -1437 0
-28 -1438 0
-29 -1439 0
-30 -1440 0
-31 -1441 0
-25 -1443 0
-28 -1446 0
-29 -1447 0
-30 -1448 0
-31 -1449 0
-25 -1457 0
-27 -1458 0
-28 -1460 0
-30 -1461 0
-31 -1462 0
-27 -1472 0
-28 -1474 0
-29 -1475 0
-30 -1476 0
-31 -1477 0
-27 -1479 0
-29 -1481 0
-30 -1482 0
-31 -1483 0
-27 -1494 0
-29 -1496 0
-30 -1497 0
-31 -1498 0
-27 -1508 0
-28 -1509 0
-30 -1510 0
-31 -1511 0
-27 -1514 0
-28 -1516 0
-30 -1517 0
-31 -1518 0
-27 -1526 0
-28 -1528 0
-29 -1529 0
-30 -1530 0
-31 -1531 0
-24 -1549 0
-26 -1550 0
-27 -1552 0
-29 -1553 0
-30 -1554 0
-31 -1555 0
-24 -1590 0
-25 -1591 0
-27 -1593 0
-28 -1595 0
-30 -1596 0
-31 -1597 0
-25 -1606 0
-26 -1607 0
-27 -1608 0
-30 -1610 0
-31 -1611 0
-25 -1621 0
-26 -1622 0
-27 -1624 0
-30 -1625 0
-31 -1626 0
-25 -1636 0
-26 -1637 0
-27 -1638 0
-29 -1639 0
-30 -1640 0
-31 -1641 0
-26 -1656 0
-27 -1658 0
-30 -1660 0
-31 -1661 0
-24 -1662 0
-27 -1665 0
-28 -1666 0
-29 -1667 0
-30 -1668 0
-31 -1669 0
-24 -1707 0
-27 -1709 0
-29 -1711 0
-30 -1712 0
-31 -1713 0
-26 -1721 0
-27 -1723 0
-28 -1725 0
-29 -1726 0
-30 -1727 0
-31 -1728 0
-26 -1737 0
-27 -1739 0
-28 -1740 0
-29 -1741 0
-30 -1742 0
-31 -1743 0
-26 -1751 0
-28 -1753 0
-29 -1754 0
-30 -1755 0
-31 -1756 0
-25 -1765 0
-27 -1766 0
-28 -1768 0
-29 -1769 0
-30 -1770 0
-31 -1771 0
-25 -1781 0
-27 -1783 0
-28 -1784 0
-29 -1785 0
-30 -1786 0
-31 -1787 0
-25 -1796 0
-27 -1798 0
-30 -1800 0
-31 -1801 0
-27 -1812 0
-28 -1814 0
-30 -1815 0
-31 -1816 0
-25 -1818 0
-27 -1820 0
-30 -1822 0
-31 -1823 0
-27 -1834 0
-28 -1836 0
-30 -1837 0
-31 -1838 0
-28 -1848 0
-29 -1849 0
-30 -1850 0
-31 -1851 0
-25 -1852 0
-29 -1855 0
-30 -1856 0
-31 -1857 0
-28 -1866 0
-29 -1867 0
-30 -1868 0
-31 -1869 0
-26 -1878 0
-27 -1880 0
-30 -1882 0
-31 -1883 0
-25 -1890 0
-27 -1892 0
-28 -1893 0
-29 -1894 0
-30 -1895 0
-31 -1896 0
-28 -1906 0
-29 -1907 0
-30 -1908 0
-31 -1909 0
-25 -1931 0
-26 -1932 0
-27 -1933 0
-29 -1934 0
-30 -1935 0
-31 -1936 0
-25 -1938 0
-27 -1939 0
-28 -1941 0
-30 -1942 0
-31 -1943 0
-25 -1945 0
-28 -1946 0
-29 -1947 0
-30 -1948 0
-31 -1949 0
-25 -1958 0
-28 -1961 0
-29 -1962 0
-30 -1963 0
-31 -1964 0
-25 -1972 0
-29 -1975 0
-30 -1976 0
-31 -1977 0
-28 -1986 0
-29 -1987 0
-30 -1988 0
-31 -1989 0
-27 -1992 0
-28 -1994 0
-29 -1995 0
-30 -1996 0
-31 -1997 0
-32 -165 0
-34 -168 0
-35 -170 0
-36 -171 0
-37 -173 0
-38 -174 0
-32 -275 0
-34 -276 0
-35 -278 0
-36 -279 0
-37 -280 0
-38 -281 0
-32 -282 0
-34 -283 0
-35 -285 0
-36 -286 0
-37 -288 0
-38 -289 0
-34 -291 0
-35 -294 0
-36 -295 0
-37 -296 0
-38 -297 0
-34 -299 0
-35 -300 0
-36 -301 0
-37 -303 0
-38 -304 0
-32 -372 0
-34 -374 0
-35 -376 0
-37 -377 0
-38 -378 0
-34 -423 0
-35 -426 0
-37 -427 0
-38 -428 0
-32 -429 0
-35 -432 0
-37 -433 0
-38 -434 0
-32 -480 0
-33 -481 0
-35 -485 0
-36 -486 0
-37 -487 0
-38 -488 0
-32 -489 0
-33 -490 0
-35 -492 0
-37 -494 0
-38 -495 0
-33 -496 0
-34 -498 0
-35 -500 0
-37 -501 0
-38 -502 0
-33 -510 0
-34 -513 0
-35 -515 0
-37 -517 0
-38 -518 0
-32 -534 0
-35 -536 0
-36 -537 0
-37 -539 0
-38 -540 0
-32 -541 0
-35 -545 0
-37 -546 0
-38 -547 0
-34 -549 0
-35 -551 0
-37 -553 0
-38 -554 0
-34 -563 0
-35 -565 0
-37 -566 0
-38 -567 0
-33 -589 0
-34 -590 0
-35 -592 0
-36 -593 0
-37 -594 0
-38 -595 0
-33 -596 0
-34 -597 0
-35 -599 0
-37 -601 0
-38 -602 0
-32 -671 0
-36 -675 0
-37 -677 0
-38 -678 0
-32 -679 0
-35 -681 0
-36 -682 0
-37 -684 0
-38 -685 0
-34 -687 0
-36 -689 0
-37 -691 0
-38 -692 0
-34 -702 0
-36 -704 0
-37 -706 0
-38 -707 0
-34 -743 0
-36 -745 0
-37 -747 0
-38 -748 0
-34 -749 0
-35 -751 0
-36 -752 0
-37 -754 0
-38 -755 0
-34 -780 0
-37 -784 0
-38 -785 0
-37 -792 0
-38 -793 0
-33 -814 0
-36 -817 0
-37 -819 0
-38 -820 0
-33 -821 0
-35 -825 0
-37 -827 0
-38 -828 0
-36 -832 0
-37 -833 0
-38 -834 0
-35 -837 0
-37 -839 0
-38 -840 0
-32 -888 0
-34 -890 0
-36 -891 0
-37 -892 0
-38 -893 0
-34 -938 0
-36 -940 0
-37 -942 0
-38 -943 0
-32 -944 0
-36 -948 0
-37 -949 0
-38 -950 0
-32 -974 0
-33 -975 0
-36 -978 0
-37 -979 0
-38 -980 0
-32 -981 0
-33 -982 0
-35 -985 0
-36 -986 0
-37 -988 0
-38 -989 0
-33 -990 0
-34 -993 0
-36 -996 0
-37 -997 0
-38 -998 0
-33 -999 0
-34 -1001 0
-36 -1002 0
-37 -1004 0
-38 -1005 0
-32 -1021 0
-36 -1024 0
-37 -1026 0
-38 -1027 0
-32 -1028 0
-35 -1032 0
-36 -1033 0
-37 -1034 0
-38 -1035 0
-34 -1038 0
-36 -1040 0
-37 -1042 0
-38 -1043 0
-34 -1045 0
-36 -1048 0
-37 -1049 0
-38 -1050 0
-33 -1074 0
-34 -1075 0
-36 -1078 0
-37 -1080 0
-38 -1081 0
-33 -1082 0
-34 -1083 0
-35 -1085 0
-36 -1086 0
-37 -1087 0
-38 -1088 0
-32 -1089 0
-37 -1094 0
-38 -1095 0
-32 -1146 0
-33 -1147 0
-36 -1149 0
-37 -1151 0
-38 -1152 0
-32 -1153 0
-33 -1154 0
-35 -1156 0
-37 -1157 0
-38 -1158 0
-33 -1159 0
-34 -1161 0
-37 -1163 0
-38 -1164 0
-33 -1165 0
-34 -1167 0
-37 -1170 0
-38 -1171 0
-32 -1185 0
-36 -1187 0
-37 -1189 0
-38 -1190 0
-32 -1191 0
-35 -1194 0
-37 -1196 0
-38 -1197 0
-34 -1199 0
-37 -1203 0
-38 -1204 0
-34 -1206 0
-37 -1209 0
-38 -1210 0
-33 -1233 0
-37 -1238 0
-38 -1239 0
-33 -1240 0
-37 -1244 0
-38 -1245 0
-33 -1268 0
-36 -1271 0
-37 -1273 0
-38 -1274 0
-33 -1275 0
-35 -1278 0
-37 -1279 0
-38 -1280 0
-33 -1281 0
-36 -1284 0
-37 -1285 0
-38 -1286 0
-33 -1287 0
-35 -1290 0
-37 -1292 0
-38 -1293 0
-33 -1304 0
-36 -1307 0
-37 -1309 0
-38 -1310 0
-33 -1311 0
-35 -1315 0
-37 -1317 0
-38 -1318 0
-33 -1319 0
-36 -1322 0
-37 -1324 0
-38 -1325 0
-33 -1326 0
-35 -1330 0
-37 -1331 0
-38 -1332 0
-32 -1374 0
-35 -1376 0
-36 -1377 0
-37 -1378 0
-38 -1379 0
-32 -1380 0
-36 -1382 0
-37 -1384 0
-38 -1385 0
-34 -1387 0
-35 -1388 0
-36 -1389 0
-37 -1390 0
-38 -1391 0
-34 -1393 0
-35 -1396 0
-36 -1397 0
-37 -1399 0
-38 -1400 0
-35 -1431 0
-36 -1432 0
-37 -1434 0
-38 -1435 0
-33 -1442 0
-35 -1445 0
-36 -1446 0
-37 -1448 0
-38 -1449 0
-33 -1450 0
-36 -1453 0
-37 -1455 0
-38 -1456 0
-35 -1459 0
-36 -1460 0
-37 -1461 0
-38 -1462 0
-36 -1466 0
-37 -1468 0
-38 -1469 0
-35 -1480 0
-37 -1482 0
-38 -1483 0
-35 -1488 0
-37 -1489 0
-38 -1490 0
-33 -1512 0
-35 -1515 0
-36 -1516 0
-37 -1517 0
-38 -1518 0
-33 -1519 0
-37 -1523 0
-38 -1524 0
-35 -1527 0
-36 -1528 0
-37 -1530 0
-38 -1531 0
-32 -1590 0
-35 -1594 0
-36 -1595 0
-37 -1596 0
-38 -1597 0
-32 -1598 0
-35 -1601 0
-37 -1603 0
-38 -1604 0
-34 -1607 0
-35 -1609 0
-37 -1610 0
-38 -1611 0
-34 -1613 0
-35 -1616 0
-37 -1618 0
-38 -1619 0
-34 -1649 0
-35 -1651 0
-36 -1652 0
-37 -1654 0
-38 -1655 0
-34 -1656 0
-35 -1659 0
-37 -1660 0
-38 -1661 0
-32 -1707 0
-35 -1710 0
-37 -1712 0
-38 -1713 0
-32 -1714 0
-35 -1716 0
-36 -1717 0
-37 -1718 0
-38 -1719 0
-34 -1721 0
-35 -1724 0
-36 -1725 0
-37 -1727 0
-38 -1728 0
-34 -1730 0
-35 -1732 0
-36 -1733 0
-37 -1734 0
-38 -1735 0
-35 -1767 0
-36 -1768 0
-37 -1770 0
-38 -1771 0
-35 -1775 0
-36 -1776 0
-37 -1777 0
-38 -1778 0
-33 -1802 0
-35 -1806 0
-37 -1808 0
-38 -1809 0
-33 -1810 0
-35 -1813 0
-36 -1814 0
-37 -1815 0
-38 -1816 0
-33 -1817 0
-35 -1821 0
-37 -1822 0
-38 -1823 0
-33 -1824 0
-35 -1827 0
-36 -1828 0
-37 -1830 0
-38 -1831 0
-35 -1841 0
-37 -1843 0
-38 -1844 0
-35 -1847 0
-36 -1848 0
-37 -1850 0
-38 -1851 0
-35 -1854 0
-37 -1856 0
-38 -1857 0
-35 -1860 0
-36 -1861 0
-37 -1862 0
-38 -1863 0
-36 -1893 0
-37 -1895 0
-38 -1896 0
-35 -1899 0
-37 -1901 0
-38 -1902 0
-35 -1919 0
-36 -1920 0
-37 -1922 0
-38 -1923 0
-34 -1932 0
-37 -1935 0
-38 -1936 0
-36 -1946 0
-37 -1948 0
-38 -1949 0
-36 -1953 0
-37 -1955 0
-38 -1956 0
-33 -1978 0
-37 -1982 0
-38 -1983 0
-33 -1984 0
-35 -1985 0
-36 -1986 0
-37 -1988 0
-38 -1989 0
-35 -1993 0
-36 -1994 0
-37 -1996 0
-38 -1997 0
-39 -157 0
-43 -160 0
-44 -161 0
-45 -163 0
-46 -164 0
-39 -226 0
-43 -228 0
-44 -229 0
-45 -230 0
-46 -231 0
-39 -275 0
-42 -276 0
-43 -278 0
-44 -279 0
-45 -280 0
-46 -281 0
-39 -282 0
-42 -283 0
-43 -285 0
-44 -286 0
-45 -288 0
-46 -289 0
-39 -480 0
-40 -482 0
-43 -485 0
-44 -486 0
-45 -487 0
-46 -488 0
-39 -489 0
-40 -491 0
-43 -492 0
-45 -494 0
-46 -495 0
-39 -503 0
-43 -506 0
-45 -508 0
-46 -509 0
-39 -534 0
-40 -535 0
-43 -536 0
-44 -537 0
-45 -539 0
-46 -540 0
-39 -541 0
-40 -542 0
-43 -545 0
-45 -546 0
-46 -547 0
-39 -555 0
-43 -558 0
-45 -559 0
-46 -560 0
-40 -583 0
-42 -584 0
-43 -585 0
-44 -586 0
-45 -587 0
-46 -588 0
-42 -590 0
-43 -592 0
-44 -593 0
-45 -594 0
-46 -595 0
-42 -597 0
-43 -599 0
-45 -601 0
-46 -602 0
-39 -671 0
-40 -672 0
-44 -675 0
-45 -677 0
-46 -678 0
-39 -679 0
-40 -680 0
-43 -681 0
-44 -682 0
-45 -684 0
-46 -685 0
-39 -693 0
-44 -696 0
-45 -698 0
-46 -699 0
-39 -724 0
-44 -726 0
-45 -728 0
-46 -729 0
-42 -743 0
-44 -745 0
-45 -747 0
-46 -748 0
-42 -749 0
-43 -751 0
-44 -752 0
-45 -754 0
-46 -755 0
-40 -807 0
-43 -809 0
-44 -810 0
-45 -812 0
-46 -813 0
-40 -815 0
-44 -817 0
-45 -819 0
-46 -820 0
-40 -822 0
-43 -825 0
-45 -827 0
-46 -828 0
-40 -829 0
-44 -832 0
-45 -833 0
-46 -834 0
-40 -835 0
-43 -837 0
-45 -839 0
-46 -840 0
-39 -974 0
-41 -976 0
-44 -978 0
-45 -979 0
-46 -980 0
-39 -981 0
-41 -983 0
-43 -985 0
-44 -986 0
-45 -988 0
-46 -989 0
-39 -1021 0
-41 -1022 0
-44 -1024 0
-45 -1026 0
-46 -1027 0
-39 -1028 0
-41 -1029 0
-43 -1032 0
-44 -1033 0
-45 -1034 0
-46 -1035 0
-41 -1067 0
-42 -1068 0
-43 -1070 0
-44 -1071 0
-45 -1072 0
-46 -1073 0
-42 -1075 0
-44 -1078 0
-45 -1080 0
-46 -1081 0
-42 -1083 0
-43 -1085 0
-44 -1086 0
-45 -1087 0
-46 -1088 0
-39 -1146 0
-44 -1149 0
-45 -1151 0
-46 -1152 0
-39 -1153 0
-43 -1156 0
-45 -1157 0
-46 -1158 0
-39 -1185 0
-44 -1187 0
-45 -1189 0
-46 -1190 0
-39 -1191 0
-43 -1194 0
-45 -1196 0
-46 -1197 0
-42 -1226 0
-43 -1228 0
-44 -1229 0
-45 -1231 0
-46 -1232 0
-40 -1262 0
-41 -1263 0
-43 -1264 0
-44 -1265 0
-45 -1266 0
-46 -1267 0
-40 -1269 0
-44 -1271 0
-45 -1273 0
-46 -1274 0
-40 -1276 0
-43 -1278 0
-45 -1279 0
-46 -1280 0
-41 -1282 0
-44 -1284 0
-45 -1285 0
-46 -1286 0
-41 -1288 0
-43 -1290 0
-45 -1292 0
-46 -1293 0
-40 -1295 0
-41 -1296 0
-43 -1299 0
-44 -1300 0
-45 -1302 0
-46 -1303 0
-40 -1305 0
-44 -1307 0
-45 -1309 0
-46 -1310 0
-40 -1312 0
-43 -1315 0
-45 -1317 0
-46 -1318 0
-41 -1320 0
-44 -1322 0
-45 -1324 0
-46 -1325 0
-41 -1327 0
-43 -1330 0
-45 -1331 0
-46 -1332 0
-45 -1337 0
-46 -1338 0
-39 -1374 0
-43 -1376 0
-44 -1377 0
-45 -1378 0
-46 -1379 0
-39 -1380 0
-44 -1382 0
-45 -1384 0
-46 -1385 0
-40 -1436 0
-41 -1437 0
-44 -1438 0
-45 -1440 0
-46 -1441 0
-41 -1443 0
-43 -1445 0
-44 -1446 0
-45 -1448 0
-46 -1449 0
-41 -1451 0
-44 -1453 0
-45 -1455 0
-46 -1456 0
-41 -1457 0
-43 -1459 0
-44 -1460 0
-45 -1461 0
-46 -1462 0
-41 -1463 0
-44 -1466 0
-45 -1468 0
-46 -1469 0
-40 -1506 0
-44 -1509 0
-45 -1510 0
-46 -1511 0
-43 -1515 0
-44 -1516 0
-45 -1517 0
-46 -1518 0
-45 -1523 0
-46 -1524 0
-43 -1527 0
-44 -1528 0
-45 -1530 0
-46 -1531 0
-39 -1590 0
-41 -1591 0
-43 -1594 0
-44 -1595 0
-45 -1596 0
-46 -1597 0
-39 -1598 0
-41 -1599 0
-43 -1601 0
-45 -1603 0
-46 -1604 0
-42 -1649 0
-43 -1651 0
-44 -1652 0
-45 -1654 0
-46 -1655 0
-42 -1656 0
-43 -1659 0
-45 -1660 0
-46 -1661 0
-39 -1707 0
-43 -1710 0
-45 -1712 0
-46 -1713 0
-39 -1714 0
-43 -1716 0
-44 -1717 0
-45 -1718 0
-46 -1719 0
-40 -1795 0
-41 -1796 0
-43 -1799 0
-45 -1800 0
-46 -1801 0
-40 -1803 0
-43 -1806 0
-45 -1808 0
-46 -1809 0
-40 -1811 0
-43 -1813 0
-44 -1814 0
-45 -1815 0
-46 -1816 0
-41 -1818 0
-43 -1821 0
-45 -1822 0
-46 -1823 0
-41 -1825 0
-43 -1827 0
-44 -1828 0
-45 -1830 0
-46 -1831 0
-43 -1835 0
-44 -1836 0
-45 -1837 0
-46 -1838 0
-40 -1839 0
-43 -1841 0
-45 -1843 0
-46 -1844 0
-40 -1845 0
-43 -1847 0
-44 -1848 0
-45 -1850 0
-46 -1851 0
-41 -1852 0
-43 -1854 0
-45 -1856 0
-46 -1857 0
-41 -1858 0
-43 -1860 0
-44 -1861 0
-45 -1862 0
-46 -1863 0
-43 -1865 0
-44 -1866 0
-45 -1868 0
-46 -1869 0
-41 -1890 0
-44 -1893 0
-45 -1895 0
-46 -1896 0
-41 -1897 0
-43 -1899 0
-45 -1901 0
-46 -1902 0
-43 -1919 0
-44 -1920 0
-45 -1922 0
-46 -1923 0
-41 -1938 0
-43 -1940 0
-44 -1941 0
-45 -1942 0
-46 -1943 0
-41 -1972 0
-43 -1974 0
-45 -1976 0
-46 -1977 0
-45 -1982 0
-46 -1983 0
-43 -1985 0
-44 -1986 0
-45 -1988 0
-46 -1989 0
-43 -1993 0
-44 -1994 0
-45 -1996 0
-46 -1997 0
-47 -94 0
-48 -95 0
-49 -96 0
-50 -97 0
-51 -98 0
-52 -99 0
-53 -100 0
-47 -147 0
-48 -151 0
-49 -152 0
-51 -153 0
-52 -155 0
-53 -156 0
-47 -241 0
-48 -243 0
-49 -244 0
-52 -246 0
-53 -247 0
-47 -254 0
-48 -256 0
-49 -257 0
-50 -258 0
-52 -261 0
-53 -262 0
-47 -263 0
-48 -265 0
-49 -266 0
-52 -267 0
-53 -268 0
-48 -271 0
-49 -272 0
-52 -273 0
-53 -274 0
-48 -312 0
-49 -313 0
-52 -316 0
-53 -317 0
-47 -364 0
-48 -367 0
-50 -368 0
-51 -369 0
-52 -370 0
-53 -371 0
-47 -409 0
-48 -410 0
-50 -411 0
-51 -413 0
-52 -414 0
-53 -415 0
-48 -417 0
-50 -418 0
-51 -419 0
-52 -421 0
-53 -422 0
-47 -442 0
-49 -445 0
-51 -447 0
-52 -448 0
-53 -449 0
-47 -457 0
-50 -461 0
-51 -463 0
-52 -465 0
-53 -466 0
-47 -467 0
-51 -470 0
-52 -471 0
-53 -472 0
-48 -476 0
-51 -477 0
-52 -478 0
-53 -479 0
-48 -528 0
-51 -530 0
-52 -532 0
-53 -533 0
-47 -541 0
-49 -543 0
-50 -544 0
-52 -546 0
-53 -547 0
-48 -549 0
-49 -550 0
-52 -553 0
-53 -554 0
-47 -555 0
-50 -557 0
-52 -559 0
-53 -560 0
-48 -563 0
-50 -564 0
-52 -566 0
-53 -567 0
-48 -570 0
-52 -572 0
-53 -573 0
-48 -597 0
-50 -598 0
-52 -601 0
-53 -602 0
-47 -617 0
-48 -619 0
-50 -620 0
-51 -622 0
-52 -624 0
-53 -625 0
-47 -657 0
-50 -660 0
-52 -662 0
-53 -663 0
-48 -666 0
-52 -669 0
-53 -670 0
-48 -720 0
-52 -722 0
-53 -723 0
-47 -724 0
-50 -725 0
-51 -726 0
-52 -728 0
-53 -729 0
-48 -731 0
-51 -733 0
-52 -734 0
-53 -735 0
-48 -749 0
-50 -750 0
-51 -752 0
-52 -754 0
-53 -755 0
-47 -763 0
-49 -765 0
-50 -766 0
-51 -767 0
-52 -769 0
-53 -770 0
-48 -772 0
-49 -773 0
-50 -774 0
-51 -776 0
-52 -777 0
-53 -778 0
-49 -789 0
-50 -790 0
-52 -792 0
-53 -793 0
-49 -796 0
-52 -798 0
-53 -799 0
-49 -823 0
-50 -824 0
-52 -827 0
-53 -828 0
-49 -830 0
-50 -831 0
-51 -832 0
-52 -833 0
-53 -834 0
-47 -878 0
-48 -881 0
-49 -882 0
-50 -883 0
-51 -885 0
-52 -886 0
-53 -887 0
-47 -923 0
-48 -924 0
-49 -925 0
-50 -926 0
-52 -928 0
-53 -929 0
-48 -931 0
-49 -932 0
-50 -933 0
-52 -936 0
-53 -937 0
-47 -958 0
-49 -961 0
-50 -962 0
-52 -964 0
-53 -965 0
-48 -969 0
-49 -970 0
-52 -972 0
-53 -973 0
-48 -1016 0
-49 -1017 0
-52 -1019 0
-53 -1020 0
-47 -1028 0
-49 -1030 0
-50 -1031 0
-51 -1033 0
-52 -1034 0
-53 -1035 0
-48 -1038 0
-49 -1039 0
-51 -1040 0
-52 -1042 0
-53 -1043 0
-48 -1045 0
-49 -1046 0
-50 -1047 0
-51 -1048 0
-52 -1049 0
-53 -1050 0
-48 -1053 0
-49 -1054 0
-51 -1056 0
-52 -1058 0
-53 -1059 0
-48 -1083 0
-49 -1084 0
-51 -1086 0
-52 -1087 0
-53 -1088 0
-47 -1103 0
-49 -1106 0
-50 -1107 0
-51 -1108 0
-52 -1110 0
-53 -1111 0
-47 -1121 0
-50 -1124 0
-51 -1125 0
-52 -1126 0
-53 -1127 0
-47 -1128 0
-50 -1130 0
-51 -1132 0
-52 -1134 0
-53 -1135 0
-48 -1139 0
-50 -1140 0
-51 -1142 0
-52 -1144 0
-53 -1145 0
-48 -1180 0
-50 -1181 0
-51 -1182 0
-52 -1183 0
-53 -1184 0
-47 -1191 0
-49 -1192 0
-50 -1193 0
-52 -1196 0
-53 -1197 0
-48 -1199 0
-49 -1200 0
-50 -1201 0
-52 -1203 0
-53 -1204 0
-48 -1206 0
-50 -1207 0
-52 -1209 0
-53 -1210 0
-48 -1212 0
-50 -1213 0
-52 -1216 0
-53 -1217 0
-49 -1236 0
-52 -1238 0
-53 -1239 0
-50 -1243 0
-52 -1244 0
-53 -1245 0
-52 -1251 0
-53 -1252 0
-49 -1277 0
-52 -1279 0
-53 -1280 0
-50 -1289 0
-52 -1292 0
-53 -1293 0
-49 -1297 0
-50 -1298 0
-51 -1300 0
-52 -1302 0
-53 -1303 0
-49 -1306 0
-51 -1307 0
-52 -1309 0
-53 -1310 0
-50 -1321 0
-51 -1322 0
-52 -1324 0
-53 -1325 0
-49 -1346 0
-50 -1347 0
-51 -1349 0
-52 -1350 0
-53 -1351 0
-47 -1360 0
-50 -1362 0
-52 -1365 0
-53 -1366 0
-48 -1369 0
-50 -1370 0
-52 -1372 0
-53 -1373 0
-48 -1409 0
-50 -1410 0
-52 -1413 0
-53 -1414 0
-48 -1415 0
-50 -1416 0
-51 -1418 0
-52 -1420 0
-53 -1421 0
-50 -1430 0
-51 -1432 0
-52 -1434 0
-53 -1435 0
-50 -1452 0
-51 -1453 0
-52 -1455 0
-53 -1456 0
-50 -1458 0
-51 -1460 0
-52 -1461 0
-53 -1462 0
-49 -1471 0
-50 -1472 0
-51 -1474 0
-52 -1476 0
-53 -1477 0
-50 -1479 0
-52 -1482 0
-53 -1483 0
-49 -1486 0
-50 -1487 0
-52 -1489 0
-53 -1490 0
-49 -1493 0
-50 -1494 0
-52 -1497 0
-53 -1498 0
-49 -1520 0
-50 -1521 0
-52 -1523 0
-53 -1524 0
-49 -1525 0
-50 -1526 0
-51 -1528 0
-52 -1530 0
-53 -1531 0
-47 -1543 0
-48 -1545 0
-51 -1546 0
-52 -1547 0
-53 -1548 0
-47 -1576 0
-51 -1579 0
-52 -1581 0
-53 -1582 0
-48 -1585 0
-50 -1586 0
-51 -1587 0
-52 -1588 0
-53 -1589 0
-48 -1629 0
-50 -1630 0
-51 -1632 0
-52 -1634 0
-53 -1635 0
-48 -1637 0
-50 -1638 0
-52 -1640 0
-53 -1641 0
-48 -1656 0
-49 -1657 0
-50 -1658 0
-52 -1660 0
-53 -1661 0
-47 -1670 0
-51 -1673 0
-52 -1675 0
-53 -1676 0
-47 -1684 0
-49 -1686 0
-50 -1687 0
-51 -1689 0
-52 -1690 0
-53 -1691 0
-47 -1692 0
-49 -1694 0
-51 -1695 0
-52 -1697 0
-53 -1698 0
-48 -1701 0
-49 -1702 0
-51 -1703 0
-52 -1705 0
-53 -1706 0
-48 -1745 0
-49 -1746 0
-51 -1748 0
-52 -1749 0
-53 -1750 0
-48 -1751 0
-49 -1752 0
-51 -1753 0
-52 -1755 0
-53 -1756 0
-50 -1766 0
-51 -1768 0
-52 -1770 0
-53 -1771 0
-49 -1774 0
-51 -1776 0
-52 -1777 0
-53 -1778 0
-49 -1782 0
-50 -1783 0
-51 -1784 0
-52 -1786 0
-53 -1787 0
-50 -1812 0
-51 -1814 0
-52 -1815 0
-53 -1816 0
-49 -1826 0
-51 -1828 0
-52 -1830 0
-53 -1831 0
-49 -1833 0
-50 -1834 0
-51 -1836 0
-52 -1837 0
-53 -1838 0
-50 -1840 0
-52 -1843 0
-53 -1844 0
-49 -1853 0
-52 -1856 0
-53 -1857 0
-48 -1884 0
-49 -1885 0
-51 -1886 0
-52 -1888 0
-53 -1889 0
-49 -1898 0
-52 -1901 0
-53 -1902 0
-49 -1904 0
-51 -1906 0
-52 -1908 0
-53 -1909 0
-49 -1917 0
-50 -1918 0
-51 -1920 0
-52 -1922 0
-53 -1923 0
-48 -1925 0
-51 -1927 0
-52 -1929 0
-53 -1930 0
-51 -1946 0
-52 -1948 0
-53 -1949 0
-49 -1951 0
-50 -1952 0
-51 -1953 0
-52 -1955 0
-53 -1956 0
-49 -1959 0
-51 -1961 0
-52 -1963 0
-53 -1964 0
-51 -1986 0
-52 -1988 0
-53 -1989 0
-54 -88 0
-55 -89 0
-56 -90 0
-57 -91 0
-58 -92 0
-59 -93 0
-54 -138 0
-55 -142 0
-56 -144 0
-58 -145 0
-59 -146 0
-54 -232 0
-55 -234 0
-57 -238 0
-58 -239 0
-59 -240 0
-54 -248 0
-55 -250 0
-58 -252 0
-59 -253 0
-54 -263 0
-55 -265 0
-58 -267 0
-59 -268 0
-55 -271 0
-58 -273 0
-59 -274 0
-55 -306 0
-58 -309 0
-59 -310 0
-54 -354 0
-55 -357 0
-56 -359 0
-57 -361 0
-58 -362 0
-59 -363 0
-54 -402 0
-55 -403 0
-57 -406 0
-58 -407 0
-59 -408 0
-55 -417 0
-57 -420 0
-58 -421 0
-59 -422 0
-54 -435 0
-57 -439 0
-58 -440 0
-59 -441 0
-54 -450 0
-58 -455 0
-59 -456 0
-54 -467 0
-58 -471 0
-59 -472 0
-55 -476 0
-58 -478 0
-59 -479 0
-55 -521 0
-58 -524 0
-59 -525 0
-54 -534 0
-56 -536 0
-57 -538 0
-58 -539 0
-59 -540 0
-55 -549 0
-56 -551 0
-57 -552 0
-58 -553 0
-59 -554 0
-54 -555 0
-56 -558 0
-58 -559 0
-59 -560 0
-55 -563 0
-56 -565 0
-58 -566 0
-59 -567 0
-55 -576 0
-56 -579 0
-58 -581 0
-59 -582 0
-55 -590 0
-56 -592 0
-58 -594 0
-59 -595 0
-54 -610 0
-55 -612 0
-56 -614 0
-58 -615 0
-59 -616 0
-54 -648 0
-56 -652 0
-57 -654 0
-58 -655 0
-59 -656 0
-55 -666 0
-56 -667 0
-57 -668 0
-58 -669 0
-59 -670 0
-55 -710 0
-56 -713 0
-57 -715 0
-58 -716 0
-59 -717 0
-54 -724 0
-57 -727 0
-58 -728 0
-59 -729 0
-55 -737 0
-57 -740 0
-58 -741 0
-59 -742 0
-55 -743 0
-57 -746 0
-58 -747 0
-59 -748 0
-54 -756 0
-56 -760 0
-58 -761 0
-59 -762 0
-55 -772 0
-56 -775 0
-58 -777 0
-59 -778 0
-57 -791 0
-58 -792 0
-59 -793 0
-57 -804 0
-58 -805 0
-59 -806 0
-57 -818 0
-58 -819 0
-59 -820 0
-56 -837 0
-57 -838 0
-58 -839 0
-59 -840 0
-54 -870 0
-55 -873 0
-56 -874 0
-57 -875 0
-58 -876 0
-59 -877 0
-54 -915 0
-55 -916 0
-56 -918 0
-57 -920 0
-58 -921 0
-59 -922 0
-55 -931 0
-56 -934 0
-57 -935 0
-58 -936 0
-59 -937 0
-54 -951 0
-56 -954 0
-58 -956 0
-59 -957 0
-55 -969 0
-56 -971 0
-58 -972 0
-59 -973 0
-55 -1008 0
-56 -1010 0
-58 -1012 0
-59 -1013 0
-54 -1021 0
-57 -1025 0
-58 -1026 0
-59 -1027 0
-55 -1038 0
-57 -1041 0
-58 -1042 0
-59 -1043 0
-55 -1045 0
-58 -1049 0
-59 -1050 0
-55 -1062 0
-58 -1065 0
-59 -1066 0
-55 -1075 0
-57 -1079 0
-58 -1080 0
-59 -1081 0
-54 -1096 0
-56 -1099 0
-57 -1100 0
-58 -1101 0
-59 -1102 0
-54 -1112 0
-56 -1117 0
-57 -1118 0
-58 -1119 0
-59 -1120 0
-54 -1128 0
-56 -1131 0
-57 -1133 0
-58 -1134 0
-59 -1135 0
-55 -1139 0
-56 -1141 0
-57 -1143 0
-58 -1144 0
-59 -1145 0
-55 -1173 0
-56 -1175 0
-57 -1176 0
-58 -1177 0
-59 -1178 0
-54 -1185 0
-57 -1188 0
-58 -1189 0
-59 -1190 0
-55 -1199 0
-57 -1202 0
-58 -1203 0
-59 -1204 0
-55 -1206 0
-57 -1208 0
-58 -1209 0
-59 -1210 0
-55 -1219 0
-57 -1223 0
-58 -1224 0
-59 -1225 0
-57 -1237 0
-58 -1238 0
-59 -1239 0
-58 -1244 0
-59 -1245 0
-58 -1259 0
-59 -1260 0
-57 -1272 0
-58 -1273 0
-59 -1274 0
-58 -1285 0
-59 -1286 0
-56 -1299 0
-57 -1301 0
-58 -1302 0
-59 -1303 0
-56 -1315 0
-57 -1316 0
-58 -1317 0
-59 -1318 0
-56 -1330 0
-58 -1331 0
-59 -1332 0
-56 -1340 0
-57 -1342 0
-58 -1343 0
-59 -1344 0
-54 -1352 0
-56 -1356 0
-58 -1358 0
-59 -1359 0
-55 -1369 0
-56 -1371 0
-58 -1372 0
-59 -1373 0
-55 -1402 0
-56 -1404 0
-58 -1406 0
-59 -1407 0
-55 -1422 0
-56 -1425 0
-58 -1426 0
-59 -1427 0
-56 -1431 0
-57 -1433 0
-58 -1434 0
-59 -1435 0
-56 -1445 0
-57 -1447 0
-58 -1448 0
-59 -1449 0
-57 -1467 0
-58 -1468 0
-59 -1469 0
-56 -1480 0
-57 -1481 0
-58 -1482 0
-59 -1483 0
-56 -1488 0
-58 -1489 0
-59 -1490 0
-56 -1502 0
-58 -1504 0
-59 -1505 0
-56 -1515 0
-58 -1517 0
-59 -1518 0
-54 -1533 0
-55 -1535 0
-56 -1538 0
-57 -1540 0
-58 -1541 0
-59 -1542 0
-54 -1570 0
-58 -1574 0
-59 -1575 0
-55 -1585 0
-58 -1588 0
-59 -1589 0
-55 -1622 0
-58 -1625 0
-59 -1626 0
-55 -1643 0
-56 -1645 0
-58 -1647 0
-59 -1648 0
-55 -1649 0
-56 -1651 0
-57 -1653 0
-58 -1654 0
-59 -1655 0
-54 -1662 0
-57 -1667 0
-58 -1668 0
-59 -1669 0
-54 -1677 0
-57 -1681 0
-58 -1682 0
-59 -1683 0
-54 -1692 0
-57 -1696 0
-58 -1697 0
-59 -1698 0
-55 -1701 0
-57 -1704 0
-58 -1705 0
-59 -1706 0
-55 -1737 0
-57 -1741 0
-58 -1742 0
-59 -1743 0
-55 -1757 0
-56 -1759 0
-57 -1761 0
-58 -1762 0
-59 -1763 0
-56 -1767 0
-57 -1769 0
-58 -1770 0
-59 -1771 0
-56 -1775 0
-58 -1777 0
-59 -1778 0
-56 -1791 0
-58 -1793 0
-59 -1794 0
-56 -1806 0
-57 -1807 0
-58 -1808 0
-59 -1809 0
-56 -1821 0
-58 -1822 0
-59 -1823 0
-56 -1835 0
-58 -1837 0
-59 -1838 0
-56 -1847 0
-57 -1849 0
-58 -1850 0
-59 -1851 0
-56 -1860 0
-58 -1862 0
-59 -1863 0
-56 -1872 0
-57 -1874 0
-58 -1875 0
-59 -1876 0
-55 -1878 0
-56 -1881 0
-58 -1882 0
-59 -1883 0
-57 -1894 0
-58 -1895 0
-59 -1896 0
-58 -1914 0
-59 -1915 0
-55 -1925 0
-56 -1926 0
-57 -1928 0
-58 -1929 0
-59 -1930 0
-57 -1947 0
-58 -1948 0
-59 -1949 0
-57 -1954 0
-58 -1955 0
-59 -1956 0
-57 -1969 0
-58 -1970 0
-59 -1971 0
-57 -1981 0
-58 -1982 0
-59 -1983 0
-56 -1993 0
-57 -1995 0
-58 -1996 0
-59 -1997 0
-60 -125 0
-64 -129 0
-65 -130 0
-60 -226 0
-64 -230 0
-65 -231 0
-60 -248 0
-62 -250 0
-64 -252 0
-65 -253 0
-60 -254 0
-62 -256 0
-63 -258 0
-64 -261 0
-65 -262 0
-60 -263 0
-62 -265 0
-64 -267 0
-65 -268 0
-60 -338 0
-63 -341 0
-64 -343 0
-65 -344 0
-60 -402 0
-62 -403 0
-63 -405 0
-64 -407 0
-65 -408 0
-60 -409 0
-62 -410 0
-63 -411 0
-64 -414 0
-65 -415 0
-60 -450 0
-61 -452 0
-64 -455 0
-65 -456 0
-60 -457 0
-61 -459 0
-63 -461 0
-64 -465 0
-65 -466 0
-60 -467 0
-61 -469 0
-64 -471 0
-65 -472 0
-60 -503 0
-64 -508 0
-65 -509 0
-60 -534 0
-61 -535 0
-64 -539 0
-65 -540 0
-60 -541 0
-61 -542 0
-63 -544 0
-64 -546 0
-65 -547 0
-61 -561 0
-62 -563 0
-63 -564 0
-64 -566 0
-65 -567 0
-61 -569 0
-62 -570 0
-64 -572 0
-65 -573 0
-61 -575 0
-62 -576 0
-63 -578 0
-64 -581 0
-65 -582 0
-62 -590 0
-64 -594 0
-65 -595 0
-62 -597 0
-63 -598 0
-64 -601 0
-65 -602 0
-60 -603 0
-63 -605 0
-64 -608 0
-65 -609 0
-60 -648 0
-61 -649 0
-64 -655 0
-65 -656 0
-60 -657 0
-61 -658 0
-63 -660 0
-64 -662 0
-65 -663 0
-60 -693 0
-64 -698 0
-65 -699 0
-61 -730 0
-62 -731 0
-64 -734 0
-65 -735 0
-61 -736 0
-62 -737 0
-63 -739 0
-64 -741 0
-65 -742 0
-62 -743 0
-64 -747 0
-65 -748 0
-62 -749 0
-63 -750 0
-64 -754 0
-65 -755 0
-60 -756 0
-61 -757 0
-63 -759 0
-64 -761 0
-65 -762 0
-60 -763 0
-61 -764 0
-63 -766 0
-64 -769 0
-65 -770 0
-61 -787 0
-63 -790 0
-64 -792 0
-65 -793 0
-61 -795 0
-64 -798 0
-65 -799 0
-61 -801 0
-63 -802 0
-64 -805 0
-65 -806 0
-61 -815 0
-64 -819 0
-65 -820 0
-61 -822 0
-63 -824 0
-64 -827 0
-65 -828 0
-60 -951 0
-64 -956 0
-65 -957 0
-60 -958 0
-63 -962 0
-64 -964 0
-65 -965 0
-60 -1021 0
-64 -1026 0
-65 -1027 0
-60 -1028 0
-63 -1031 0
-64 -1034 0
-65 -1035 0
-62 -1045 0
-63 -1047 0
-64 -1049 0
-65 -1050 0
-62 -1053 0
-64 -1058 0
-65 -1059 0
-62 -1062 0
-63 -1064 0
-64 -1065 0
-65 -1066 0
-60 -1112 0
-63 -1116 0
-64 -1119 0
-65 -1120 0
-60 -1121 0
-63 -1124 0
-64 -1126 0
-65 -1127 0
-60 -1128 0
-63 -1130 0
-64 -1134 0
-65 -1135 0
-60 -1185 0
-63 -1186 0
-64 -1189 0
-65 -1190 0
-60 -1191 0
-63 -1193 0
-64 -1196 0
-65 -1197 0
-62 -1206 0
-63 -1207 0
-64 -1209 0
-65 -1210 0
-62 -1212 0
-63 -1213 0
-64 -1216 0
-65 -1217 0
-62 -1219 0
-63 -1221 0
-64 -1224 0
-65 -1225 0
-61 -1241 0
-63 -1243 0
-64 -1244 0
-65 -1245 0
-61 -1247 0
-64 -1251 0
-65 -1252 0
-61 -1254 0
-63 -1257 0
-64 -1259 0
-65 -1260 0
-64 -1285 0
-65 -1286 0
-63 -1289 0
-64 -1292 0
-65 -1293 0
-61 -1295 0
-63 -1298 0
-64 -1302 0
-65 -1303 0
-61 -1305 0
-64 -1309 0
-65 -1310 0
-61 -1312 0
-63 -1314 0
-64 -1317 0
-65 -1318 0
-64 -1343 0
-65 -1344 0
-63 -1347 0
-64 -1350 0
-65 -1351 0
-60 -1352 0
-63 -1355 0
-64 -1358 0
-65 -1359 0
-60 -1360 0
-63 -1362 0
-64 -1365 0
-65 -1366 0
-62 -1415 0
-63 -1416 0
-64 -1420 0
-65 -1421 0
-62 -1422 0
-63 -1424 0
-64 -1426 0
-65 -1427 0
-61 -1428 0
-63 -1430 0
-64 -1434 0
-65 -1435 0
-64 -1448 0
-65 -1449 0
-63 -1452 0
-64 -1455 0
-65 -1456 0
-63 -1472 0
-64 -1476 0
-65 -1477 0
-61 -1484 0
-63 -1487 0
-64 -1489 0
-65 -1490 0
-61 -1492 0
-63 -1494 0
-64 -1497 0
-65 -1498 0
-61 -1500 0
-63 -1501 0
-64 -1504 0
-65 -1505 0
-63 -1514 0
-64 -1517 0
-65 -1518 0
-63 -1521 0
-64 -1523 0
-65 -1524 0
-60 -1570 0
-63 -1573 0
-64 -1574 0
-65 -1575 0
-60 -1576 0
-64 -1581 0
-65 -1582 0
-62 -1637 0
-63 -1638 0
-64 -1640 0
-65 -1641 0
-62 -1643 0
-64 -1647 0
-65 -1648 0
-60 -1677 0
-64 -1682 0
-65 -1683 0
-60 -1684 0
-63 -1687 0
-64 -1690 0
-65 -1691 0
-60 -1692 0
-64 -1697 0
-65 -1698 0
-62 -1751 0
-64 -1755 0
-65 -1756 0
-62 -1757 0
-63 -1758 0
-64 -1762 0
-65 -1763 0
-61 -1772 0
-64 -1777 0
-65 -1778 0
-61 -1780 0
-63 -1783 0
-64 -1786 0
-65 -1787 0
-61 -1789 0
-64 -1793 0
-65 -1794 0
-63 -1820 0
-64 -1822 0
-65 -1823 0
-64 -1830 0
-65 -1831 0
-63 -1834 0
-64 -1837 0
-65 -1838 0
-61 -1839 0
-63 -1840 0
-64 -1843 0
-65 -1844 0
-61 -1845 0
-64 -1850 0
-65 -1851 0
-63 -1871 0
-64 -1875 0
-65 -1876 0
-63 -1892 0
-64 -1895 0
-65 -1896 0
-64 -1901 0
-65 -1902 0
-61 -1903 0
-64 -1908 0
-65 -1909 0
-61 -1910 0
-63 -1912 0
-64 -1914 0
-65 -1915 0
-63 -1918 0
-64 -1922 0
-65 -1923 0
-63 -1952 0
-64 -1955 0
-65 -1956 0
-64 -1963 0
-65 -1964 0
-63 -1967 0
-64 -1970 0
-65 -1971 0
-63 -1992 0
-64 -1996 0
-65 -1997 0
-66 -226 0
-69 -227 0
-71 -230 0
-72 -231 0
-66 -232 0
-68 -234 0
-69 -235 0
-70 -238 0
-71 -239 0
-72 -240 0
-66 -241 0
-68 -243 0
-69 -244 0
-71 -246 0
-72 -247 0
-66 -263 0
-68 -265 0
-69 -266 0
-71 -267 0
-72 -268 0
-66 -435 0
-70 -439 0
-71 -440 0
-72 -441 0
-66 -442 0
-69 -445 0
-71 -448 0
-72 -449 0
-66 -467 0
-71 -471 0
-72 -472 0
-66 -534 0
-70 -538 0
-71 -539 0
-72 -540 0
-66 -541 0
-69 -543 0
-71 -546 0
-72 -547 0
-68 -549 0
-69 -550 0
-70 -552 0
-71 -553 0
-72 -554 0
-66 -555 0
-71 -559 0
-72 -560 0
-68 -570 0
-70 -571 0
-71 -572 0
-72 -573 0
-68 -576 0
-69 -577 0
-71 -581 0
-72 -582 0
-66 -724 0
-70 -727 0
-71 -728 0
-72 -729 0
-68 -731 0
-71 -734 0
-72 -735 0
-68 -737 0
-69 -738 0
-70 -740 0
-71 -741 0
-72 -742 0
-69 -796 0
-71 -798 0
-72 -799 0
-70 -804 0
-71 -805 0
-72 -806 0
-69 -830 0
-71 -833 0
-72 -834 0
-70 -838 0
-71 -839 0
-72 -840 0
-66 -915 0
-68 -916 0
-69 -917 0
-70 -920 0
-71 -921 0
-72 -922 0
-66 -923 0
-68 -924 0
-69 -925 0
-70 -927 0
-71 -928 0
-72 -929 0
-66 -1021 0
-67 -1022 0
-69 -1023 0
-70 -1025 0
-71 -1026 0
-72 -1027 0
-66 -1028 0
-67 -1029 0
-69 -1030 0
-71 -1034 0
-72 -1035 0
-67 -1037 0
-68 -1038 0
-69 -1039 0
-70 -1041 0
-71 -1042 0
-72 -1043 0
-67 -1052 0
-68 -1053 0
-69 -1054 0
-70 -1057 0
-71 -1058 0
-72 -1059 0
-67 -1061 0
-68 -1062 0
-69 -1063 0
-71 -1065 0
-72 -1066 0
-68 -1075 0
-69 -1076 0
-70 -1079 0
-71 -1080 0
-72 -1081 0
-68 -1083 0
-69 -1084 0
-71 -1087 0
-72 -1088 0
-66 -1096 0
-70 -1100 0
-71 -1101 0
-72 -1102 0
-66 -1103 0
-69 -1106 0
-70 -1109 0
-71 -1110 0
-72 -1111 0
-66 -1128 0
-70 -1133 0
-71 -1134 0
-72 -1135 0
-66 -1185 0
-70 -1188 0
-71 -1189 0
-72 -1190 0
-66 -1191 0
-69 -1192 0
-70 -1195 0
-71 -1196 0
-72 -1197 0
-68 -1199 0
-69 -1200 0
-70 -1202 0
-71 -1203 0
-72 -1204 0
-68 -1212 0
-70 -1215 0
-71 -1216 0
-72 -1217 0
-68 -1219 0
-69 -1220 0
-70 -1223 0
-71 -1224 0
-72 -1225 0
-67 -1235 0
-69 -1236 0
-70 -1237 0
-71 -1238 0
-72 -1239 0
-67 -1248 0
-70 -1250 0
-71 -1251 0
-72 -1252 0
-67 -1255 0
-69 -1256 0
-71 -1259 0
-72 -1260 0
-70 -1272 0
-71 -1273 0
-72 -1274 0
-69 -1277 0
-71 -1279 0
-72 -1280 0
-67 -1296 0
-69 -1297 0
-70 -1301 0
-71 -1302 0
-72 -1303 0
-67 -1320 0
-70 -1323 0
-71 -1324 0
-72 -1325 0
-67 -1327 0
-69 -1328 0
-71 -1331 0
-72 -1332 0
-70 -1342 0
-71 -1343 0
-72 -1344 0
-69 -1346 0
-71 -1350 0
-72 -1351 0
-68 -1415 0
-70 -1419 0
-71 -1420 0
-72 -1421 0
-68 -1422 0
-69 -1423 0
-71 -1426 0
-72 -1427 0
-67 -1457 0
-71 -1461 0
-72 -1462 0
-67 -1463 0
-69 -1464 0
-70 -1467 0
-71 -1468 0
-72 -1469 0
-69 -1471 0
-70 -1475 0
-71 -1476 0
-72 -1477 0
-70 -1481 0
-71 -1482 0
-72 -1483 0
-69 -1493 0
-70 -1496 0
-71 -1497 0
-72 -1498 0
-71 -1504 0
-72 -1505 0
-69 -1525 0
-70 -1529 0
-71 -1530 0
-72 -1531 0
-67 -1636 0
-68 -1637 0
-70 -1639 0
-71 -1640 0
-72 -1641 0
-67 -1642 0
-68 -1643 0
-69 -1644 0
-71 -1647 0
-72 -1648 0
-68 -1649 0
-70 -1653 0
-71 -1654 0
-72 -1655 0
-68 -1656 0
-69 -1657 0
-71 -1660 0
-72 -1661 0
-66 -1662 0
-69 -1664 0
-70 -1667 0
-71 -1668 0
-72 -1669 0
-66 -1670 0
-70 -1674 0
-71 -1675 0
-72 -1676 0
-66 -1692 0
-69 -1694 0
-70 -1696 0
-71 -1697 0
-72 -1698 0
-68 -1751 0
-69 -1752 0
-70 -1754 0
-71 -1755 0
-72 -1756 0
-68 -1757 0
-70 -1761 0
-71 -1762 0
-72 -1763 0
-67 -1765 0
-70 -1769 0
-71 -1770 0
-72 -1771 0
-67 -1781 0
-69 -1782 0
-70 -1785 0
-71 -1786 0
-72 -1787 0
-67 -1790 0
-71 -1793 0
-72 -1794 0
-69 -1804 0
-70 -1807 0
-71 -1808 0
-72 -1809 0
-71 -1815 0
-72 -1816 0
-69 -1833 0
-71 -1837 0
-72 -1838 0
-67 -1852 0
-69 -1853 0
-70 -1855 0
-71 -1856 0
-72 -1857 0
-67 -1858 0
-71 -1862 0
-72 -1863 0
-69 -1870 0
-70 -1874 0
-71 -1875 0
-72 -1876 0
-69 -1904 0
-70 -1907 0
-71 -1908 0
-72 -1909 0
-69 -1911 0
-71 -1914 0
-72 -1915 0
-67 -1945 0
-70 -1947 0
-71 -1948 0
-72 -1949 0
-67 -1958 0
-69 -1959 0
-70 -1962 0
-71 -1963 0
-72 -1964 0
-67 -1966 0
-70 -1969 0
-71 -1970 0
-72 -1971 0
-69 -1979 0
-70 -1981 0
-71 -1982 0
-72 -1983 0
-70 -1987 0
-71 -1988 0
-72 -1989 0
-73 -109 0
-76 -112 0
-78 -113 0
-79 -115 0
-80 -116 0
-73 -226 0
-76 -227 0
-78 -228 0
-79 -230 0
-80 -231 0
-73 -241 0
-75 -243 0
-76 -244 0
-78 -245 0
-79 -246 0
-80 -247 0
-73 -254 0
-75 -256 0
-76 -257 0
-77 -258 0
-78 -259 0
-79 -261 0
-80 -262 0
-73 -282 0
-75 -283 0
-76 -284 0
-78 -285 0
-79 -288 0
-80 -289 0
-73 -324 0
-77 -326 0
-78 -327 0
-79 -329 0
-80 -330 0
-73 -409 0
-75 -410 0
-77 -411 0
-78 -412 0
-79 -414 0
-80 -415 0
-73 -429 0
-78 -432 0
-79 -433 0
-80 -434 0
-73 -442 0
-74 -443 0
-76 -445 0
-78 -446 0
-79 -448 0
-80 -449 0
-73 -457 0
-74 -458 0
-77 -461 0
-78 -462 0
-79 -465 0
-80 -466 0
-73 -489 0
-74 -490 0
-78 -492 0
-79 -494 0
-80 -495 0
-73 -534 0
-78 -536 0
-79 -539 0
-80 -540 0
-75 -549 0
-76 -550 0
-78 -551 0
-79 -553 0
-80 -554 0
-73 -555 0
-74 -556 0
-77 -557 0
-78 -558 0
-79 -559 0
-80 -560 0
-75 -563 0
-77 -564 0
-78 -565 0
-79 -566 0
-80 -567 0
-74 -574 0
-75 -576 0
-76 -577 0
-77 -578 0
-78 -579 0
-79 -581 0
-80 -582 0
-75 -584 0
-78 -585 0
-79 -587 0
-80 -588 0
-74 -596 0
-75 -597 0
-77 -598 0
-78 -599 0
-79 -601 0
-80 -602 0
-73 -657 0
-77 -660 0
-79 -662 0
-80 -663 0
-73 -679 0
-78 -681 0
-79 -684 0
-80 -685 0
-73 -724 0
-77 -725 0
-79 -728 0
-80 -729 0
-75 -737 0
-76 -738 0
-77 -739 0
-79 -741 0
-80 -742 0
-75 -749 0
-77 -750 0
-78 -751 0
-79 -754 0
-80 -755 0
-73 -763 0
-76 -765 0
-77 -766 0
-79 -769 0
-80 -770 0
-76 -789 0
-77 -790 0
-79 -792 0
-80 -793 0
-74 -800 0
-77 -802 0
-79 -805 0
-80 -806 0
-76 -808 0
-78 -809 0
-79 -812 0
-80 -813 0
-74 -821 0
-76 -823 0
-77 -824 0
-78 -825 0
-79 -827 0
-80 -828 0
-76 -830 0
-77 -831 0
-79 -833 0
-80 -834 0
-73 -848 0
-76 -850 0
-77 -851 0
-79 -852 0
-80 -853 0
-73 -923 0
-75 -924 0
-76 -925 0
-77 -926 0
-79 -928 0
-80 -929 0
-73 -944 0
-76 -947 0
-79 -949 0
-80 -950 0
-73 -958 0
-74 -959 0
-76 -961 0
-77 -962 0
-79 -964 0
-80 -965 0
-73 -981 0
-74 -982 0
-76 -984 0
-78 -985 0
-79 -988 0
-80 -989 0
-73 -1021 0
-76 -1023 0
-79 -1026 0
-80 -1027 0
-75 -1038 0
-76 -1039 0
-79 -1042 0
-80 -1043 0
-75 -1045 0
-76 -1046 0
-77 -1047 0
-79 -1049 0
-80 -1050 0
-74 -1060 0
-75 -1062 0
-76 -1063 0
-77 -1064 0
-79 -1065 0
-80 -1066 0
-75 -1068 0
-76 -1069 0
-78 -1070 0
-79 -1072 0
-80 -1073 0
-74 -1082 0
-75 -1083 0
-76 -1084 0
-78 -1085 0
-79 -1087 0
-80 -1088 0
-73 -1089 0
-77 -1092 0
-79 -1094 0
-80 -1095 0
-73 -1103 0
-74 -1104 0
-76 -1106 0
-77 -1107 0
-79 -1110 0
-80 -1111 0
-73 -1121 0
-74 -1122 0
-77 -1124 0
-79 -1126 0
-80 -1127 0
-73 -1153 0
-74 -1154 0
-77 -1155 0
-78 -1156 0
-79 -1157 0
-80 -1158 0
-73 -1185 0
-77 -1186 0
-79 -1189 0
-80 -1190 0
-75 -1199 0
-76 -1200 0
-77 -1201 0
-79 -1203 0
-80 -1204 0
-75 -1206 0
-77 -1207 0
-79 -1209 0
-80 -1210 0
-74 -1218 0
-75 -1219 0
-76 -1220 0
-77 -1221 0
-79 -1224 0
-80 -1225 0
-75 -1226 0
-77 -1227 0
-78 -1228 0
-79 -1231 0
-80 -1232 0
-74 -1233 0
-76 -1236 0
-79 -1238 0
-80 -1239 0
-74 -1240 0
-77 -1243 0
-79 -1244 0
-80 -1245 0
-74 -1253 0
-76 -1256 0
-77 -1257 0
-79 -1259 0
-80 -1260 0
-74 -1261 0
-78 -1264 0
-79 -1266 0
-80 -1267 0
-74 -1275 0
-76 -1277 0
-78 -1278 0
-79 -1279 0
-80 -1280 0
-74 -1287 0
-77 -1289 0
-78 -1290 0
-79 -1292 0
-80 -1293 0
-74 -1304 0
-76 -1306 0
-79 -1309 0
-80 -1310 0
-74 -1319 0
-77 -1321 0
-79 -1324 0
-80 -1325 0
-74 -1333 0
-76 -1334 0
-77 -1335 0
-79 -1337 0
-80 -1338 0
-74 -1339 0
-78 -1340 0
-79 -1343 0
-80 -1344 0
-73 -1360 0
-77 -1362 0
-78 -1363 0
-79 -1365 0
-80 -1366 0
-73 -1380 0
-77 -1381 0
-79 -1384 0
-80 -1385 0
-75 -1422 0
-76 -1423 0
-77 -1424 0
-78 -1425 0
-79 -1426 0
-80 -1427 0
-77 -1430 0
-78 -1431 0
-79 -1434 0
-80 -1435 0
-79 -1440 0
-80 -1441 0
-74 -1450 0
-77 -1452 0
-79 -1455 0
-80 -1456 0
-77 -1458 0
-78 -1459 0
-79 -1461 0
-80 -1462 0
-77 -1479 0
-78 -1480 0
-79 -1482 0
-80 -1483 0
-76 -1486 0
-77 -1487 0
-78 -1488 0
-79 -1489 0
-80 -1490 0
-74 -1499 0
-77 -1501 0
-78 -1502 0
-79 -1504 0
-80 -1505 0
-76 -1507 0
-77 -1508 0
-79 -1510 0
-80 -1511 0
-74 -1519 0
-76 -1520 0
-77 -1521 0
-79 -1523 0
-80 -1524 0
-76 -1525 0
-77 -1526 0
-78 -1527 0
-79 -1530 0
-80 -1531 0
-73 -1576 0
-78 -1578 0
-79 -1581 0
-80 -1582 0
-73 -1598 0
-77 -1600 0
-78 -1601 0
-79 -1603 0
-80 -1604 0
-75 -1643 0
-76 -1644 0
-78 -1645 0
-79 -1647 0
-80 -1648 0
-75 -1656 0
-76 -1657 0
-77 -1658 0
-78 -1659 0
-79 -1660 0
-80 -1661 0
-73 -1670 0
-78 -1672 0
-79 -1675 0
-80 -1676 0
-73 -1684 0
-76 -1686 0
-77 -1687 0
-78 -1688 0
-79 -1690 0
-80 -1691 0
-73 -1714 0
-76 -1715 0
-78 -1716 0
-79 -1718 0
-80 -1719 0
-75 -1757 0
-77 -1758 0
-78 -1759 0
-79 -1762 0
-80 -1763 0
-77 -1766 0
-78 -1767 0
-79 -1770 0
-80 -1771 0
-76 -1774 0
-78 -1775 0
-79 -1777 0
-80 -1778 0
-74 -1788 0
-78 -1791 0
-79 -1793 0
-80 -1794 0
-76 -1797 0
-77 -1798 0
-78 -1799 0
-79 -1800 0
-80 -1801 0
-74 -1810 0
-77 -1812 0
-78 -1813 0
-79 -1815 0
-80 -1816 0
-74 -1824 0
-76 -1826 0
-78 -1827 0
-79 -1830 0
-80 -1831 0
-77 -1840 0
-78 -1841 0
-79 -1843 0
-80 -1844 0
-76 -1853 0
-78 -1854 0
-79 -1856 0
-80 -1857 0
-74 -1864 0
-78 -1865 0
-79 -1868 0
-80 -1869 0
-76 -1870 0
-77 -1871 0
-78 -1872 0
-79 -1875 0
-80 -1876 0
-76 -1898 0
-78 -1899 0
-79 -1901 0
-80 -1902 0
-76 -1911 0
-77 -1912 0
-79 -1914 0
-80 -1915 0
-76 -1917 0
-77 -1918 0
-78 -1919 0
-79 -1922 0
-80 -1923 0
-77 -1939 0
-78 -1940 0
-79 -1942 0
-80 -1943 0
-79 -1948 0
-80 -1949 0
-76 -1951 0
-77 -1952 0
-79 -1955 0
-80 -1956 0
-74 -1965 0
-77 -1967 0
-79 -1970 0
-80 -1971 0
-76 -1973 0
-78 -1974 0
-79 -1976 0
-80 -1977 0
-74 -1984 0
-78 -1985 0
-79 -1988 0
-80 -1989 0
-81 -102 0
-84 -106 0
-86 -107 0
-87 -108 0
-81 -226 0
-84 -229 0
-86 -230 0
-87 -231 0
-81 -232 0
-83 -234 0
-84 -237 0
-85 -238 0
-86 -239 0
-87 -240 0
-81 -248 0
-83 -250 0
-84 -251 0
-86 -252 0
-87 -253 0
-81 -275 0
-83 -276 0
-84 -279 0
-86 -280 0
-87 -281 0
-81 -318 0
-85 -321 0
-86 -322 0
-87 -323 0
-81 -402 0
-83 -403 0
-85 -406 0
-86 -407 0
-87 -408 0
-81 -429 0
-86 -433 0
-87 -434 0
-81 -435 0
-82 -436 0
-85 -439 0
-86 -440 0
-87 -441 0
-81 -450 0
-82 -451 0
-86 -455 0
-87 -456 0
-81 -480 0
-82 -481 0
-84 -486 0
-86 -487 0
-87 -488 0
-81 -541 0
-86 -546 0
-87 -547 0
-83 -549 0
-85 -552 0
-86 -553 0
-87 -554 0
-81 -555 0
-82 -556 0
-86 -559 0
-87 -560 0
-83 -563 0
-86 -566 0
-87 -567 0
-82 -568 0
-83 -570 0
-85 -571 0
-86 -572 0
-87 -573 0
-83 -584 0
-84 -586 0
-86 -587 0
-87 -588 0
-82 -589 0
-83 -590 0
-84 -593 0
-86 -594 0
-87 -595 0
-81 -648 0
-84 -653 0
-85 -654 0
-86 -655 0
-87 -656 0
-81 -671 0
-84 -675 0
-85 -676 0
-86 -677 0
-87 -678 0
-81 -724 0
-84 -726 0
-85 -727 0
-86 -728 0
-87 -729 0
-83 -731 0
-84 -733 0
-86 -734 0
-87 -735 0
-83 -743 0
-84 -745 0
-85 -746 0
-86 -747 0
-87 -748 0
-81 -756 0
-86 -761 0
-87 -762 0
-85 -791 0
-86 -792 0
-87 -793 0
-82 -794 0
-86 -798 0
-87 -799 0
-84 -810 0
-85 -811 0
-86 -812 0
-87 -813 0
-82 -814 0
-84 -817 0
-85 -818 0
-86 -819 0
-87 -820 0
-85 -838 0
-86 -839 0
-87 -840 0
-81 -841 0
-84 -844 0
-85 -845 0
-86 -846 0
-87 -847 0
-81 -915 0
-83 -916 0
-84 -919 0
-85 -920 0
-86 -921 0
-87 -922 0
-81 -944 0
-84 -948 0
-86 -949 0
-87 -950 0
-81 -951 0
-82 -952 0
-84 -955 0
-86 -956 0
-87 -957 0
-81 -974 0
-82 -975 0
-84 -978 0
-86 -979 0
-87 -980 0
-81 -1028 0
-84 -1033 0
-86 -1034 0
-87 -1035 0
-83 -1038 0
-84 -1040 0
-85 -1041 0
-86 -1042 0
-87 -1043 0
-83 -1045 0
-84 -1048 0
-86 -1049 0
-87 -1050 0
-82 -1051 0
-83 -1053 0
-84 -1056 0
-85 -1057 0
-86 -1058 0
-87 -1059 0
-83 -1068 0
-84 -1071 0
-86 -1072 0
-87 -1073 0
-82 -1074 0
-83 -1075 0
-84 -1078 0
-85 -1079 0
-86 -1080 0
-87 -1081 0
-81 -1089 0
-85 -1093 0
-86 -1094 0
-87 -1095 0
-81 -1096 0
-82 -1097 0
-85 -1100 0
-86 -1101 0
-87 -1102 0
-81 -1112 0
-82 -1113 0
-85 -1118 0
-86 -1119 0
-87 -1120 0
-81 -1146 0
-82 -1147 0
-84 -1149 0
-85 -1150 0
-86 -1151 0
-87 -1152 0
-81 -1191 0
-85 -1195 0
-86 -1196 0
-87 -1197 0
-83 -1199 0
-85 -1202 0
-86 -1203 0
-87 -1204 0
-83 -1206 0
-85 -1208 0
-86 -1209 0
-87 -1210 0
-82 -1211 0
-83 -1212 0
-85 -1215 0
-86 -1216 0
-87 -1217 0
-83 -1226 0
-84 -1229 0
-85 -1230 0
-86 -1231 0
-87 -1232 0
-82 -1233 0
-85 -1237 0
-86 -1238 0
-87 -1239 0
-82 -1240 0
-86 -1244 0
-87 -1245 0
-82 -1246 0
-85 -1250 0
-86 -1251 0
-87 -1252 0
-82 -1261 0
-84 -1265 0
-86 -1266 0
-87 -1267 0
-82 -1268 0
-84 -1271 0
-85 -1272 0
-86 -1273 0
-87 -1274 0
-82 -1281 0
-84 -1284 0
-86 -1285 0
-87 -1286 0
-82 -1311 0
-85 -1316 0
-86 -1317 0
-87 -1318 0
-82 -1326 0
-86 -1331 0
-87 -1332 0
-82 -1333 0
-85 -1336 0
-86 -1337 0
-87 -1338 0
-82 -1345 0
-84 -1349 0
-86 -1350 0
-87 -1351 0
-81 -1352 0
-84 -1357 0
-86 -1358 0
-87 -1359 0
-81 -1374 0
-84 -1377 0
-86 -1378 0
-87 -1379 0
-83 -1415 0
-84 -1418 0
-85 -1419 0
-86 -1420 0
-87 -1421 0
-84 -1432 0
-85 -1433 0
-86 -1434 0
-87 -1435 0
-84 -1438 0
-85 -1439 0
-86 -1440 0
-87 -1441 0
-82 -1442 0
-84 -1446 0
-85 -1447 0
-86 -1448 0
-87 -1449 0
-84 -1466 0
-85 -1467 0
-86 -1468 0
-87 -1469 0
-84 -1474 0
-85 -1475 0
-86 -1476 0
-87 -1477 0
-85 -1481 0
-86 -1482 0
-87 -1483 0
-86 -1489 0
-87 -1490 0
-82 -1491 0
-85 -1496 0
-86 -1497 0
-87 -1498 0
-84 -1509 0
-86 -1510 0
-87 -1511 0
-82 -1512 0
-84 -1516 0
-86 -1517 0
-87 -1518 0
-81 -1570 0
-86 -1574 0
-87 -1575 0
-81 -1590 0
-84 -1595 0
-86 -1596 0
-87 -1597 0
-83 -1637 0
-85 -1639 0
-86 -1640 0
-87 -1641 0
-83 -1649 0
-84 -1652 0
-85 -1653 0
-86 -1654 0
-87 -1655 0
-81 -1662 0
-84 -1666 0
-85 -1667 0
-86 -1668 0
-87 -1669 0
-81 -1677 0
-84 -1680 0
-85 -1681 0
-86 -1682 0
-87 -1683 0
-81 -1707 0
-85 -1711 0
-86 -1712 0
-87 -1713 0
-83 -1751 0
-84 -1753 0
-85 -1754 0
-86 -1755 0
-87 -1756 0
-84 -1768 0
-85 -1769 0
-86 -1770 0
-87 -1771 0
-84 -1776 0
-86 -1777 0
-87 -1778 0
-82 -1779 0
-84 -1784 0
-85 -1785 0
-86 -1786 0
-87 -1787 0
-86 -1800 0
-87 -1801 0
-82 -1802 0
-85 -1807 0
-86 -1808 0
-87 -1809 0
-82 -1817 0
-86 -1822 0
-87 -1823 0
-84 -1848 0
-85 -1849 0
-86 -1850 0
-87 -1851 0
-84 -1861 0
-86 -1862 0
-87 -1863 0
-82 -1864 0
-84 -1866 0
-85 -1867 0
-86 -1868 0
-87 -1869 0
-84 -1893 0
-85 -1894 0
-86 -1895 0
-87 -1896 0
-84 -1906 0
-85 -1907 0
-86 -1908 0
-87 -1909 0
-84 -1941 0
-86 -1942 0
-87 -1943 0
-84 -1946 0
-85 -1947 0
-86 -1948 0
-87 -1949 0
-84 -1953 0
-85 -1954 0
-86 -1955 0
-87 -1956 0
-82 -1957 0
-84 -1961 0
-85 -1962 0
-86 -1963 0
-87 -1964 0
-85 -1975 0
-86 -1976 0
-87 -1977 0
-82 -1978 0
-85 -1981 0
-86 -1982 0
-87 -1983 0
-84 -1994 0
-85 -1995 0
-86 -1996 0
-87 -1997 0
-88 -109 0
-90 -113 0
-91 -114 0
-92 -115 0
-93 -116 0
-88 -157 0
-90 -160 0
-91 -162 0
-92 -163 0
-93 -164 0
-88 -165 0
-89 -168 0
-90 -170 0
-91 -172 0
-92 -173 0
-93 -174 0
-88 -183 0
-89 -186 0
-90 -189 0
-91 -190 0
-92 -191 0
-93 -192 0
-88 -203 0
-89 -206 0
-90 -207 0
-91 -208 0
-92 -209 0
-93 -210 0
-88 -282 0
-89 -283 0
-90 -285 0
-91 -287 0
-92 -288 0
-93 -289 0
-88 -324 0
-90 -327 0
-92 -329 0
-93 -330 0
-88 -372 0
-89 -374 0
-90 -376 0
-92 -377 0
-93 -378 0
-88 -385 0
-89 -387 0
-90 -390 0
-91 -392 0
-92 -393 0
-93 -394 0
-88 -429 0
-90 -432 0
-92 -433 0
-93 -434 0
-88 -442 0
-90 -446 0
-92 -448 0
-93 -449 0
-88 -457 0
-90 -462 0
-91 -464 0
-92 -465 0
-93 -466 0
-88 -480 0
-90 -485 0
-92 -487 0
-93 -488 0
-89 -498 0
-90 -500 0
-92 -501 0
-93 -502 0
-88 -503 0
-90 -506 0
-91 -507 0
-92 -508 0
-93 -509 0
-89 -513 0
-90 -515 0
-91 -516 0
-92 -517 0
-93 -518 0
-89 -528 0
-90 -529 0
-91 -531 0
-92 -532 0
-93 -533 0
-88 -541 0
-90 -545 0
-92 -546 0
-93 -547 0
-89 -584 0
-90 -585 0
-92 -587 0
-93 -588 0
-89 -597 0
-90 -599 0
-91 -600 0
-92 -601 0
-93 -602 0
-88 -634 0
-89 -635 0
-91 -638 0
-92 -639 0
-93 -640 0
-88 -657 0
-91 -661 0
-92 -662 0
-93 -663 0
-88 -671 0
-91 -676 0
-92 -677 0
-93 -678 0
-89 -687 0
-91 -690 0
-92 -691 0
-93 -692 0
-88 -693 0
-91 -697 0
-92 -698 0
-93 -699 0
-89 -702 0
-91 -705 0
-92 -706 0
-93 -707 0
-89 -720 0
-91 -721 0
-92 -722 0
-93 -723 0
-89 -749 0
-90 -751 0
-91 -753 0
-92 -754 0
-93 -755 0
-88 -763 0
-91 -768 0
-92 -769 0
-93 -770 0
-89 -780 0
-91 -783 0
-92 -784 0
-93 -785 0
-91 -791 0
-92 -792 0
-93 -793 0
-91 -804 0
-92 -805 0
-93 -806 0
-91 -818 0
-92 -819 0
-93 -820 0
-90 -837 0
-91 -838 0
-92 -839 0
-93 -840 0
-88 -848 0
-92 -852 0
-93 -853 0
-88 -888 0
-89 -890 0
-92 -892 0
-93 -893 0
-88 -903 0
-89 -905 0
-92 -907 0
-93 -908 0
-88 -944 0
-92 -949 0
-93 -950 0
-88 -958 0
-91 -963 0
-92 -964 0
-93 -965 0
-88 -974 0
-92 -979 0
-93 -980 0
-89 -993 0
-92 -997 0
-93 -998 0
-89 -1001 0
-91 -1003 0
-92 -1004 0
-93 -1005 0
-89 -1016 0
-91 -1018 0
-92 -1019 0
-93 -1020 0
-88 -1028 0
-90 -1032 0
-92 -1034 0
-93 -1035 0
-89 -1068 0
-90 -1070 0
-92 -1072 0
-93 -1073 0
-89 -1083 0
-90 -1085 0
-92 -1087 0
-93 -1088 0
-88 -1089 0
-91 -1093 0
-92 -1094 0
-93 -1095 0
-88 -1103 0
-91 -1109 0
-92 -1110 0
-93 -1111 0
-88 -1121 0
-92 -1126 0
-93 -1127 0
-88 -1146 0
-91 -1150 0
-92 -1151 0
-93 -1152 0
-89 -1161 0
-91 -1162 0
-92 -1163 0
-93 -1164 0
-89 -1167 0
-92 -1170 0
-93 -1171 0
-89 -1180 0
-92 -1183 0
-93 -1184 0
-88 -1191 0
-90 -1194 0
-91 -1195 0
-92 -1196 0
-93 -1197 0
-89 -1226 0
-90 -1228 0
-91 -1230 0
-92 -1231 0
-93 -1232 0
-91 -1237 0
-92 -1238 0
-93 -1239 0
-92 -1244 0
-93 -1245 0
-92 -1259 0
-93 -1260 0
-91 -1272 0
-92 -1273 0
-93 -1274 0
-92 -1285 0
-93 -1286 0
-90 -1299 0
-91 -1301 0
-92 -1302 0
-93 -1303 0
-90 -1315 0
-91 -1316 0
-92 -1317 0
-93 -1318 0
-90 -1330 0
-92 -1331 0
-93 -1332 0
-90 -1340 0
-91 -1342 0
-92 -1343 0
-93 -1344 0
-88 -1360 0
-90 -1363 0
-91 -1364 0
-92 -1365 0
-93 -1366 0
-88 -1374 0
-90 -1376 0
-92 -1378 0
-93 -1379 0
-89 -1387 0
-90 -1388 0
-92 -1390 0
-93 -1391 0
-89 -1393 0
-90 -1396 0
-91 -1398 0
-92 -1399 0
-93 -1400 0
-89 -1409 0
-90 -1411 0
-91 -1412 0
-92 -1413 0
-93 -1414 0
-90 -1431 0
-91 -1433 0
-92 -1434 0
-93 -1435 0
-90 -1445 0
-91 -1447 0
-92 -1448 0
-93 -1449 0
-91 -1467 0
-92 -1468 0
-93 -1469 0
-90 -1480 0
-91 -1481 0
-92 -1482 0
-93 -1483 0
-90 -1488 0
-92 -1489 0
-93 -1490 0
-90 -1502 0
-92 -1504 0
-93 -1505 0
-90 -1515 0
-92 -1517 0
-93 -1518 0
-88 -1556 0
-89 -1557 0
-90 -1559 0
-92 -1561 0
-93 -1562 0
-88 -1576 0
-90 -1578 0
-91 -1580 0
-92 -1581 0
-93 -1582 0
-88 -1590 0
-90 -1594 0
-92 -1596 0
-93 -1597 0
-89 -1607 0
-90 -1609 0
-92 -1610 0
-93 -1611 0
-89 -1613 0
-90 -1616 0
-91 -1617 0
-92 -1618 0
-93 -1619 0
-89 -1629 0
-90 -1631 0
-91 -1633 0
-92 -1634 0
-93 -1635 0
-89 -1656 0
-90 -1659 0
-92 -1660 0
-93 -1661 0
-88 -1670 0
-90 -1672 0
-91 -1674 0
-92 -1675 0
-93 -1676 0
-88 -1684 0
-90 -1688 0
-92 -1690 0
-93 -1691 0
-88 -1707 0
-90 -1710 0
-91 -1711 0
-92 -1712 0
-93 -1713 0
-89 -1721 0
-90 -1724 0
-91 -1726 0
-92 -1727 0
-93 -1728 0
-89 -1730 0
-90 -1732 0
-92 -1734 0
-93 -1735 0
-89 -1745 0
-90 -1747 0
-92 -1749 0
-93 -1750 0
-90 -1767 0
-91 -1769 0
-92 -1770 0
-93 -1771 0
-90 -1775 0
-92 -1777 0
-93 -1778 0
-90 -1791 0
-92 -1793 0
-93 -1794 0
-90 -1806 0
-91 -1807 0
-92 -1808 0
-93 -1809 0
-90 -1821 0
-92 -1822 0
-93 -1823 0
-90 -1835 0
-92 -1837 0
-93 -1838 0
-90 -1847 0
-91 -1849 0
-92 -1850 0
-93 -1851 0
-90 -1860 0
-92 -1862 0
-93 -1863 0
-90 -1872 0
-91 -1874 0
-92 -1875 0
-93 -1876 0
-89 -1884 0
-91 -1887 0
-92 -1888 0
-93 -1889 0
-91 -1894 0
-92 -1895 0
-93 -1896 0
-92 -1914 0
-93 -1915 0
-89 -1932 0
-91 -1934 0
-92 -1935 0
-93 -1936 0
-91 -1947 0
-92 -1948 0
-93 -1949 0
-91 -1954 0
-92 -1955 0
-93 -1956 0
-91 -1969 0
-92 -1970 0
-93 -1971 0
-91 -1981 0
-92 -1982 0
-93 -1983 0
-90 -1993 0
-91 -1995 0
-92 -1996 0
-93 -1997 0
-94 -102 0
-97 -105 0
-98 -106 0
-99 -107 0
-100 -108 0
-94 -157 0
-97 -159 0
-98 -161 0
-99 -163 0
-100 -164 0
-94 -165 0
-95 -168 0
-97 -169 0
-98 -171 0
-99 -173 0
-100 -174 0
-94 -175 0
-95 -178 0
-97 -179 0
-98 -180 0
-99 -181 0
-100 -182 0
-94 -193 0
-95 -196 0
-96 -197 0
-97 -198 0
-98 -199 0
-99 -201 0
-100 -202 0
-94 -275 0
-95 -276 0
-97 -277 0
-98 -279 0
-99 -280 0
-100 -281 0
-94 -318 0
-96 -320 0
-99 -322 0
-100 -323 0
-94 -372 0
-95 -374 0
-96 -375 0
-99 -377 0
-100 -378 0
-94 -379 0
-95 -381 0
-96 -382 0
-99 -383 0
-100 -384 0
-94 -429 0
-99 -433 0
-100 -434 0
-94 -435 0
-97 -438 0
-99 -440 0
-100 -441 0
-94 -450 0
-96 -454 0
-99 -455 0
-100 -456 0
-94 -489 0
-99 -494 0
-100 -495 0
-95 -498 0
-97 -499 0
-99 -501 0
-100 -502 0
-94 -503 0
-96 -505 0
-99 -508 0
-100 -509 0
-95 -513 0
-96 -514 0
-99 -517 0
-100 -518 0
-95 -521 0
-96 -522 0
-97 -523 0
-99 -524 0
-100 -525 0
-94 -534 0
-98 -537 0
-99 -539 0
-100 -540 0
-95 -584 0
-98 -586 0
-99 -587 0
-100 -588 0
-95 -590 0
-96 -591 0
-98 -593 0
-99 -594 0
-100 -595 0
-94 -626 0
-95 -627 0
-96 -628 0
-98 -630 0
-99 -632 0
-100 -633 0
-94 -648 0
-96 -651 0
-98 -653 0
-99 -655 0
-100 -656 0
-94 -679 0
-98 -682 0
-99 -684 0
-100 -685 0
-95 -687 0
-97 -688 0
-98 -689 0
-99 -691 0
-100 -692 0
-94 -693 0
-96 -695 0
-98 -696 0
-99 -698 0
-100 -699 0
-95 -702 0
-96 -703 0
-98 -704 0
-99 -706 0
-100 -707 0
-95 -710 0
-96 -711 0
-97 -712 0
-98 -714 0
-99 -716 0
-100 -717 0
-95 -743 0
-96 -744 0
-98 -745 0
-99 -747 0
-100 -748 0
-94 -756 0
-96 -758 0
-97 -759 0
-99 -761 0
-100 -762 0
-95 -780 0
-96 -781 0
-97 -782 0
-99 -784 0
-100 -785 0
-96 -789 0
-97 -790 0
-99 -792 0
-100 -793 0
-96 -796 0
-99 -798 0
-100 -799 0
-96 -823 0
-97 -824 0
-99 -827 0
-100 -828 0
-96 -830 0
-97 -831 0
-98 -832 0
-99 -833 0
-100 -834 0
-94 -841 0
-98 -844 0
-99 -846 0
-100 -847 0
-94 -888 0
-95 -890 0
-98 -891 0
-99 -892 0
-100 -893 0
-94 -894 0
-95 -896 0
-97 -897 0
-98 -899 0
-99 -901 0
-100 -902 0
-94 -944 0
-96 -947 0
-98 -948 0
-99 -949 0
-100 -950 0
-94 -951 0
-98 -955 0
-99 -956 0
-100 -957 0
-94 -981 0
-96 -984 0
-98 -986 0
-99 -988 0
-100 -989 0
-95 -993 0
-96 -994 0
-97 -995 0
-98 -996 0
-99 -997 0
-100 -998 0
-95 -1001 0
-98 -1002 0
-99 -1004 0
-100 -1005 0
-95 -1008 0
-97 -1009 0
-98 -1011 0
-99 -1012 0
-100 -1013 0
-94 -1021 0
-96 -1023 0
-98 -1024 0
-99 -1026 0
-100 -1027 0
-95 -1068 0
-96 -1069 0
-98 -1071 0
-99 -1072 0
-100 -1073 0
-95 -1075 0
-96 -1076 0
-97 -1077 0
-98 -1078 0
-99 -1080 0
-100 -1081 0
-94 -1089 0
-97 -1092 0
-99 -1094 0
-100 -1095 0
-94 -1096 0
-99 -1101 0
-100 -1102 0
-94 -1112 0
-96 -1115 0
-97 -1116 0
-99 -1119 0
-100 -1120 0
-94 -1153 0
-97 -1155 0
-99 -1157 0
-100 -1158 0
-95 -1161 0
-99 -1163 0
-100 -1164 0
-95 -1167 0
-96 -1168 0
-97 -1169 0
-99 -1170 0
-100 -1171 0
-95 -1173 0
-96 -1174 0
-99 -1177 0
-100 -1178 0
-94 -1185 0
-97 -1186 0
-98 -1187 0
-99 -1189 0
-100 -1190 0
-95 -1226 0
-97 -1227 0
-98 -1229 0
-99 -1231 0
-100 -1232 0
-96 -1236 0
-99 -1238 0
-100 -1239 0
-97 -1243 0
-99 -1244 0
-100 -1245 0
-99 -1251 0
-100 -1252 0
-96 -1277 0
-99 -1279 0
-100 -1280 0
-97 -1289 0
-99 -1292 0
-100 -1293 0
-96 -1297 0
-97 -1298 0
-98 -1300 0
-99 -1302 0
-100 -1303 0
-96 -1306 0
-98 -1307 0
-99 -1309 0
-100 -1310 0
-97 -1321 0
-98 -1322 0
-99 -1324 0
-100 -1325 0
-96 -1346 0
-97 -1347 0
-98 -1349 0
-99 -1350 0
-100 -1351 0
-94 -1352 0
-96 -1354 0
-97 -1355 0
-98 -1357 0
-99 -1358 0
-100 -1359 0
-94 -1380 0
-97 -1381 0
-98 -1382 0
-99 -1384 0
-100 -1385 0
-95 -1387 0
-98 -1389 0
-99 -1390 0
-100 -1391 0
-95 -1393 0
-96 -1394 0
-97 -1395 0
-98 -1397 0
-99 -1399 0
-100 -1400 0
-95 -1402 0
-96 -1403 0
-98 -1405 0
-99 -1406 0
-100 -1407 0
-97 -1430 0
-98 -1432 0
-99 -1434 0
-100 -1435 0
-97 -1452 0
-98 -1453 0
-99 -1455 0
-100 -1456 0
-97 -1458 0
-98 -1460 0
-99 -1461 0
-100 -1462 0
-96 -1471 0
-97 -1472 0
-98 -1474 0
-99 -1476 0
-100 -1477 0
-97 -1479 0
-99 -1482 0
-100 -1483 0
-96 -1486 0
-97 -1487 0
-99 -1489 0
-100 -1490 0
-96 -1493 0
-97 -1494 0
-99 -1497 0
-100 -1498 0
-96 -1520 0
-97 -1521 0
-99 -1523 0
-100 -1524 0
-96 -1525 0
-97 -1526 0
-98 -1528 0
-99 -1530 0
-100 -1531 0
-94 -1549 0
-95 -1550 0
-96 -1551 0
-97 -1552 0
-99 -1554 0
-100 -1555 0
-94 -1570 0
-96 -1572 0
-97 -1573 0
-99 -1574 0
-100 -1575 0
-94 -1598 0
-97 -1600 0
-99 -1603 0
-100 -1604 0
-95 -1607 0
-97 -1608 0
-99 -1610 0
-100 -1611 0
-95 -1613 0
-96 -1614 0
-97 -1615 0
-99 -1618 0
-100 -1619 0
-95 -1622 0
-96 -1623 0
-97 -1624 0
-99 -1625 0
-100 -1626 0
-95 -1649 0
-97 -1650 0
-98 -1652 0
-99 -1654 0
-100 -1655 0
-94 -1662 0
-96 -1664 0
-97 -1665 0
-98 -1666 0
-99 -1668 0
-100 -1669 0
-94 -1677 0
-96 -1679 0
-98 -1680 0
-99 -1682 0
-100 -1683 0
-94 -1714 0
-96 -1715 0
-98 -1717 0
-99 -1718 0
-100 -1719 0
-95 -1721 0
-96 -1722 0
-97 -1723 0
-98 -1725 0
-99 -1727 0
-100 -1728 0
-95 -1730 0
-96 -1731 0
-98 -1733 0
-99 -1734 0
-100 -1735 0
-95 -1737 0
-96 -1738 0
-97 -1739 0
-98 -1740 0
-99 -1742 0
-100 -1743 0
-97 -1766 0
-98 -1768 0
-99 -1770 0
-100 -1771 0
-96 -1774 0
-98 -1776 0
-99 -1777 0
-100 -1778 0
-96 -1782 0
-97 -1783 0
-98 -1784 0
-99 -1786 0
-100 -1787 0
-97 -1812 0
-98 -1814 0
-99 -1815 0
-100 -1816 0
-96 -1826 0
-98 -1828 0
-99 -1830 0
-100 -1831 0
-96 -1833 0
-97 -1834 0
-98 -1836 0
-99 -1837 0
-100 -1838 0
-97 -1840 0
-99 -1843 0
-100 -1844 0
-96 -1853 0
-99 -1856 0
-100 -1857 0
-95 -1878 0
-96 -1879 0
-97 -1880 0
-99 -1882 0
-100 -1883 0
-96 -1898 0
-99 -1901 0
-100 -1902 0
-96 -1904 0
-98 -1906 0
-99 -1908 0
-100 -1909 0
-96 -1917 0
-97 -1918 0
-98 -1920 0
-99 -1922 0
-100 -1923 0
-95 -1932 0
-97 -1933 0
-99 -1935 0
-100 -1936 0
-98 -1946 0
-99 -1948 0
-100 -1949 0
-96 -1951 0
-97 -1952 0
-98 -1953 0
-99 -1955 0
-100 -1956 0
-96 -1959 0
-98 -1961 0
-99 -1963 0
-100 -1964 0
-98 -1986 0
-99 -1988 0
-100 -1989 0
-107 -316 0
-108 -317 0
-102 -364 0
-103 -366 0
-105 -368 0
-106 -369 0
-107 -370 0
-108 -371 0
-102 -385 0
-105 -389 0
-106 -391 0
-107 -393 0
-108 -394 0
-103 -396 0
-106 -399 0
-107 -400 0
-108 -401 0
-102 -409 0
-105 -411 0
-106 -413 0
-107 -414 0
-108 -415 0
-103 -416 0
-105 -418 0
-106 -419 0
-107 -421 0
-108 -422 0
-105 -425 0
-107 -427 0
-108 -428 0
-103 -527 0
-106 -530 0
-107 -532 0
-108 -533 0
-103 -575 0
-105 -578 0
-106 -580 0
-107 -581 0
-108 -582 0
-105 -598 0
-107 -601 0
-108 -602 0
-102 -617 0
-103 -618 0
-105 -620 0
-106 -622 0
-107 -624 0
-108 -625 0
-102 -634 0
-105 -637 0
-107 -639 0
-108 -640 0
-103 -641 0
-107 -646 0
-108 -647 0
-103 -719 0
-107 -722 0
-108 -723 0
-103 -736 0
-105 -739 0
-107 -741 0
-108 -742 0
-105 -750 0
-106 -752 0
-107 -754 0
-108 -755 0
-102 -763 0
-103 -764 0
-105 -766 0
-106 -767 0
-107 -769 0
-108 -770 0
-103 -771 0
-105 -774 0
-106 -776 0
-107 -777 0
-108 -778 0
-103 -779 0
-105 -782 0
-107 -784 0
-108 -785 0
-103 -801 0
-105 -802 0
-106 -803 0
-107 -805 0
-108 -806 0
-103 -822 0
-105 -824 0
-107 -827 0
-108 -828 0
-103 -835 0
-105 -836 0
-107 -839 0
-108 -840 0
-102 -878 0
-104 -880 0
-105 -883 0
-106 -885 0
-107 -886 0
-108 -887 0
-102 -903 0
-107 -907 0
-108 -908 0
-104 -910 0
-107 -913 0
-108 -914 0
-102 -923 0
-105 -926 0
-107 -928 0
-108 -929 0
-104 -930 0
-105 -933 0
-107 -936 0
-108 -937 0
-106 -940 0
-107 -942 0
-108 -943 0
-104 -1015 0
-107 -1019 0
-108 -1020 0
-104 -1061 0
-105 -1064 0
-107 -1065 0
-108 -1066 0
-106 -1086 0
-107 -1087 0
-108 -1088 0
-102 -1103 0
-103 -1105 0
-105 -1107 0
-106 -1108 0
-107 -1110 0
-108 -1111 0
-102 -1121 0
-104 -1123 0
-105 -1124 0
-106 -1125 0
-107 -1126 0
-108 -1127 0
-102 -1128 0
-105 -1130 0
-106 -1132 0
-107 -1134 0
-108 -1135 0
-103 -1137 0
-104 -1138 0
-105 -1140 0
-106 -1142 0
-107 -1144 0
-108 -1145 0
-102 -1153 0
-105 -1155 0
-107 -1157 0
-108 -1158 0
-103 -1160 0
-107 -1163 0
-108 -1164 0
-104 -1166 0
-105 -1169 0
-107 -1170 0
-108 -1171 0
-107 -1177 0
-108 -1178 0
-102 -1191 0
-105 -1193 0
-107 -1196 0
-108 -1197 0
-103 -1198 0
-105 -1201 0
-107 -1203 0
-108 -1204 0
-104 -1205 0
-105 -1207 0
-107 -1209 0
-108 -1210 0
-105 -1213 0
-107 -1216 0
-108 -1217 0
-105 -1227 0
-106 -1229 0
-107 -1231 0
-108 -1232 0
-103 -1254 0
-104 -1255 0
-105 -1257 0
-106 -1258 0
-107 -1259 0
-108 -1260 0
-103 -1276 0
-107 -1279 0
-108 -1280 0
-104 -1288 0
-105 -1289 0
-107 -1292 0
-108 -1293 0
-103 -1312 0
-105 -1314 0
-107 -1317 0
-108 -1318 0
-104 -1327 0
-105 -1329 0
-107 -1331 0
-108 -1332 0
-105 -1335 0
-107 -1337 0
-108 -1338 0
-105 -1347 0
-106 -1349 0
-107 -1350 0
-108 -1351 0
-102 -1360 0
-104 -1361 0
-105 -1362 0
-107 -1365 0
-108 -1366 0
-103 -1367 0
-104 -1368 0
-105 -1370 0
-107 -1372 0
-108 -1373 0
-102 -1380 0
-105 -1381 0
-106 -1382 0
-107 -1384 0
-108 -1385 0
-103 -1386 0
-106 -1389 0
-107 -1390 0
-108 -1391 0
-104 -1392 0
-105 -1395 0
-106 -1397 0
-107 -1399 0
-108 -1400 0
-106 -1405 0
-107 -1406 0
-108 -1407 0
-105 -1416 0
-106 -1418 0
-107 -1420 0
-108 -1421 0
-104 -1451 0
-105 -1452 0
-106 -1453 0
-107 -1455 0
-108 -1456 0
-104 -1463 0
-105 -1465 0
-106 -1466 0
-107 -1468 0
-108 -1469 0
-105 -1472 0
-106 -1474 0
-107 -1476 0
-108 -1477 0
-103 -1478 0
-105 -1479 0
-107 -1482 0
-108 -1483 0
-103 -1484 0
-104 -1485 0
-105 -1487 0
-107 -1489 0
-108 -1490 0
-103 -1492 0
-105 -1494 0
-107 -1497 0
-108 -1498 0
-103 -1506 0
-105 -1508 0
-106 -1509 0
-107 -1510 0
-108 -1511 0
-105 -1514 0
-106 -1516 0
-107 -1517 0
-108 -1518 0
-105 -1526 0
-106 -1528 0
-107 -1530 0
-108 -1531 0
-102 -1543 0
-104 -1544 0
-106 -1546 0
-107 -1547 0
-108 -1548 0
-102 -1556 0
-105 -1558 0
-106 -1560 0
-107 -1561 0
-108 -1562 0
-104 -1563 0
-105 -1566 0
-106 -1567 0
-107 -1568 0
-108 -1569 0
-104 -1628 0
-105 -1630 0
-106 -1632 0
-107 -1634 0
-108 -1635 0
-104 -1642 0
-106 -1646 0
-107 -1647 0
-108 -1648 0
-105 -1658 0
-107 -1660 0
-108 -1661 0
-102 -1670 0
-103 -1671 0
-106 -1673 0
-107 -1675 0
-108 -1676 0
-102 -1684 0
-104 -1685 0
-105 -1687 0
-106 -1689 0
-107 -1690 0
-108 -1691 0
-102 -1692 0
-106 -1695 0
-107 -1697 0
-108 -1698 0
-103 -1699 0
-104 -1700 0
-106 -1703 0
-107 -1705 0
-108 -1706 0
-102 -1714 0
-106 -1717 0
-107 -1718 0
-108 -1719 0
-103 -1720 0
-105 -1723 0
-106 -1725 0
-107 -1727 0
-108 -1728 0
-104 -1729 0
-106 -1733 0
-107 -1734 0
-108 -1735 0
-105 -1739 0
-106 -1740 0
-107 -1742 0
-108 -1743 0
-106 -1753 0
-107 -1755 0
-108 -1756 0
-103 -1789 0
-104 -1790 0
-106 -1792 0
-107 -1793 0
-108 -1794 0
-103 -1811 0
-105 -1812 0
-106 -1814 0
-107 -1815 0
-108 -1816 0
-104 -1825 0
-106 -1828 0
-107 -1830 0
-108 -1831 0
-105 -1834 0
-106 -1836 0
-107 -1837 0
-108 -1838 0
-103 -1845 0
-106 -1848 0
-107 -1850 0
-108 -1851 0
-104 -1858 0
-105 -1859 0
-106 -1861 0
-107 -1862 0
-108 -1863 0
-106 -1866 0
-107 -1868 0
-108 -1869 0
-105 -1880 0
-107 -1882 0
-108 -1883 0
-104 -1897 0
-107 -1901 0
-108 -1902 0
-103 -1903 0
-106 -1906 0
-107 -1908 0
-108 -1909 0
-104 -1924 0
-106 -1927 0
-107 -1929 0
-108 -1930 0
-104 -1931 0
-105 -1933 0
-107 -1935 0
-108 -1936 0
-103 -1944 0
-104 -1945 0
-106 -1946 0
-107 -1948 0
-108 -1949 0
-104 -1950 0
-105 -1952 0
-106 -1953 0
-107 -1955 0
-108 -1956 0
-104 -1958 0
-106 -1961 0
-107 -1963 0
-108 -1964 0
-104 -1972 0
-107 -1976 0
-108 -1977 0
-105 -1980 0
-107 -1982 0
-108 -1983 0
-115 -309 0
-116 -310 0
-109 -354 0
-110 -356 0
-112 -358 0
-113 -359 0
-114 -361 0
-115 -362 0
-116 -363 0
-109 -379 0
-112 -382 0
-115 -383 0
-116 -384 0
-110 -396 0
-112 -398 0
-115 -400 0
-116 -401 0
-109 -402 0
-112 -404 0
-114 -406 0
-115 -407 0
-116 -408 0
-110 -416 0
-114 -420 0
-115 -421 0
-116 -422 0
-112 -424 0
-113 -426 0
-115 -427 0
-116 -428 0
-110 -520 0
-112 -522 0
-115 -524 0
-116 -525 0
-110 -569 0
-114 -571 0
-115 -572 0
-116 -573 0
-112 -591 0
-113 -592 0
-115 -594 0
-116 -595 0
-109 -610 0
-110 -611 0
-112 -613 0
-113 -614 0
-115 -615 0
-116 -616 0
-109 -626 0
-112 -628 0
-113 -629 0
-114 -631 0
-115 -632 0
-116 -633 0
-110 -641 0
-112 -643 0
-113 -644 0
-114 -645 0
-115 -646 0
-116 -647 0
-110 -709 0
-112 -711 0
-113 -713 0
-114 -715 0
-115 -716 0
-116 -717 0
-110 -730 0
-113 -732 0
-115 -734 0
-116 -735 0
-112 -744 0
-114 -746 0
-115 -747 0
-116 -748 0
-109 -756 0
-110 -757 0
-112 -758 0
-113 -760 0
-115 -761 0
-116 -762 0
-110 -771 0
-112 -773 0
-113 -775 0
-115 -777 0
-116 -778 0
-110 -779 0
-112 -781 0
-114 -783 0
-115 -784 0
-116 -785 0
-110 -795 0
-112 -796 0
-113 -797 0
-115 -798 0
-116 -799 0
-110 -815 0
-112 -816 0
-114 -818 0
-115 -819 0
-116 -820 0
-110 -829 0
-112 -830 0
-115 -833 0
-116 -834 0
-109 -870 0
-111 -872 0
-113 -874 0
-114 -875 0
-115 -876 0
-116 -877 0
-109 -894 0
-113 -898 0
-114 -900 0
-115 -901 0
-116 -902 0
-111 -910 0
-113 -912 0
-115 -913 0
-116 -914 0
-109 -915 0
-112 -917 0
-113 -918 0
-114 -920 0
-115 -921 0
-116 -922 0
-111 -930 0
-112 -932 0
-113 -934 0
-114 -935 0
-115 -936 0
-116 -937 0
-112 -939 0
-114 -941 0
-115 -942 0
-116 -943 0
-111 -1007 0
-113 -1010 0
-115 -1012 0
-116 -1013 0
-111 -1052 0
-112 -1054 0
-113 -1055 0
-114 -1057 0
-115 -1058 0
-116 -1059 0
-112 -1076 0
-114 -1079 0
-115 -1080 0
-116 -1081 0
-109 -1096 0
-110 -1098 0
-113 -1099 0
-114 -1100 0
-115 -1101 0
-116 -1102 0
-109 -1112 0
-111 -1114 0
-112 -1115 0
-113 -1117 0
-114 -1118 0
-115 -1119 0
-116 -1120 0
-109 -1128 0
-113 -1131 0
-114 -1133 0
-115 -1134 0
-116 -1135 0
-110 -1137 0
-111 -1138 0
-113 -1141 0
-114 -1143 0
-115 -1144 0
-116 -1145 0
-109 -1146 0
-112 -1148 0
-114 -1150 0
-115 -1151 0
-116 -1152 0
-110 -1160 0
-114 -1162 0
-115 -1163 0
-116 -1164 0
-111 -1166 0
-112 -1168 0
-115 -1170 0
-116 -1171 0
-115 -1183 0
-116 -1184 0
-109 -1185 0
-114 -1188 0
-115 -1189 0
-116 -1190 0
-110 -1198 0
-112 -1200 0
-114 -1202 0
-115 -1203 0
-116 -1204 0
-111 -1205 0
-114 -1208 0
-115 -1209 0
-116 -1210 0
-112 -1220 0
-114 -1223 0
-115 -1224 0
-116 -1225 0
-113 -1228 0
-114 -1230 0
-115 -1231 0
-116 -1232 0
-110 -1247 0
-111 -1248 0
-113 -1249 0
-114 -1250 0
-115 -1251 0
-116 -1252 0
-110 -1269 0
-114 -1272 0
-115 -1273 0
-116 -1274 0
-111 -1282 0
-112 -1283 0
-115 -1285 0
-116 -1286 0
-110 -1305 0
-112 -1306 0
-114 -1308 0
-115 -1309 0
-116 -1310 0
-111 -1320 0
-114 -1323 0
-115 -1324 0
-116 -1325 0
-112 -1334 0
-114 -1336 0
-115 -1337 0
-116 -1338 0
-113 -1340 0
-114 -1342 0
-115 -1343 0
-116 -1344 0
-109 -1352 0
-111 -1353 0
-112 -1354 0
-113 -1356 0
-115 -1358 0
-116 -1359 0
-110 -1367 0
-111 -1368 0
-113 -1371 0
-115 -1372 0
-116 -1373 0
-109 -1374 0
-112 -1375 0
-113 -1376 0
-115 -1378 0
-116 -1379 0
-110 -1386 0
-113 -1388 0
-115 -1390 0
-116 -1391 0
-111 -1392 0
-112 -1394 0
-113 -1396 0
-114 -1398 0
-115 -1399 0
-116 -1400 0
-113 -1411 0
-114 -1412 0
-115 -1413 0
-116 -1414 0
-112 -1423 0
-113 -1425 0
-115 -1426 0
-116 -1427 0
-111 -1443 0
-112 -1444 0
-113 -1445 0
-114 -1447 0
-115 -1448 0
-116 -1449 0
-111 -1457 0
-113 -1459 0
-115 -1461 0
-116 -1462 0
-110 -1478 0
-113 -1480 0
-114 -1481 0
-115 -1482 0
-116 -1483 0
-110 -1484 0
-111 -1485 0
-112 -1486 0
-113 -1488 0
-115 -1489 0
-116 -1490 0
-110 -1500 0
-113 -1502 0
-115 -1504 0
-116 -1505 0
-110 -1506 0
-112 -1507 0
-115 -1510 0
-116 -1511 0
-112 -1520 0
-114 -1522 0
-115 -1523 0
-116 -1524 0
-109 -1533 0
-111 -1534 0
-112 -1536 0
-113 -1538 0
-114 -1540 0
-115 -1541 0
-116 -1542 0
-109 -1549 0
-112 -1551 0
-114 -1553 0
-115 -1554 0
-116 -1555 0
-111 -1563 0
-112 -1565 0
-115 -1568 0
-116 -1569 0
-111 -1621 0
-112 -1623 0
-115 -1625 0
-116 -1626 0
-111 -1636 0
-114 -1639 0
-115 -1640 0
-116 -1641 0
-113 -1651 0
-114 -1653 0
-115 -1654 0
-116 -1655 0
-109 -1662 0
-110 -1663 0
-112 -1664 0
-114 -1667 0
-115 -1668 0
-116 -1669 0
-109 -1677 0
-111 -1678 0
-112 -1679 0
-114 -1681 0
-115 -1682 0
-116 -1683 0
-109 -1692 0
-112 -1694 0
-114 -1696 0
-115 -1697 0
-116 -1698 0
-110 -1699 0
-111 -1700 0
-112 -1702 0
-114 -1704 0
-115 -1705 0
-116 -1706 0
-109 -1707 0
-112 -1708 0
-113 -1710 0
-114 -1711 0
-115 -1712 0
-116 -1713 0
-110 -1720 0
-112 -1722 0
-113 -1724 0
-114 -1726 0
-115 -1727 0
-116 -1728 0
-111 -1729 0
-112 -1731 0
-113 -1732 0
-115 -1734 0
-116 -1735 0
-112 -1746 0
-113 -1747 0
-115 -1749 0
-116 -1750 0
-113 -1759 0
-114 -1761 0
-115 -1762 0
-116 -1763 0
-110 -1780 0
-111 -1781 0
-112 -1782 0
-114 -1785 0
-115 -1786 0
-116 -1787 0
-110 -1803 0
-112 -1804 0
-113 -1806 0
-114 -1807 0
-115 -1808 0
-116 -1809 0
-111 -1818 0
-112 -1819 0
-113 -1821 0
-115 -1822 0
-116 -1823 0
-112 -1833 0
-113 -1835 0
-115 -1837 0
-116 -1838 0
-110 -1839 0
-113 -1841 0
-114 -1842 0
-115 -1843 0
-116 -1844 0
-111 -1852 0
-112 -1853 0
-113 -1854 0
-114 -1855 0
-115 -1856 0
-116 -1857 0
-113 -1865 0
-114 -1867 0
-115 -1868 0
-116 -1869 0
-112 -1870 0
-113 -1872 0
-114 -1874 0
-115 -1875 0
-116 -1876 0
-112 -1885 0
-114 -1887 0
-115 -1888 0
-116 -1889 0
-111 -1890 0
-112 -1891 0
-114 -1894 0
-115 -1895 0
-116 -1896 0
-110 -1910 0
-112 -1911 0
-115 -1914 0
-116 -1915 0
-112 -1917 0
-113 -1919 0
-114 -1921 0
-115 -1922 0
-116 -1923 0
-111 -1924 0
-113 -1926 0
-114 -1928 0
-115 -1929 0
-116 -1930 0
-111 -1931 0
-114 -1934 0
-115 -1935 0
-116 -1936 0
-110 -1944 0
-111 -1945 0
-114 -1947 0
-115 -1948 0
-116 -1949 0
-111 -1950 0
-112 -1951 0
-114 -1954 0
-115 -1955 0
-116 -1956 0
-111 -1966 0
-114 -1969 0
-115 -1970 0
-116 -1971 0
-111 -1972 0
-112 -1973 0
-113 -1974 0
-114 -1975 0
-115 -1976 0
-116 -1977 0
-113 -1985 0
-114 -1987 0
-115 -1988 0
-116 -1989 0
-112 -1991 0
-113 -1993 0
-114 -1995 0
-115 -1996 0
-116 -1997 0
-117 -338 0
-121 -340 0
-122 -341 0
-123 -343 0
-124 -344 0
-117 -379 0
-120 -381 0
-121 -382 0
-123 -383 0
-124 -384 0
-117 -385 0
-120 -387 0
-121 -388 0
-122 -389 0
-123 -393 0
-124 -394 0
-117 -402 0
-120 -403 0
-121 -404 0
-122 -405 0
-123 -407 0
-124 -408 0
-117 -409 0
-120 -410 0
-122 -411 0
-123 -414 0
-124 -415 0
-120 -423 0
-121 -424 0
-122 -425 0
-123 -427 0
-124 -428 0
-117 -503 0
-121 -505 0
-123 -508 0
-124 -509 0
-117 -555 0
-122 -557 0
-123 -559 0
-124 -560 0
-120 -590 0
-121 -591 0
-123 -594 0
-124 -595 0
-120 -597 0
-122 -598 0
-123 -601 0
-124 -602 0
-117 -603 0
-121 -604 0
-122 -605 0
-123 -608 0
-124 -609 0
-117 -626 0
-120 -627 0
-121 -628 0
-123 -632 0
-124 -633 0
-117 -634 0
-120 -635 0
-121 -636 0
-122 -637 0
-123 -639 0
-124 -640 0
-117 -693 0
-121 -695 0
-123 -698 0
-124 -699 0
-117 -724 0
-122 -725 0
-123 -728 0
-124 -729 0
-120 -743 0
-121 -744 0
-123 -747 0
-124 -748 0
-120 -749 0
-122 -750 0
-123 -754 0
-124 -755 0
-117 -756 0
-118 -757 0
-121 -758 0
-122 -759 0
-123 -761 0
-124 -762 0
-117 -763 0
-118 -764 0
-121 -765 0
-122 -766 0
-123 -769 0
-124 -770 0
-118 -779 0
-120 -780 0
-121 -781 0
-122 -782 0
-123 -784 0
-124 -785 0
-118 -815 0
-121 -816 0
-123 -819 0
-124 -820 0
-118 -822 0
-121 -823 0
-122 -824 0
-123 -827 0
-124 -828 0
-118 -829 0
-121 -830 0
-122 -831 0
-123 -833 0
-124 -834 0
-118 -835 0
-122 -836 0
-123 -839 0
-124 -840 0
-117 -1112 0
-119 -1114 0
-121 -1115 0
-122 -1116 0
-123 -1119 0
-124 -1120 0
-117 -1121 0
-119 -1123 0
-122 -1124 0
-123 -1126 0
-124 -1127 0
-117 -1128 0
-122 -1130 0
-123 -1134 0
-124 -1135 0
-117 -1146 0
-121 -1148 0
-123 -1151 0
-124 -1152 0
-117 -1153 0
-122 -1155 0
-123 -1157 0
-124 -1158 0
-119 -1166 0
-120 -1167 0
-121 -1168 0
-122 -1169 0
-123 -1170 0
-124 -1171 0
-120 -1173 0
-121 -1174 0
-123 -1177 0
-124 -1178 0
-120 -1180 0
-122 -1181 0
-123 -1183 0
-124 -1184 0
-117 -1185 0
-122 -1186 0
-123 -1189 0
-124 -1190 0
-117 -1191 0
-121 -1192 0
-122 -1193 0
-123 -1196 0
-124 -1197 0
-119 -1205 0
-120 -1206 0
-122 -1207 0
-123 -1209 0
-124 -1210 0
-120 -1212 0
-122 -1213 0
-123 -1216 0
-124 -1217 0
-120 -1219 0
-121 -1220 0
-122 -1221 0
-123 -1224 0
-124 -1225 0
-120 -1226 0
-122 -1227 0
-123 -1231 0
-124 -1232 0
-119 -1282 0
-121 -1283 0
-123 -1285 0
-124 -1286 0
-119 -1288 0
-122 -1289 0
-123 -1292 0
-124 -1293 0
-119 -1320 0
-122 -1321 0
-123 -1324 0
-124 -1325 0
-119 -1327 0
-121 -1328 0
-122 -1329 0
-123 -1331 0
-124 -1332 0
-121 -1334 0
-122 -1335 0
-123 -1337 0
-124 -1338 0
-123 -1343 0
-124 -1344 0
-121 -1346 0
-122 -1347 0
-123 -1350 0
-124 -1351 0
-117 -1352 0
-119 -1353 0
-121 -1354 0
-122 -1355 0
-123 -1358 0
-124 -1359 0
-117 -1360 0
-119 -1361 0
-122 -1362 0
-123 -1365 0
-124 -1366 0
-117 -1374 0
-121 -1375 0
-123 -1378 0
-124 -1379 0
-117 -1380 0
-122 -1381 0
-123 -1384 0
-124 -1385 0
-119 -1392 0
-120 -1393 0
-121 -1394 0
-122 -1395 0
-123 -1399 0
-124 -1400 0
-120 -1402 0
-121 -1403 0
-123 -1406 0
-124 -1407 0
-120 -1409 0
-122 -1410 0
-123 -1413 0
-124 -1414 0
-120 -1415 0
-122 -1416 0
-123 -1420 0
-124 -1421 0
-120 -1422 0
-121 -1423 0
-122 -1424 0
-123 -1426 0
-124 -1427 0
-119 -1443 0
-121 -1444 0
-123 -1448 0
-124 -1449 0
-119 -1451 0
-122 -1452 0
-123 -1455 0
-124 -1456 0
-119 -1457 0
-122 -1458 0
-123 -1461 0
-124 -1462 0
-119 -1463 0
-121 -1464 0
-122 -1465 0
-123 -1468 0
-124 -1469 0
-121 -1471 0
-122 -1472 0
-123 -1476 0
-124 -1477 0
-118 -1484 0
-119 -1485 0
-121 -1486 0
-122 -1487 0
-123 -1489 0
-124 -1490 0
-118 -1492 0
-121 -1493 0
-122 -1494 0
-123 -1497 0
-124 -1498 0
-118 -1500 0
-122 -1501 0
-123 -1504 0
-124 -1505 0
-118 -1506 0
-121 -1507 0
-122 -1508 0
-123 -1510 0
-124 -1511 0
-117 -1677 0
-119 -1678 0
-121 -1679 0
-123 -1682 0
-124 -1683 0
-117 -1684 0
-119 -1685 0
-121 -1686 0
-122 -1687 0
-123 -1690 0
-124 -1691 0
-117 -1692 0
-121 -1694 0
-123 -1697 0
-124 -1698 0
-117 -1707 0
-121 -1708 0
-122 -1709 0
-123 -1712 0
-124 -1713 0
-117 -1714 0
-121 -1715 0
-123 -1718 0
-124 -1719 0
-119 -1729 0
-120 -1730 0
-121 -1731 0
-123 -1734 0
-124 -1735 0
-120 -1737 0
-121 -1738 0
-122 -1739 0
-123 -1742 0
-124 -1743 0
-120 -1745 0
-121 -1746 0
-123 -1749 0
-124 -1750 0
-120 -1751 0
-121 -1752 0
-123 -1755 0
-124 -1756 0
-120 -1757 0
-122 -1758 0
-123 -1762 0
-124 -1763 0
-119 -1818 0
-121 -1819 0
-122 -1820 0
-123 -1822 0
-124 -1823 0
-119 -1825 0
-121 -1826 0
-123 -1830 0
-124 -1831 0
-121 -1833 0
-122 -1834 0
-123 -1837 0
-124 -1838 0
-119 -1852 0
-121 -1853 0
-123 -1856 0
-124 -1857 0
-119 -1858 0
-122 -1859 0
-123 -1862 0
-124 -1863 0
-123 -1868 0
-124 -1869 0
-121 -1870 0
-122 -1871 0
-123 -1875 0
-124 -1876 0
-120 -1878 0
-121 -1879 0
-122 -1880 0
-123 -1882 0
-124 -1883 0
-120 -1884 0
-121 -1885 0
-123 -1888 0
-124 -1889 0
-119 -1890 0
-121 -1891 0
-122 -1892 0
-123 -1895 0
-124 -1896 0
-119 -1897 0
-121 -1898 0
-123 -1901 0
-124 -1902 0
-118 -1903 0
-121 -1904 0
-123 -1908 0
-124 -1909 0
-118 -1910 0
-121 -1911 0
-122 -1912 0
-123 -1914 0
-124 -1915 0
-119 -1950 0
-121 -1951 0
-122 -1952 0
-123 -1955 0
-124 -1956 0
-119 -1958 0
-121 -1959 0
-123 -1963 0
-124 -1964 0
-119 -1966 0
-122 -1967 0
-123 -1970 0
-124 -1971 0
-119 -1972 0
-121 -1973 0
-123 -1976 0
-124 -1977 0
-121 -1979 0
-122 -1980 0
-123 -1982 0
-124 -1983 0
-123 -1988 0
-124 -1989 0
-121 -1991 0
-122 -1992 0
-123 -1996 0
-124 -1997 0
-129 -296 0
-130 -297 0
-125 -331 0
-128 -335 0
-129 -336 0
-130 -337 0
-125 -372 0
-129 -377 0
-130 -378 0
-126 -395 0
-129 -400 0
-130 -401 0
-128 -420 0
-129 -421 0
-130 -422 0
-129 -427 0
-130 -428 0
-126 -496 0
-129 -501 0
-130 -502 0
-128 -552 0
-129 -553 0
-130 -554 0
-129 -587 0
-130 -588 0
-128 -645 0
-129 -646 0
-130 -647 0
-128 -690 0
-129 -691 0
-130 -692 0
-129 -777 0
-130 -778 0
-128 -783 0
-129 -784 0
-130 -785 0
-128 -811 0
-129 -812 0
-130 -813 0
-125 -854 0
-127 -856 0
-128 -860 0
-129 -861 0
-130 -862 0
-125 -888 0
-127 -889 0
-129 -892 0
-130 -893 0
-125 -894 0
-126 -895 0
-128 -900 0
-129 -901 0
-130 -902 0
-125 -903 0
-126 -904 0
-129 -907 0
-130 -908 0
-126 -909 0
-127 -910 0
-129 -913 0
-130 -914 0
-125 -915 0
-128 -920 0
-129 -921 0
-130 -922 0
-125 -923 0
-128 -927 0
-129 -928 0
-130 -929 0
-127 -930 0
-128 -935 0
-129 -936 0
-130 -937 0
-126 -990 0
-127 -992 0
-129 -997 0
-130 -998 0
-127 -1037 0
-128 -1041 0
-129 -1042 0
-130 -1043 0
-127 -1067 0
-129 -1072 0
-130 -1073 0
-126 -1074 0
-128 -1079 0
-129 -1080 0
-130 -1081 0
-126 -1082 0
-129 -1087 0
-130 -1088 0
-125 -1089 0
-127 -1091 0
-128 -1093 0
-129 -1094 0
-130 -1095 0
-125 -1096 0
-126 -1097 0
-128 -1100 0
-129 -1101 0
-130 -1102 0
-125 -1103 0
-126 -1104 0
-128 -1109 0
-129 -1110 0
-130 -1111 0
-126 -1136 0
-127 -1138 0
-128 -1143 0
-129 -1144 0
-130 -1145 0
-125 -1146 0
-126 -1147 0
-128 -1150 0
-129 -1151 0
-130 -1152 0
-125 -1153 0
-126 -1154 0
-129 -1157 0
-130 -1158 0
-126 -1165 0
-127 -1166 0
-129 -1170 0
-130 -1171 0
-126 -1172 0
-128 -1176 0
-129 -1177 0
-130 -1178 0
-126 -1179 0
-129 -1183 0
-130 -1184 0
-125 -1185 0
-128 -1188 0
-129 -1189 0
-130 -1190 0
-125 -1191 0
-128 -1195 0
-129 -1196 0
-130 -1197 0
-127 -1205 0
-128 -1208 0
-129 -1209 0
-130 -1210 0
-126 -1211 0
-128 -1215 0
-129 -1216 0
-130 -1217 0
-126 -1218 0
-128 -1223 0
-129 -1224 0
-130 -1225 0
-126 -1233 0
-127 -1235 0
-128 -1237 0
-129 -1238 0
-130 -1239 0
-126 -1261 0
-127 -1263 0
-129 -1266 0
-130 -1267 0
-126 -1268 0
-128 -1272 0
-129 -1273 0
-130 -1274 0
-126 -1275 0
-129 -1279 0
-130 -1280 0
-127 -1296 0
-128 -1301 0
-129 -1302 0
-130 -1303 0
-126 -1304 0
-128 -1308 0
-129 -1309 0
-130 -1310 0
-126 -1311 0
-128 -1316 0
-129 -1317 0
-130 -1318 0
-126 -1339 0
-128 -1342 0
-129 -1343 0
-130 -1344 0
-126 -1345 0
-129 -1350 0
-130 -1351 0
-127 -1368 0
-129 -1372 0
-130 -1373 0
-125 -1374 0
-129 -1378 0
-130 -1379 0
-125 -1380 0
-128 -1383 0
-129 -1384 0
-130 -1385 0
-127 -1392 0
-128 -1398 0
-129 -1399 0
-130 -1400 0
-126 -1401 0
-129 -1406 0
-130 -1407 0
-126 -1408 0
-128 -1412 0
-129 -1413 0
-130 -1414 0
-128 -1419 0
-129 -1420 0
-130 -1421 0
-129 -1426 0
-130 -1427 0
-127 -1437 0
-128 -1439 0
-129 -1440 0
-130 -1441 0
-128 -1475 0
-129 -1476 0
-130 -1477 0
-127 -1485 0
-129 -1489 0
-130 -1490 0
-126 -1491 0
-128 -1496 0
-129 -1497 0
-130 -1498 0
-126 -1499 0
-129 -1504 0
-130 -1505 0
-126 -1512 0
-129 -1517 0
-130 -1518 0
-126 -1519 0
-128 -1522 0
-129 -1523 0
-130 -1524 0
-128 -1529 0
-129 -1530 0
-130 -1531 0
-125 -1549 0
-128 -1553 0
-129 -1554 0
-130 -1555 0
-125 -1556 0
-129 -1561 0
-130 -1562 0
-127 -1563 0
-129 -1568 0
-130 -1569 0
-127 -1606 0
-129 -1610 0
-130 -1611 0
-128 -1653 0
-129 -1654 0
-130 -1655 0
-129 -1660 0
-130 -1661 0
-125 -1662 0
-128 -1667 0
-129 -1668 0
-130 -1669 0
-125 -1670 0
-128 -1674 0
-129 -1675 0
-130 -1676 0
-127 -1700 0
-128 -1704 0
-129 -1705 0
-130 -1706 0
-125 -1707 0
-128 -1711 0
-129 -1712 0
-130 -1713 0
-125 -1714 0
-129 -1718 0
-130 -1719 0
-127 -1729 0
-129 -1734 0
-130 -1735 0
-126 -1736 0
-128 -1741 0
-129 -1742 0
-130 -1743 0
-126 -1744 0
-129 -1749 0
-130 -1750 0
-128 -1754 0
-129 -1755 0
-130 -1756 0
-128 -1761 0
-129 -1762 0
-130 -1763 0
-127 -1765 0
-128 -1769 0
-129 -1770 0
-130 -1771 0
-127 -1796 0
-129 -1800 0
-130 -1801 0
-126 -1802 0
-128 -1807 0
-129 -1808 0
-130 -1809 0
-126 -1810 0
-129 -1815 0
-130 -1816 0
-128 -1842 0
-129 -1843 0
-130 -1844 0
-128 -1849 0
-129 -1850 0
-130 -1851 0
-128 -1874 0
-129 -1875 0
-130 -1876 0
-129 -1882 0
-130 -1883 0
-128 -1887 0
-129 -1888 0
-130 -1889 0
-128 -1907 0
-129 -1908 0
-130 -1909 0
-129 -1914 0
-130 -1915 0
-128 -1921 0
-129 -1922 0
-130 -1923 0
-127 -1924 0
-128 -1928 0
-129 -1929 0
-130 -1930 0
-127 -1938 0
-129 -1942 0
-130 -1943 0
-127 -1950 0
-128 -1954 0
-129 -1955 0
-130 -1956 0
-126 -1957 0
-127 -1958 0
-128 -1962 0
-129 -1963 0
-130 -1964 0
-126 -1965 0
-127 -1966 0
-128 -1969 0
-129 -1970 0
-130 -1971 0
-131 -894 0
-134 -896 0
-135 -900 0
-136 -901 0
-137 -902 0
-131 -903 0
-134 -905 0
-136 -907 0
-137 -908 0
-131 -915 0
-134 -916 0
-135 -920 0
-136 -921 0
-137 -922 0
-131 -923 0
-134 -924 0
-135 -927 0
-136 -928 0
-137 -929 0
-134 -938 0
-135 -941 0
-136 -942 0
-137 -943 0
-134 -1075 0
-135 -1079 0
-136 -1080 0
-137 -1081 0
-134 -1083 0
-136 -1087 0
-137 -1088 0
-131 -1096 0
-132 -1098 0
-135 -1100 0
-136 -1101 0
-137 -1102 0
-131 -1103 0
-132 -1105 0
-135 -1109 0
-136 -1110 0
-137 -1111 0
-131 -1128 0
-135 -1133 0
-136 -1134 0
-137 -1135 0
-131 -1146 0
-135 -1150 0
-136 -1151 0
-137 -1152 0
-131 -1153 0
-136 -1157 0
-137 -1158 0
-132 -1160 0
-134 -1161 0
-135 -1162 0
-136 -1163 0
-137 -1164 0
-134 -1173 0
-135 -1176 0
-136 -1177 0
-137 -1178 0
-134 -1180 0
-136 -1183 0
-137 -1184 0
-131 -1185 0
-135 -1188 0
-136 -1189 0
-137 -1190 0
-131 -1191 0
-135 -1195 0
-136 -1196 0
-137 -1197 0
-132 -1198 0
-134 -1199 0
-135 -1202 0
-136 -1203 0
-137 -1204 0
-134 -1212 0
-135 -1215 0
-136 -1216 0
-137 -1217 0
-134 -1219 0
-135 -1223 0
-136 -1224 0
-137 -1225 0
-134 -1226 0
-135 -1230 0
-136 -1231 0
-137 -1232 0
-132 -1269 0
-135 -1272 0
-136 -1273 0
-137 -1274 0
-132 -1276 0
-136 -1279 0
-137 -1280 0
-132 -1305 0
-135 -1308 0
-136 -1309 0
-137 -1310 0
-132 -1312 0
-135 -1316 0
-136 -1317 0
-137 -1318 0
-135 -1336 0
-136 -1337 0
-137 -1338 0
-135 -1342 0
-136 -1343 0
-137 -1344 0
-136 -1350 0
-137 -1351 0
-131 -1374 0
-136 -1378 0
-137 -1379 0
-131 -1380 0
-135 -1383 0
-136 -1384 0
-137 -1385 0
-132 -1386 0
-134 -1387 0
-136 -1390 0
-137 -1391 0
-134 -1402 0
-136 -1406 0
-137 -1407 0
-134 -1409 0
-135 -1412 0
-136 -1413 0
-137 -1414 0
-134 -1415 0
-135 -1419 0
-136 -1420 0
-137 -1421 0
-134 -1422 0
-136 -1426 0
-137 -1427 0
-135 -1475 0
-136 -1476 0
-137 -1477 0
-132 -1478 0
-135 -1481 0
-136 -1482 0
-137 -1483 0
-132 -1492 0
-135 -1496 0
-136 -1497 0
-137 -1498 0
-132 -1500 0
-136 -1504 0
-137 -1505 0
-132 -1506 0
-136 -1510 0
-137 -1511 0
-136 -1517 0
-137 -1518 0
-135 -1522 0
-136 -1523 0
-137 -1524 0
-135 -1529 0
-136 -1530 0
-137 -1531 0
-131 -1549 0
-134 -1550 0
-135 -1553 0
-136 -1554 0
-137 -1555 0
-131 -1556 0
-134 -1557 0
-136 -1561 0
-137 -1562 0
-134 -1649 0
-135 -1653 0
-136 -1654 0
-137 -1655 0
-134 -1656 0
-136 -1660 0
-137 -1661 0
-131 -1662 0
-132 -1663 0
-135 -1667 0
-136 -1668 0
-137 -1669 0
-131 -1670 0
-132 -1671 0
-135 -1674 0
-136 -1675 0
-137 -1676 0
-131 -1692 0
-135 -1696 0
-136 -1697 0
-137 -1698 0
-131 -1707 0
-135 -1711 0
-136 -1712 0
-137 -1713 0
-131 -1714 0
-136 -1718 0
-137 -1719 0
-132 -1720 0
-134 -1721 0
-135 -1726 0
-136 -1727 0
-137 -1728 0
-134 -1737 0
-135 -1741 0
-136 -1742 0
-137 -1743 0
-134 -1745 0
-136 -1749 0
-137 -1750 0
-134 -1751 0
-135 -1754 0
-136 -1755 0
-137 -1756 0
-134 -1757 0
-135 -1761 0
-136 -1762 0
-137 -1763 0
-132 -1803 0
-135 -1807 0
-136 -1808 0
-137 -1809 0
-132 -1811 0
-136 -1815 0
-137 -1816 0
-136 -1837 0
-137 -1838 0
-132 -1839 0
-135 -1842 0
-136 -1843 0
-137 -1844 0
-132 -1845 0
-135 -1849 0
-136 -1850 0
-137 -1851 0
-135 -1867 0
-136 -1868 0
-137 -1869 0
-135 -1874 0
-136 -1875 0
-137 -1876 0
-134 -1878 0
-136 -1882 0
-137 -1883 0
-134 -1884 0
-135 -1887 0
-136 -1888 0
-137 -1889 0
-132 -1903 0
-135 -1907 0
-136 -1908 0
-137 -1909 0
-132 -1910 0
-136 -1914 0
-137 -1915 0
-135 -1921 0
-136 -1922 0
-137 -1923 0
-133 -1931 0
-134 -1932 0
-135 -1934 0
-136 -1935 0
-137 -1936 0
-132 -1944 0
-133 -1945 0
-135 -1947 0
-136 -1948 0
-137 -1949 0
-133 -1958 0
-135 -1962 0
-136 -1963 0
-137 -1964 0
-133 -1966 0
-135 -1969 0
-136 -1970 0
-137 -1971 0
-133 -1972 0
-135 -1975 0
-136 -1976 0
-137 -1977 0
-138 -282 0
-142 -283 0
-144 -285 0
-145 -288 0
-146 -289 0
-138 -324 0
-140 -325 0
-143 -326 0
-144 -327 0
-145 -329 0
-146 -330 0
-138 -372 0
-140 -373 0
-142 -374 0
-144 -376 0
-145 -377 0
-146 -378 0
-138 -385 0
-139 -386 0
-142 -387 0
-143 -389 0
-144 -390 0
-145 -393 0
-146 -394 0
-138 -409 0
-142 -410 0
-143 -411 0
-144 -412 0
-145 -414 0
-146 -415 0
-142 -423 0
-143 -425 0
-144 -426 0
-145 -427 0
-146 -428 0
-138 -489 0
-139 -490 0
-140 -491 0
-144 -492 0
-145 -494 0
-146 -495 0
-138 -541 0
-140 -542 0
-143 -544 0
-144 -545 0
-145 -546 0
-146 -547 0
-140 -583 0
-142 -584 0
-144 -585 0
-145 -587 0
-146 -588 0
-139 -596 0
-142 -597 0
-143 -598 0
-144 -599 0
-145 -601 0
-146 -602 0
-138 -634 0
-142 -635 0
-143 -637 0
-145 -639 0
-146 -640 0
-138 -679 0
-140 -680 0
-144 -681 0
-145 -684 0
-146 -685 0
-142 -749 0
-143 -750 0
-144 -751 0
-145 -754 0
-146 -755 0
-138 -763 0
-140 -764 0
-143 -766 0
-145 -769 0
-146 -770 0
-140 -779 0
-142 -780 0
-143 -782 0
-145 -784 0
-146 -785 0
-140 -807 0
-144 -809 0
-145 -812 0
-146 -813 0
-139 -821 0
-140 -822 0
-143 -824 0
-144 -825 0
-145 -827 0
-146 -828 0
-140 -835 0
-143 -836 0
-144 -837 0
-145 -839 0
-146 -840 0
-138 -848 0
-141 -849 0
-143 -851 0
-145 -852 0
-146 -853 0
-138 -888 0
-141 -889 0
-142 -890 0
-145 -892 0
-146 -893 0
-138 -903 0
-139 -904 0
-142 -905 0
-145 -907 0
-146 -908 0
-138 -923 0
-142 -924 0
-143 -926 0
-145 -928 0
-146 -929 0
-142 -938 0
-145 -942 0
-146 -943 0
-138 -981 0
-139 -982 0
-141 -983 0
-144 -985 0
-145 -988 0
-146 -989 0
-138 -1028 0
-141 -1029 0
-143 -1031 0
-144 -1032 0
-145 -1034 0
-146 -1035 0
-141 -1067 0
-142 -1068 0
-144 -1070 0
-145 -1072 0
-146 -1073 0
-139 -1082 0
-142 -1083 0
-144 -1085 0
-145 -1087 0
-146 -1088 0
-138 -1089 0
-140 -1090 0
-141 -1091 0
-143 -1092 0
-145 -1094 0
-146 -1095 0
-138 -1103 0
-139 -1104 0
-140 -1105 0
-143 -1107 0
-145 -1110 0
-146 -1111 0
-138 -1121 0
-139 -1122 0
-141 -1123 0
-143 -1124 0
-145 -1126 0
-146 -1127 0
-138 -1146 0
-139 -1147 0
-145 -1151 0
-146 -1152 0
-139 -1159 0
-140 -1160 0
-142 -1161 0
-145 -1163 0
-146 -1164 0
-139 -1165 0
-141 -1166 0
-142 -1167 0
-143 -1169 0
-145 -1170 0
-146 -1171 0
-139 -1179 0
-142 -1180 0
-143 -1181 0
-145 -1183 0
-146 -1184 0
-138 -1185 0
-143 -1186 0
-145 -1189 0
-146 -1190 0
-140 -1198 0
-142 -1199 0
-143 -1201 0
-145 -1203 0
-146 -1204 0
-141 -1205 0
-142 -1206 0
-143 -1207 0
-145 -1209 0
-146 -1210 0
-139 -1218 0
-142 -1219 0
-143 -1221 0
-145 -1224 0
-146 -1225 0
-139 -1261 0
-140 -1262 0
-141 -1263 0
-144 -1264 0
-145 -1266 0
-146 -1267 0
-139 -1275 0
-140 -1276 0
-144 -1278 0
-145 -1279 0
-146 -1280 0
-139 -1287 0
-141 -1288 0
-143 -1289 0
-144 -1290 0
-145 -1292 0
-146 -1293 0
-140 -1295 0
-141 -1296 0
-143 -1298 0
-144 -1299 0
-145 -1302 0
-146 -1303 0
-139 -1311 0
-140 -1312 0
-143 -1314 0
-144 -1315 0
-145 -1317 0
-146 -1318 0
-139 -1326 0
-141 -1327 0
-143 -1329 0
-144 -1330 0
-145 -1331 0
-146 -1332 0
-139 -1339 0
-144 -1340 0
-145 -1343 0
-146 -1344 0
-138 -1360 0
-141 -1361 0
-143 -1362 0
-144 -1363 0
-145 -1365 0
-146 -1366 0
-138 -1374 0
-144 -1376 0
-145 -1378 0
-146 -1379 0
-140 -1386 0
-142 -1387 0
-144 -1388 0
-145 -1390 0
-146 -1391 0
-141 -1392 0
-142 -1393 0
-143 -1395 0
-144 -1396 0
-145 -1399 0
-146 -1400 0
-139 -1408 0
-142 -1409 0
-143 -1410 0
-144 -1411 0
-145 -1413 0
-146 -1414 0
-142 -1422 0
-143 -1424 0
-144 -1425 0
-145 -1426 0
-146 -1427 0
-140 -1436 0
-141 -1437 0
-145 -1440 0
-146 -1441 0
-139 -1450 0
-141 -1451 0
-143 -1452 0
-145 -1455 0
-146 -1456 0
-141 -1463 0
-143 -1465 0
-145 -1468 0
-146 -1469 0
-140 -1478 0
-143 -1479 0
-144 -1480 0
-145 -1482 0
-146 -1483 0
-140 -1484 0
-141 -1485 0
-143 -1487 0
-144 -1488 0
-145 -1489 0
-146 -1490 0
-139 -1499 0
-140 -1500 0
-143 -1501 0
-144 -1502 0
-145 -1504 0
-146 -1505 0
-139 -1512 0
-143 -1514 0
-144 -1515 0
-145 -1517 0
-146 -1518 0
-143 -1526 0
-144 -1527 0
-145 -1530 0
-146 -1531 0
-138 -1556 0
-142 -1557 0
-143 -1558 0
-144 -1559 0
-145 -1561 0
-146 -1562 0
-138 -1598 0
-141 -1599 0
-143 -1600 0
-144 -1601 0
-145 -1603 0
-146 -1604 0
-142 -1656 0
-143 -1658 0
-144 -1659 0
-145 -1660 0
-146 -1661 0
-138 -1670 0
-140 -1671 0
-144 -1672 0
-145 -1675 0
-146 -1676 0
-138 -1684 0
-141 -1685 0
-143 -1687 0
-144 -1688 0
-145 -1690 0
-146 -1691 0
-138 -1707 0
-143 -1709 0
-144 -1710 0
-145 -1712 0
-146 -1713 0
-140 -1720 0
-142 -1721 0
-143 -1723 0
-144 -1724 0
-145 -1727 0
-146 -1728 0
-141 -1729 0
-142 -1730 0
-144 -1732 0
-145 -1734 0
-146 -1735 0
-139 -1744 0
-142 -1745 0
-144 -1747 0
-145 -1749 0
-146 -1750 0
-142 -1757 0
-143 -1758 0
-144 -1759 0
-145 -1762 0
-146 -1763 0
-140 -1795 0
-141 -1796 0
-143 -1798 0
-144 -1799 0
-145 -1800 0
-146 -1801 0
-139 -1810 0
-140 -1811 0
-143 -1812 0
-144 -1813 0
-145 -1815 0
-146 -1816 0
-139 -1824 0
-141 -1825 0
-144 -1827 0
-145 -1830 0
-146 -1831 0
-140 -1845 0
-144 -1847 0
-145 -1850 0
-146 -1851 0
-141 -1858 0
-143 -1859 0
-144 -1860 0
-145 -1862 0
-146 -1863 0
-143 -1871 0
-144 -1872 0
-145 -1875 0
-146 -1876 0
-142 -1884 0
-145 -1888 0
-146 -1889 0
-141 -1897 0
-144 -1899 0
-145 -1901 0
-146 -1902 0
-140 -1910 0
-143 -1912 0
-145 -1914 0
-146 -1915 0
-141 -1931 0
-142 -1932 0
-143 -1933 0
-145 -1935 0
-146 -1936 0
-141 -1938 0
-143 -1939 0
-144 -1940 0
-145 -1942 0
-146 -1943 0
-140 -1944 0
-141 -1945 0
-145 -1948 0
-146 -1949 0
-141 -1950 0
-143 -1952 0
-145 -1955 0
-146 -1956 0
-139 -1965 0
-141 -1966 0
-143 -1967 0
-145 -1970 0
-146 -1971 0
-139 -1978 0
-143 -1980 0
-145 -1982 0
-146 -1983 0
-147 -275 0
-151 -276 0
-153 -279 0
-155 -280 0
-156 -281 0
-147 -318 0
-149 -319 0
-152 -320 0
-154 -321 0
-155 -322 0
-156 -323 0
-147 -372 0
-149 -373 0
-151 -374 0
-152 -375 0
-155 -377 0
-156 -378 0
-147 -379 0
-148 -380 0
-151 -381 0
-152 -382 0
-155 -383 0
-156 -384 0
-147 -402 0
-151 -403 0
-152 -404 0
-154 -406 0
-155 -407 0
-156 -408 0
-151 -423 0
-152 -424 0
-155 -427 0
-156 -428 0
-147 -480 0
-148 -481 0
-149 -482 0
-152 -483 0
-153 -486 0
-155 -487 0
-156 -488 0
-147 -534 0
-149 -535 0
-153 -537 0
-154 -538 0
-155 -539 0
-156 -540 0
-149 -583 0
-151 -584 0
-153 -586 0
-155 -587 0
-156 -588 0
-148 -589 0
-151 -590 0
-152 -591 0
-153 -593 0
-155 -594 0
-156 -595 0
-147 -626 0
-151 -627 0
-152 -628 0
-153 -630 0
-154 -631 0
-155 -632 0
-156 -633 0
-147 -671 0
-149 -672 0
-152 -673 0
-153 -675 0
-154 -676 0
-155 -677 0
-156 -678 0
-151 -743 0
-152 -744 0
-153 -745 0
-154 -746 0
-155 -747 0
-156 -748 0
-147 -756 0
-149 -757 0
-152 -758 0
-155 -761 0
-156 -762 0
-149 -779 0
-151 -780 0
-152 -781 0
-154 -783 0
-155 -784 0
-156 -785 0
-149 -807 0
-152 -808 0
-153 -810 0
-154 -811 0
-155 -812 0
-156 -813 0
-148 -814 0
-149 -815 0
-152 -816 0
-153 -817 0
-154 -818 0
-155 -819 0
-156 -820 0
-149 -829 0
-152 -830 0
-153 -832 0
-155 -833 0
-156 -834 0
-147 -841 0
-150 -842 0
-153 -844 0
-154 -845 0
-155 -846 0
-156 -847 0
-147 -888 0
-150 -889 0
-151 -890 0
-153 -891 0
-155 -892 0
-156 -893 0
-147 -894 0
-148 -895 0
-151 -896 0
-153 -899 0
-154 -900 0
-155 -901 0
-156 -902 0
-147 -915 0
-151 -916 0
-152 -917 0
-153 -919 0
-154 -920 0
-155 -921 0
-156 -922 0
-151 -938 0
-152 -939 0
-153 -940 0
-154 -941 0
-155 -942 0
-156 -943 0
-147 -974 0
-148 -975 0
-150 -976 0
-153 -978 0
-155 -979 0
-156 -980 0
-147 -1021 0
-150 -1022 0
-152 -1023 0
-153 -1024 0
-154 -1025 0
-155 -1026 0
-156 -1027 0
-150 -1067 0
-151 -1068 0
-152 -1069 0
-153 -1071 0
-155 -1072 0
-156 -1073 0
-148 -1074 0
-151 -1075 0
-152 -1076 0
-153 -1078 0
-154 -1079 0
-155 -1080 0
-156 -1081 0
-147 -1089 0
-149 -1090 0
-150 -1091 0
-154 -1093 0
-155 -1094 0
-156 -1095 0
-147 -1096 0
-148 -1097 0
-149 -1098 0
-154 -1100 0
-155 -1101 0
-156 -1102 0
-147 -1112 0
-148 -1113 0
-150 -1114 0
-152 -1115 0
-154 -1118 0
-155 -1119 0
-156 -1120 0
-147 -1153 0
-148 -1154 0
-155 -1157 0
-156 -1158 0
-148 -1159 0
-149 -1160 0
-151 -1161 0
-154 -1162 0
-155 -1163 0
-156 -1164 0
-148 -1165 0
-150 -1166 0
-151 -1167 0
-152 -1168 0
-155 -1170 0
-156 -1171 0
-148 -1172 0
-151 -1173 0
-152 -1174 0
-154 -1176 0
-155 -1177 0
-156 -1178 0
-147 -1191 0
-152 -1192 0
-154 -1195 0
-155 -1196 0
-156 -1197 0
-149 -1198 0
-151 -1199 0
-152 -1200 0
-154 -1202 0
-155 -1203 0
-156 -1204 0
-150 -1205 0
-151 -1206 0
-154 -1208 0
-155 -1209 0
-156 -1210 0
-148 -1211 0
-151 -1212 0
-154 -1215 0
-155 -1216 0
-156 -1217 0
-148 -1261 0
-149 -1262 0
-150 -1263 0
-153 -1265 0
-155 -1266 0
-156 -1267 0
-148 -1268 0
-149 -1269 0
-153 -1271 0
-154 -1272 0
-155 -1273 0
-156 -1274 0
-148 -1281 0
-150 -1282 0
-152 -1283 0
-153 -1284 0
-155 -1285 0
-156 -1286 0
-149 -1295 0
-150 -1296 0
-152 -1297 0
-153 -1300 0
-154 -1301 0
-155 -1302 0
-156 -1303 0
-148 -1304 0
-149 -1305 0
-152 -1306 0
-153 -1307 0
-154 -1308 0
-155 -1309 0
-156 -1310 0
-148 -1319 0
-150 -1320 0
-153 -1322 0
-154 -1323 0
-155 -1324 0
-156 -1325 0
-148 -1345 0
-152 -1346 0
-153 -1349 0
-155 -1350 0
-156 -1351 0
-147 -1352 0
-150 -1353 0
-152 -1354 0
-153 -1357 0
-155 -1358 0
-156 -1359 0
-147 -1380 0
-153 -1382 0
-154 -1383 0
-155 -1384 0
-156 -1385 0
-149 -1386 0
-151 -1387 0
-153 -1389 0
-155 -1390 0
-156 -1391 0
-150 -1392 0
-151 -1393 0
-152 -1394 0
-153 -1397 0
-154 -1398 0
-155 -1399 0
-156 -1400 0
-148 -1401 0
-151 -1402 0
-152 -1403 0
-153 -1405 0
-155 -1406 0
-156 -1407 0
-151 -1415 0
-153 -1418 0
-154 -1419 0
-155 -1420 0
-156 -1421 0
-149 -1436 0
-150 -1437 0
-153 -1438 0
-154 -1439 0
-155 -1440 0
-156 -1441 0
-148 -1442 0
-150 -1443 0
-152 -1444 0
-153 -1446 0
-154 -1447 0
-155 -1448 0
-156 -1449 0
-150 -1457 0
-153 -1460 0
-155 -1461 0
-156 -1462 0
-152 -1471 0
-153 -1474 0
-154 -1475 0
-155 -1476 0
-156 -1477 0
-149 -1478 0
-154 -1481 0
-155 -1482 0
-156 -1483 0
-149 -1484 0
-150 -1485 0
-152 -1486 0
-155 -1489 0
-156 -1490 0
-148 -1491 0
-149 -1492 0
-152 -1493 0
-154 -1496 0
-155 -1497 0
-156 -1498 0
-148 -1519 0
-152 -1520 0
-154 -1522 0
-155 -1523 0
-156 -1524 0
-147 -1549 0
-151 -1550 0
-152 -1551 0
-154 -1553 0
-155 -1554 0
-156 -1555 0
-147 -1590 0
-150 -1591 0
-152 -1592 0
-153 -1595 0
-155 -1596 0
-156 -1597 0
-151 -1649 0
-153 -1652 0
-154 -1653 0
-155 -1654 0
-156 -1655 0
-147 -1662 0
-149 -1663 0
-152 -1664 0
-153 -1666 0
-154 -1667 0
-155 -1668 0
-156 -1669 0
-147 -1677 0
-150 -1678 0
-152 -1679 0
-153 -1680 0
-154 -1681 0
-155 -1682 0
-156 -1683 0
-147 -1714 0
-152 -1715 0
-153 -1717 0
-155 -1718 0
-156 -1719 0
-149 -1720 0
-151 -1721 0
-152 -1722 0
-153 -1725 0
-154 -1726 0
-155 -1727 0
-156 -1728 0
-150 -1729 0
-151 -1730 0
-152 -1731 0
-153 -1733 0
-155 -1734 0
-156 -1735 0
-148 -1736 0
-151 -1737 0
-152 -1738 0
-153 -1740 0
-154 -1741 0
-155 -1742 0
-156 -1743 0
-151 -1751 0
-152 -1752 0
-153 -1753 0
-154 -1754 0
-155 -1755 0
-156 -1756 0
-149 -1795 0
-150 -1796 0
-152 -1797 0
-155 -1800 0
-156 -1801 0
-148 -1802 0
-149 -1803 0
-152 -1804 0
-154 -1807 0
-155 -1808 0
-156 -1809 0
-148 -1817 0
-150 -1818 0
-152 -1819 0
-155 -1822 0
-156 -1823 0
-149 -1839 0
-154 -1842 0
-155 -1843 0
-156 -1844 0
-150 -1852 0
-152 -1853 0
-154 -1855 0
-155 -1856 0
-156 -1857 0
-151 -1878 0
-152 -1879 0
-155 -1882 0
-156 -1883 0
-150 -1890 0
-152 -1891 0
-153 -1893 0
-154 -1894 0
-155 -1895 0
-156 -1896 0
-149 -1903 0
-152 -1904 0
-153 -1906 0
-154 -1907 0
-155 -1908 0
-156 -1909 0
-152 -1917 0
-153 -1920 0
-154 -1921 0
-155 -1922 0
-156 -1923 0
-150 -1931 0
-151 -1932 0
-154 -1934 0
-155 -1935 0
-156 -1936 0
-150 -1938 0
-153 -1941 0
-155 -1942 0
-156 -1943 0
-149 -1944 0
-150 -1945 0
-153 -1946 0
-154 -1947 0
-155 -1948 0
-156 -1949 0
-150 -1950 0
-152 -1951 0
-153 -1953 0
-154 -1954 0
-155 -1955 0
-156 -1956 0
-148 -1957 0
-150 -1958 0
-152 -1959 0
-153 -1961 0
-154 -1962 0
-155 -1963 0
-156 -1964 0
-148 -1984 0
-153 -1986 0
-154 -1987 0
-155 -1988 0
-156 -1989 0
-152 -1991 0
-153 -1994 0
-154 -1995 0
-155 -1996 0
-156 -1997 0
-163 -273 0
-164 -274 0
-157 -331 0
-161 -334 0
-162 -335 0
-163 -336 0
-164 -337 0
-157 -345 0
-159 -350 0
-161 -351 0
-163 -352 0
-164 -353 0
-157 -354 0
-158 -355 0
-160 -359 0
-161 -360 0
-162 -361 0
-163 -362 0
-164 -363 0
-157 -364 0
-158 -365 0
-159 -368 0
-161 -369 0
-163 -370 0
-164 -371 0
-158 -395 0
-161 -399 0
-163 -400 0
-164 -401 0
-157 -402 0
-159 -405 0
-162 -406 0
-163 -407 0
-164 -408 0
-157 -409 0
-159 -411 0
-160 -412 0
-161 -413 0
-163 -414 0
-164 -415 0
-159 -425 0
-160 -426 0
-163 -427 0
-164 -428 0
-158 -473 0
-161 -477 0
-163 -478 0
-164 -479 0
-160 -551 0
-162 -552 0
-163 -553 0
-164 -554 0
-159 -564 0
-160 -565 0
-163 -566 0
-164 -567 0
-158 -568 0
-162 -571 0
-163 -572 0
-164 -573 0
-158 -574 0
-159 -578 0
-160 -579 0
-161 -580 0
-163 -581 0
-164 -582 0
-157 -610 0
-160 -614 0
-163 -615 0
-164 -616 0
-157 -617 0
-159 -620 0
-160 -621 0
-161 -622 0
-162 -623 0
-163 -624 0
-164 -625 0
-160 -644 0
-162 -645 0
-163 -646 0
-164 -647 0
-160 -667 0
-162 -668 0
-163 -669 0
-164 -670 0
-160 -732 0
-161 -733 0
-163 -734 0
-164 -735 0
-159 -739 0
-162 -740 0
-163 -741 0
-164 -742 0
-157 -756 0
-159 -759 0
-160 -760 0
-163 -761 0
-164 -762 0
-157 -763 0
-159 -766 0
-161 -767 0
-162 -768 0
-163 -769 0
-164 -770 0
-159 -782 0
-162 -783 0
-163 -784 0
-164 -785 0
-159 -790 0
-162 -791 0
-163 -792 0
-164 -793 0
-158 -794 0
-160 -797 0
-163 -798 0
-164 -799 0
-158 -800 0
-159 -802 0
-161 -803 0
-162 -804 0
-163 -805 0
-164 -806 0
-159 -831 0
-161 -832 0
-163 -833 0
-164 -834 0
-159 -836 0
-160 -837 0
-162 -838 0
-163 -839 0
-164 -840 0
-157 -854 0
-160 -859 0
-162 -860 0
-163 -861 0
-164 -862 0
-157 -863 0
-159 -866 0
-160 -867 0
-163 -868 0
-164 -869 0
-157 -870 0
-158 -871 0
-160 -874 0
-162 -875 0
-163 -876 0
-164 -877 0
-157 -878 0
-158 -879 0
-159 -883 0
-160 -884 0
-161 -885 0
-163 -886 0
-164 -887 0
-158 -909 0
-160 -912 0
-163 -913 0
-164 -914 0
-157 -915 0
-160 -918 0
-161 -919 0
-162 -920 0
-163 -921 0
-164 -922 0
-157 -923 0
-159 -926 0
-162 -927 0
-163 -928 0
-164 -929 0
-161 -940 0
-162 -941 0
-163 -942 0
-164 -943 0
-158 -966 0
-160 -971 0
-163 -972 0
-164 -973 0
-161 -1040 0
-162 -1041 0
-163 -1042 0
-164 -1043 0
-159 -1047 0
-161 -1048 0
-163 -1049 0
-164 -1050 0
-158 -1051 0
-160 -1055 0
-161 -1056 0
-162 -1057 0
-163 -1058 0
-164 -1059 0
-158 -1060 0
-159 -1064 0
-163 -1065 0
-164 -1066 0
-157 -1089 0
-159 -1092 0
-162 -1093 0
-163 -1094 0
-164 -1095 0
-157 -1096 0
-158 -1097 0
-160 -1099 0
-162 -1100 0
-163 -1101 0
-164 -1102 0
-157 -1103 0
-158 -1104 0
-159 -1107 0
-161 -1108 0
-162 -1109 0
-163 -1110 0
-164 -1111 0
-157 -1112 0
-158 -1113 0
-159 -1116 0
-160 -1117 0
-162 -1118 0
-163 -1119 0
-164 -1120 0
-157 -1121 0
-158 -1122 0
-159 -1124 0
-161 -1125 0
-163 -1126 0
-164 -1127 0
-157 -1128 0
-158 -1129 0
-159 -1130 0
-160 -1131 0
-161 -1132 0
-162 -1133 0
-163 -1134 0
-164 -1135 0
-158 -1159 0
-162 -1162 0
-163 -1163 0
-164 -1164 0
-158 -1165 0
-159 -1169 0
-163 -1170 0
-164 -1171 0
-158 -1172 0
-160 -1175 0
-162 -1176 0
-163 -1177 0
-164 -1178 0
-158 -1179 0
-159 -1181 0
-161 -1182 0
-163 -1183 0
-164 -1184 0
-157 -1185 0
-159 -1186 0
-161 -1187 0
-162 -1188 0
-163 -1189 0
-164 -1190 0
-157 -1191 0
-159 -1193 0
-160 -1194 0
-162 -1195 0
-163 -1196 0
-164 -1197 0
-159 -1227 0
-160 -1228 0
-161 -1229 0
-162 -1230 0
-163 -1231 0
-164 -1232 0
-158 -1233 0
-162 -1237 0
-163 -1238 0
-164 -1239 0
-158 -1240 0
-159 -1243 0
-163 -1244 0
-164 -1245 0
-158 -1246 0
-160 -1249 0
-162 -1250 0
-163 -1251 0
-164 -1252 0
-158 -1253 0
-159 -1257 0
-161 -1258 0
-163 -1259 0
-164 -1260 0
-159 -1298 0
-160 -1299 0
-161 -1300 0
-162 -1301 0
-163 -1302 0
-164 -1303 0
-158 -1304 0
-161 -1307 0
-162 -1308 0
-163 -1309 0
-164 -1310 0
-158 -1311 0
-159 -1314 0
-160 -1315 0
-162 -1316 0
-163 -1317 0
-164 -1318 0
-158 -1319 0
-159 -1321 0
-161 -1322 0
-162 -1323 0
-163 -1324 0
-164 -1325 0
-158 -1326 0
-159 -1329 0
-160 -1330 0
-163 -1331 0
-164 -1332 0
-158 -1333 0
-159 -1335 0
-162 -1336 0
-163 -1337 0
-164 -1338 0
-157 -1352 0
-159 -1355 0
-160 -1356 0
-161 -1357 0
-163 -1358 0
-164 -1359 0
-157 -1360 0
-159 -1362 0
-160 -1363 0
-162 -1364 0
-163 -1365 0
-164 -1366 0
-160 -1388 0
-161 -1389 0
-163 -1390 0
-164 -1391 0
-159 -1395 0
-160 -1396 0
-161 -1397 0
-162 -1398 0
-163 -1399 0
-164 -1400 0
-158 -1401 0
-160 -1404 0
-161 -1405 0
-163 -1406 0
-164 -1407 0
-158 -1408 0
-159 -1410 0
-160 -1411 0
-162 -1412 0
-163 -1413 0
-164 -1414 0
-159 -1430 0
-160 -1431 0
-161 -1432 0
-162 -1433 0
-163 -1434 0
-164 -1435 0
-159 -1458 0
-160 -1459 0
-161 -1460 0
-163 -1461 0
-164 -1462 0
-159 -1465 0
-161 -1466 0
-162 -1467 0
-163 -1468 0
-164 -1469 0
-159 -1508 0
-161 -1509 0
-163 -1510 0
-164 -1511 0
-158 -1512 0
-159 -1514 0
-160 -1515 0
-161 -1516 0
-163 -1517 0
-164 -1518 0
-158 -1519 0
-159 -1521 0
-162 -1522 0
-163 -1523 0
-164 -1524 0
-157 -1533 0
-159 -1537 0
-160 -1538 0
-161 -1539 0
-162 -1540 0
-163 -1541 0
-164 -1542 0
-157 -1543 0
-161 -1546 0
-163 -1547 0
-164 -1548 0
-159 -1566 0
-161 -1567 0
-163 -1568 0
-164 -1569 0
-159 -1586 0
-161 -1587 0
-163 -1588 0
-164 -1589 0
-159 -1638 0
-162 -1639 0
-163 -1640 0
-164 -1641 0
-160 -1645 0
-161 -1646 0
-163 -1647 0
-164 -1648 0
-157 -1662 0
-159 -1665 0
-161 -1666 0
-162 -1667 0
-163 -1668 0
-164 -1669 0
-157 -1670 0
-160 -1672 0
-161 -1673 0
-162 -1674 0
-163 -1675 0
-164 -1676 0
-157 -1677 0
-161 -1680 0
-162 -1681 0
-163 -1682 0
-164 -1683 0
-157 -1684 0
-159 -1687 0
-160 -1688 0
-161 -1689 0
-163 -1690 0
-164 -1691 0
-157 -1692 0
-158 -1693 0
-161 -1695 0
-162 -1696 0
-163 -1697 0
-164 -1698 0
-159 -1723 0
-160 -1724 0
-161 -1725 0
-162 -1726 0
-163 -1727 0
-164 -1728 0
-160 -1732 0
-161 -1733 0
-163 -1734 0
-164 -1735 0
-158 -1736 0
-159 -1739 0
-161 -1740 0
-162 -1741 0
-163 -1742 0
-164 -1743 0
-158 -1744 0
-160 -1747 0
-161 -1748 0
-163 -1749 0
-164 -1750 0
-159 -1766 0
-160 -1767 0
-161 -1768 0
-162 -1769 0
-163 -1770 0
-164 -1771 0
-160 -1775 0
-161 -1776 0
-163 -1777 0
-164 -1778 0
-158 -1779 0
-159 -1783 0
-161 -1784 0
-162 -1785 0
-163 -1786 0
-164 -1787 0
-158 -1788 0
-160 -1791 0
-161 -1792 0
-163 -1793 0
-164 -1794 0
-159 -1840 0
-160 -1841 0
-162 -1842 0
-163 -1843 0
-164 -1844 0
-160 -1847 0
-161 -1848 0
-162 -1849 0
-163 -1850 0
-164 -1851 0
-160 -1854 0
-162 -1855 0
-163 -1856 0
-164 -1857 0
-159 -1859 0
-160 -1860 0
-161 -1861 0
-163 -1862 0
-164 -1863 0
-158 -1864 0
-160 -1865 0
-161 -1866 0
-162 -1867 0
-163 -1868 0
-164 -1869 0
-159 -1880 0
-160 -1881 0
-163 -1882 0
-164 -1883 0
-161 -1886 0
-162 -1887 0
-163 -1888 0
-164 -1889 0
-159 -1918 0
-160 -1919 0
-161 -1920 0
-162 -1921 0
-163 -1922 0
-164 -1923 0
-159 -1933 0
-162 -1934 0
-163 -1935 0
-164 -1936 0
-160 -1974 0
-162 -1975 0
-163 -1976 0
-164 -1977 0
-158 -1978 0
-159 -1980 0
-162 -1981 0
-163 -1982 0
-164 -1983 0
-158 -1984 0
-160 -1985 0
-161 -1986 0
-162 -1987 0
-163 -1988 0
-164 -1989 0
-165 -263 0
-168 -265 0
-173 -267 0
-174 -268 0
-165 -338 0
-169 -341 0
-171 -342 0
-173 -343 0
-174 -344 0
-165 -354 0
-166 -356 0
-168 -357 0
-170 -359 0
-171 -360 0
-172 -361 0
-173 -362 0
-174 -363 0
-165 -364 0
-166 -366 0
-168 -367 0
-169 -368 0
-171 -369 0
-173 -370 0
-174 -371 0
-165 -402 0
-168 -403 0
-169 -405 0
-172 -406 0
-173 -407 0
-174 -408 0
-165 -409 0
-168 -410 0
-169 -411 0
-170 -412 0
-171 -413 0
-173 -414 0
-174 -415 0
-166 -416 0
-168 -417 0
-169 -418 0
-171 -419 0
-172 -420 0
-173 -421 0
-174 -422 0
-165 -467 0
-166 -469 0
-171 -470 0
-173 -471 0
-174 -472 0
-165 -555 0
-169 -557 0
-170 -558 0
-173 -559 0
-174 -560 0
-166 -569 0
-168 -570 0
-172 -571 0
-173 -572 0
-174 -573 0
-166 -575 0
-168 -576 0
-169 -578 0
-170 -579 0
-171 -580 0
-173 -581 0
-174 -582 0
-165 -603 0
-169 -605 0
-170 -606 0
-172 -607 0
-173 -608 0
-174 -609 0
-165 -610 0
-166 -611 0
-168 -612 0
-170 -614 0
-173 -615 0
-174 -616 0
-165 -617 0
-166 -618 0
-168 -619 0
-169 -620 0
-170 -621 0
-171 -622 0
-172 -623 0
-173 -624 0
-174 -625 0
-165 -724 0
-169 -725 0
-171 -726 0
-172 -727 0
-173 -728 0
-174 -729 0
-166 -730 0
-168 -731 0
-170 -732 0
-171 -733 0
-173 -734 0
-174 -735 0
-166 -736 0
-168 -737 0
-169 -739 0
-172 -740 0
-173 -741 0
-174 -742 0
-165 -756 0
-166 -757 0
-169 -759 0
-170 -760 0
-173 -761 0
-174 -762 0
-165 -763 0
-166 -764 0
-169 -766 0
-171 -767 0
-172 -768 0
-173 -769 0
-174 -770 0
-166 -771 0
-168 -772 0
-169 -774 0
-170 -775 0
-171 -776 0
-173 -777 0
-174 -778 0
-166 -795 0
-170 -797 0
-173 -798 0
-174 -799 0
-166 -801 0
-169 -802 0
-171 -803 0
-172 -804 0
-173 -805 0
-174 -806 0
-166 -829 0
-169 -831 0
-171 -832 0
-173 -833 0
-174 -834 0
-166 -835 0
-169 -836 0
-170 -837 0
-172 -838 0
-173 -839 0
-174 -840 0
-165 -870 0
-167 -872 0
-168 -873 0
-170 -874 0
-172 -875 0
-173 -876 0
-174 -877 0
-165 -878 0
-167 -880 0
-168 -881 0
-169 -883 0
-170 -884 0
-171 -885 0
-173 -886 0
-174 -887 0
-165 -915 0
-168 -916 0
-170 -918 0
-171 -919 0
-172 -920 0
-173 -921 0
-174 -922 0
-165 -923 0
-168 -924 0
-169 -926 0
-172 -927 0
-173 -928 0
-174 -929 0
-167 -930 0
-168 -931 0
-169 -933 0
-170 -934 0
-172 -935 0
-173 -936 0
-174 -937 0
-167 -1052 0
-168 -1053 0
-170 -1055 0
-171 -1056 0
-172 -1057 0
-173 -1058 0
-174 -1059 0
-167 -1061 0
-168 -1062 0
-169 -1064 0
-173 -1065 0
-174 -1066 0
-165 -1096 0
-166 -1098 0
-170 -1099 0
-172 -1100 0
-173 -1101 0
-174 -1102 0
-165 -1103 0
-166 -1105 0
-169 -1107 0
-171 -1108 0
-172 -1109 0
-173 -1110 0
-174 -1111 0
-165 -1112 0
-167 -1114 0
-169 -1116 0
-170 -1117 0
-172 -1118 0
-173 -1119 0
-174 -1120 0
-165 -1121 0
-167 -1123 0
-169 -1124 0
-171 -1125 0
-173 -1126 0
-174 -1127 0
-166 -1137 0
-167 -1138 0
-168 -1139 0
-169 -1140 0
-170 -1141 0
-171 -1142 0
-172 -1143 0
-173 -1144 0
-174 -1145 0
-168 -1173 0
-170 -1175 0
-172 -1176 0
-173 -1177 0
-174 -1178 0
-168 -1180 0
-169 -1181 0
-171 -1182 0
-173 -1183 0
-174 -1184 0
-165 -1185 0
-169 -1186 0
-171 -1187 0
-172 -1188 0
-173 -1189 0
-174 -1190 0
-165 -1191 0
-169 -1193 0
-170 -1194 0
-172 -1195 0
-173 -1196 0
-174 -1197 0
-166 -1198 0
-168 -1199 0
-169 -1201 0
-172 -1202 0
-173 -1203 0
-174 -1204 0
-167 -1205 0
-168 -1206 0
-169 -1207 0
-172 -1208 0
-173 -1209 0
-174 -1210 0
-166 -1247 0
-167 -1248 0
-170 -1249 0
-172 -1250 0
-173 -1251 0
-174 -1252 0
-166 -1254 0
-167 -1255 0
-169 -1257 0
-171 -1258 0
-173 -1259 0
-174 -1260 0
-166 -1305 0
-171 -1307 0
-172 -1308 0
-173 -1309 0
-174 -1310 0
-166 -1312 0
-169 -1314 0
-170 -1315 0
-172 -1316 0
-173 -1317 0
-174 -1318 0
-167 -1320 0
-169 -1321 0
-171 -1322 0
-172 -1323 0
-173 -1324 0
-174 -1325 0
-167 -1327 0
-169 -1329 0
-170 -1330 0
-173 -1331 0
-174 -1332 0
-165 -1352 0
-167 -1353 0
-169 -1355 0
-170 -1356 0
-171 -1357 0
-173 -1358 0
-174 -1359 0
-165 -1360 0
-167 -1361 0
-169 -1362 0
-170 -1363 0
-172 -1364 0
-173 -1365 0
-174 -1366 0
-166 -1367 0
-167 -1368 0
-168 -1369 0
-169 -1370 0
-170 -1371 0
-173 -1372 0
-174 -1373 0
-168 -1402 0
-170 -1404 0
-171 -1405 0
-173 -1406 0
-174 -1407 0
-168 -1409 0
-169 -1410 0
-170 -1411 0
-172 -1412 0
-173 -1413 0
-174 -1414 0
-167 -1457 0
-169 -1458 0
-170 -1459 0
-171 -1460 0
-173 -1461 0
-174 -1462 0
-167 -1463 0
-169 -1465 0
-171 -1466 0
-172 -1467 0
-173 -1468 0
-174 -1469 0
-166 -1478 0
-169 -1479 0
-170 -1480 0
-172 -1481 0
-173 -1482 0
-174 -1483 0
-166 -1484 0
-167 -1485 0
-169 -1487 0
-170 -1488 0
-173 -1489 0
-174 -1490 0
-169 -1514 0
-170 -1515 0
-171 -1516 0
-173 -1517 0
-174 -1518 0
-169 -1521 0
-172 -1522 0
-173 -1523 0
-174 -1524 0
-165 -1533 0
-167 -1534 0
-168 -1535 0
-169 -1537 0
-170 -1538 0
-171 -1539 0
-172 -1540 0
-173 -1541 0
-174 -1542 0
-165 -1543 0
-167 -1544 0
-168 -1545 0
-171 -1546 0
-173 -1547 0
-174 -1548 0
-167 -1636 0
-168 -1637 0
-169 -1638 0
-172 -1639 0
-173 -1640 0
-174 -1641 0
-167 -1642 0
-168 -1643 0
-170 -1645 0
-171 -1646 0
-173 -1647 0
-174 -1648 0
-165 -1662 0
-166 -1663 0
-169 -1665 0
-171 -1666 0
-172 -1667 0
-173 -1668 0
-174 -1669 0
-165 -1670 0
-166 -1671 0
-170 -1672 0
-171 -1673 0
-172 -1674 0
-173 -1675 0
-174 -1676 0
-165 -1677 0
-167 -1678 0
-171 -1680 0
-172 -1681 0
-173 -1682 0
-174 -1683 0
-165 -1684 0
-167 -1685 0
-169 -1687 0
-170 -1688 0
-171 -1689 0
-173 -1690 0
-174 -1691 0
-166 -1699 0
-167 -1700 0
-168 -1701 0
-171 -1703 0
-172 -1704 0
-173 -1705 0
-174 -1706 0
-168 -1737 0
-169 -1739 0
-171 -1740 0
-172 -1741 0
-173 -1742 0
-174 -1743 0
-168 -1745 0
-170 -1747 0
-171 -1748 0
-173 -1749 0
-174 -1750 0
-166 -1780 0
-167 -1781 0
-169 -1783 0
-171 -1784 0
-172 -1785 0
-173 -1786 0
-174 -1787 0
-166 -1789 0
-167 -1790 0
-170 -1791 0
-171 -1792 0
-173 -1793 0
-174 -1794 0
-169 -1834 0
-170 -1835 0
-171 -1836 0
-173 -1837 0
-174 -1838 0
-166 -1839 0
-169 -1840 0
-170 -1841 0
-172 -1842 0
-173 -1843 0
-174 -1844 0
-166 -1845 0
-170 -1847 0
-171 -1848 0
-172 -1849 0
-173 -1850 0
-174 -1851 0
-167 -1852 0
-170 -1854 0
-172 -1855 0
-173 -1856 0
-174 -1857 0
-167 -1858 0
-169 -1859 0
-170 -1860 0
-171 -1861 0
-173 -1862 0
-174 -1863 0
-168 -1878 0
-169 -1880 0
-170 -1881 0
-173 -1882 0
-174 -1883 0
-168 -1884 0
-171 -1886 0
-172 -1887 0
-173 -1888 0
-174 -1889 0
-169 -1918 0
-170 -1919 0
-171 -1920 0
-172 -1921 0
-173 -1922 0
-174 -1923 0
-167 -1924 0
-168 -1925 0
-170 -1926 0
-171 -1927 0
-172 -1928 0
-173 -1929 0
-174 -1930 0
-166 -1944 0
-167 -1945 0
-171 -1946 0
-172 -1947 0
-173 -1948 0
-174 -1949 0
-167 -1950 0
-169 -1952 0
-171 -1953 0
-172 -1954 0
-173 -1955 0
-174 -1956 0
-169 -1980 0
-172 -1981 0
-173 -1982 0
-174 -1983 0
-170 -1985 0
-171 -1986 0
-172 -1987 0
-173 -1988 0
-174 -1989 0
-175 -254 0
-178 -256 0
-179 -258 0
-181 -261 0
-182 -262 0
-175 -324 0
-177 -325 0
-179 -326 0
-180 -328 0
-181 -329 0
-182 -330 0
-175 -338 0
-176 -339 0
-179 -341 0
-180 -342 0
-181 -343 0
-182 -344 0
-175 -345 0
-177 -346 0
-178 -348 0
-179 -350 0
-180 -351 0
-181 -352 0
-182 -353 0
-175 -364 0
-176 -365 0
-177 -366 0
-178 -367 0
-179 -368 0
-180 -369 0
-181 -370 0
-182 -371 0
-175 -385 0
-176 -386 0
-178 -387 0
-179 -389 0
-180 -391 0
-181 -393 0
-182 -394 0
-175 -402 0
-178 -403 0
-179 -405 0
-181 -407 0
-182 -408 0
-177 -416 0
-178 -417 0
-179 -418 0
-180 -419 0
-181 -421 0
-182 -422 0
-178 -423 0
-179 -425 0
-181 -427 0
-182 -428 0
-175 -457 0
-176 -458 0
-177 -459 0
-179 -461 0
-180 -463 0
-181 -465 0
-182 -466 0
-175 -541 0
-177 -542 0
-179 -544 0
-181 -546 0
-182 -547 0
-175 -555 0
-176 -556 0
-179 -557 0
-181 -559 0
-182 -560 0
-177 -561 0
-178 -563 0
-179 -564 0
-181 -566 0
-182 -567 0
-176 -574 0
-177 -575 0
-178 -576 0
-179 -578 0
-180 -580 0
-181 -581 0
-182 -582 0
-176 -596 0
-178 -597 0
-179 -598 0
-181 -601 0
-182 -602 0
-175 -603 0
-179 -605 0
-181 -608 0
-182 -609 0
-175 -617 0
-177 -618 0
-178 -619 0
-179 -620 0
-180 -622 0
-181 -624 0
-182 -625 0
-175 -634 0
-178 -635 0
-179 -637 0
-181 -639 0
-182 -640 0
-175 -657 0
-177 -658 0
-179 -660 0
-181 -662 0
-182 -663 0
-175 -724 0
-179 -725 0
-180 -726 0
-181 -728 0
-182 -729 0
-177 -736 0
-178 -737 0
-179 -739 0
-181 -741 0
-182 -742 0
-178 -749 0
-179 -750 0
-180 -752 0
-181 -754 0
-182 -755 0
-175 -756 0
-177 -757 0
-179 -759 0
-181 -761 0
-182 -762 0
-177 -771 0
-178 -772 0
-179 -774 0
-180 -776 0
-181 -777 0
-182 -778 0
-177 -779 0
-178 -780 0
-179 -782 0
-181 -784 0
-182 -785 0
-177 -787 0
-179 -790 0
-181 -792 0
-182 -793 0
-176 -800 0
-177 -801 0
-179 -802 0
-180 -803 0
-181 -805 0
-182 -806 0
-176 -821 0
-177 -822 0
-179 -824 0
-181 -827 0
-182 -828 0
-177 -829 0
-179 -831 0
-180 -832 0
-181 -833 0
-182 -834 0
-175 -848 0
-179 -851 0
-181 -852 0
-182 -853 0
-175 -863 0
-178 -865 0
-179 -866 0
-181 -868 0
-182 -869 0
-175 -878 0
-176 -879 0
-178 -881 0
-179 -883 0
-180 -885 0
-181 -886 0
-182 -887 0
-175 -923 0
-178 -924 0
-179 -926 0
-181 -928 0
-182 -929 0
-178 -931 0
-179 -933 0
-181 -936 0
-182 -937 0
-175 -958 0
-176 -959 0
-179 -962 0
-181 -964 0
-182 -965 0
-175 -1028 0
-179 -1031 0
-180 -1033 0
-181 -1034 0
-182 -1035 0
-178 -1045 0
-179 -1047 0
-180 -1048 0
-181 -1049 0
-182 -1050 0
-176 -1060 0
-178 -1062 0
-179 -1064 0
-181 -1065 0
-182 -1066 0
-175 -1089 0
-177 -1090 0
-179 -1092 0
-181 -1094 0
-182 -1095 0
-175 -1103 0
-176 -1104 0
-177 -1105 0
-179 -1107 0
-180 -1108 0
-181 -1110 0
-182 -1111 0
-175 -1112 0
-176 -1113 0
-179 -1116 0
-181 -1119 0
-182 -1120 0
-175 -1128 0
-176 -1129 0
-179 -1130 0
-180 -1132 0
-181 -1134 0
-182 -1135 0
-176 -1136 0
-177 -1137 0
-178 -1139 0
-179 -1140 0
-180 -1142 0
-181 -1144 0
-182 -1145 0
-175 -1153 0
-176 -1154 0
-179 -1155 0
-181 -1157 0
-182 -1158 0
-176 -1165 0
-178 -1167 0
-179 -1169 0
-181 -1170 0
-182 -1171 0
-176 -1179 0
-178 -1180 0
-179 -1181 0
-180 -1182 0
-181 -1183 0
-182 -1184 0
-175 -1185 0
-179 -1186 0
-180 -1187 0
-181 -1189 0
-182 -1190 0
-177 -1198 0
-178 -1199 0
-179 -1201 0
-181 -1203 0
-182 -1204 0
-176 -1211 0
-178 -1212 0
-179 -1213 0
-181 -1216 0
-182 -1217 0
-178 -1226 0
-179 -1227 0
-180 -1229 0
-181 -1231 0
-182 -1232 0
-176 -1240 0
-177 -1241 0
-179 -1243 0
-181 -1244 0
-182 -1245 0
-176 -1253 0
-177 -1254 0
-179 -1257 0
-180 -1258 0
-181 -1259 0
-182 -1260 0
-176 -1287 0
-179 -1289 0
-181 -1292 0
-182 -1293 0
-177 -1295 0
-179 -1298 0
-180 -1300 0
-181 -1302 0
-182 -1303 0
-176 -1311 0
-177 -1312 0
-179 -1314 0
-181 -1317 0
-182 -1318 0
-176 -1319 0
-179 -1321 0
-180 -1322 0
-181 -1324 0
-182 -1325 0
-176 -1333 0
-179 -1335 0
-181 -1337 0
-182 -1338 0
-176 -1345 0
-179 -1347 0
-180 -1349 0
-181 -1350 0
-182 -1351 0
-175 -1352 0
-179 -1355 0
-180 -1357 0
-181 -1358 0
-182 -1359 0
-177 -1367 0
-178 -1369 0
-179 -1370 0
-181 -1372 0
-182 -1373 0
-175 -1380 0
-179 -1381 0
-180 -1382 0
-181 -1384 0
-182 -1385 0
-178 -1393 0
-179 -1395 0
-180 -1397 0
-181 -1399 0
-182 -1400 0
-176 -1408 0
-178 -1409 0
-179 -1410 0
-181 -1413 0
-182 -1414 0
-178 -1415 0
-179 -1416 0
-180 -1418 0
-181 -1420 0
-182 -1421 0
-177 -1428 0
-179 -1430 0
-180 -1432 0
-181 -1434 0
-182 -1435 0
-176 -1450 0
-179 -1452 0
-180 -1453 0
-181 -1455 0
-182 -1456 0
-179 -1458 0
-180 -1460 0
-181 -1461 0
-182 -1462 0
-179 -1472 0
-180 -1474 0
-181 -1476 0
-182 -1477 0
-177 -1478 0
-179 -1479 0
-181 -1482 0
-182 -1483 0
-176 -1491 0
-177 -1492 0
-179 -1494 0
-181 -1497 0
-182 -1498 0
-177 -1506 0
-179 -1508 0
-180 -1509 0
-181 -1510 0
-182 -1511 0
-176 -1512 0
-179 -1514 0
-180 -1516 0
-181 -1517 0
-182 -1518 0
-175 -1543 0
-178 -1545 0
-180 -1546 0
-181 -1547 0
-182 -1548 0
-175 -1576 0
-180 -1579 0
-181 -1581 0
-182 -1582 0
-178 -1643 0
-180 -1646 0
-181 -1647 0
-182 -1648 0
-175 -1670 0
-177 -1671 0
-180 -1673 0
-181 -1675 0
-182 -1676 0
-175 -1677 0
-180 -1680 0
-181 -1682 0
-182 -1683 0
-175 -1692 0
-176 -1693 0
-180 -1695 0
-181 -1697 0
-182 -1698 0
-177 -1699 0
-178 -1701 0
-180 -1703 0
-181 -1705 0
-182 -1706 0
-175 -1714 0
-180 -1717 0
-181 -1718 0
-182 -1719 0
-178 -1730 0
-180 -1733 0
-181 -1734 0
-182 -1735 0
-176 -1744 0
-178 -1745 0
-180 -1748 0
-181 -1749 0
-182 -1750 0
-178 -1751 0
-180 -1753 0
-181 -1755 0
-182 -1756 0
-177 -1772 0
-180 -1776 0
-181 -1777 0
-182 -1778 0
-176 -1788 0
-177 -1789 0
-180 -1792 0
-181 -1793 0
-182 -1794 0
-176 -1824 0
-180 -1828 0
-181 -1830 0
-182 -1831 0
-177 -1845 0
-180 -1848 0
-181 -1850 0
-182 -1851 0
-181 -1856 0
-182 -1857 0
-176 -1864 0
-180 -1866 0
-181 -1868 0
-182 -1869 0
-178 -1884 0
-180 -1886 0
-181 -1888 0
-182 -1889 0
-181 -1901 0
-182 -1902 0
-177 -1903 0
-180 -1906 0
-181 -1908 0
-182 -1909 0
-178 -1925 0
-180 -1927 0
-181 -1929 0
-182 -1930 0
-177 -1944 0
-180 -1946 0
-181 -1948 0
-182 -1949 0
-176 -1957 0
-180 -1961 0
-181 -1963 0
-182 -1964 0
-181 -1976 0
-182 -1977 0
-176 -1984 0
-180 -1986 0
-181 -1988 0
-182 -1989 0
-183 -248 0
-186 -250 0
-191 -252 0
-192 -253 0
-183 -318 0
-185 -319 0
-187 -320 0
-190 -321 0
-191 -322 0
-192 -323 0
-183 -338 0
-184 -339 0
-187 -340 0
-188 -341 0
-191 -343 0
-192 -344 0
-183 -345 0
-185 -346 0
-186 -348 0
-187 -349 0
-188 -350 0
-191 -352 0
-192 -353 0
-183 -354 0
-184 -355 0
-185 -356 0
-186 -357 0
-187 -358 0
-189 -359 0
-190 -361 0
-191 -362 0
-192 -363 0
-183 -379 0
-184 -380 0
-186 -381 0
-187 -382 0
-191 -383 0
-192 -384 0
-183 -409 0
-186 -410 0
-188 -411 0
-189 -412 0
-191 -414 0
-192 -415 0
-185 -416 0
-186 -417 0
-188 -418 0
-190 -420 0
-191 -421 0
-192 -422 0
-186 -423 0
-187 -424 0
-188 -425 0
-189 -426 0
-191 -427 0
-192 -428 0
-183 -450 0
-184 -451 0
-185 -452 0
-187 -454 0
-191 -455 0
-192 -456 0
-183 -534 0
-185 -535 0
-189 -536 0
-190 -538 0
-191 -539 0
-192 -540 0
-183 -555 0
-184 -556 0
-188 -557 0
-189 -558 0
-191 -559 0
-192 -560 0
-185 -561 0
-186 -563 0
-188 -564 0
-189 -565 0
-191 -566 0
-192 -567 0
-184 -568 0
-185 -569 0
-186 -570 0
-190 -571 0
-191 -572 0
-192 -573 0
-184 -589 0
-186 -590 0
-187 -591 0
-189 -592 0
-191 -594 0
-192 -595 0
-183 -603 0
-187 -604 0
-188 -605 0
-189 -606 0
-190 -607 0
-191 -608 0
-192 -609 0
-183 -610 0
-185 -611 0
-186 -612 0
-187 -613 0
-189 -614 0
-191 -615 0
-192 -616 0
-183 -626 0
-186 -627 0
-187 -628 0
-189 -629 0
-190 -631 0
-191 -632 0
-192 -633 0
-183 -648 0
-185 -649 0
-187 -651 0
-189 -652 0
-190 -654 0
-191 -655 0
-192 -656 0
-183 -724 0
-188 -725 0
-190 -727 0
-191 -728 0
-192 -729 0
-185 -730 0
-186 -731 0
-189 -732 0
-191 -734 0
-192 -735 0
-186 -743 0
-187 -744 0
-190 -746 0
-191 -747 0
-192 -748 0
-183 -763 0
-185 -764 0
-187 -765 0
-188 -766 0
-190 -768 0
-191 -769 0
-192 -770 0
-185 -771 0
-186 -772 0
-187 -773 0
-188 -774 0
-189 -775 0
-191 -777 0
-192 -778 0
-185 -779 0
-186 -780 0
-187 -781 0
-188 -782 0
-190 -783 0
-191 -784 0
-192 -785 0
-185 -787 0
-187 -789 0
-188 -790 0
-190 -791 0
-191 -792 0
-192 -793 0
-184 -794 0
-185 -795 0
-187 -796 0
-189 -797 0
-191 -798 0
-192 -799 0
-184 -814 0
-185 -815 0
-187 -816 0
-190 -818 0
-191 -819 0
-192 -820 0
-185 -835 0
-188 -836 0
-189 -837 0
-190 -838 0
-191 -839 0
-192 -840 0
-183 -841 0
-189 -843 0
-190 -845 0
-191 -846 0
-192 -847 0
-183 -863 0
-186 -865 0
-188 -866 0
-189 -867 0
-191 -868 0
-192 -869 0
-183 -870 0
-184 -871 0
-186 -873 0
-189 -874 0
-190 -875 0
-191 -876 0
-192 -877 0
-183 -915 0
-186 -916 0
-187 -917 0
-189 -918 0
-190 -920 0
-191 -921 0
-192 -922 0
-186 -931 0
-187 -932 0
-188 -933 0
-189 -934 0
-190 -935 0
-191 -936 0
-192 -937 0
-183 -951 0
-184 -952 0
-189 -954 0
-191 -956 0
-192 -957 0
-183 -1021 0
-187 -1023 0
-190 -1025 0
-191 -1026 0
-192 -1027 0
-186 -1045 0
-187 -1046 0
-188 -1047 0
-191 -1049 0
-192 -1050 0
-184 -1051 0
-186 -1053 0
-187 -1054 0
-189 -1055 0
-190 -1057 0
-191 -1058 0
-192 -1059 0
-183 -1089 0
-185 -1090 0
-188 -1092 0
-190 -1093 0
-191 -1094 0
-192 -1095 0
-183 -1096 0
-184 -1097 0
-185 -1098 0
-189 -1099 0
-190 -1100 0
-191 -1101 0
-192 -1102 0
-183 -1121 0
-184 -1122 0
-188 -1124 0
-191 -1126 0
-192 -1127 0
-183 -1128 0
-184 -1129 0
-188 -1130 0
-189 -1131 0
-190 -1133 0
-191 -1134 0
-192 -1135 0
-184 -1136 0
-185 -1137 0
-186 -1139 0
-188 -1140 0
-189 -1141 0
-190 -1143 0
-191 -1144 0
-192 -1145 0
-183 -1146 0
-184 -1147 0
-187 -1148 0
-190 -1150 0
-191 -1151 0
-192 -1152 0
-184 -1165 0
-186 -1167 0
-187 -1168 0
-188 -1169 0
-191 -1170 0
-192 -1171 0
-184 -1172 0
-186 -1173 0
-187 -1174 0
-189 -1175 0
-190 -1176 0
-191 -1177 0
-192 -1178 0
-183 -1191 0
-187 -1192 0
-188 -1193 0
-189 -1194 0
-190 -1195 0
-191 -1196 0
-192 -1197 0
-185 -1198 0
-186 -1199 0
-187 -1200 0
-188 -1201 0
-190 -1202 0
-191 -1203 0
-192 -1204 0
-184 -1218 0
-186 -1219 0
-187 -1220 0
-188 -1221 0
-190 -1223 0
-191 -1224 0
-192 -1225 0
-186 -1226 0
-188 -1227 0
-189 -1228 0
-190 -1230 0
-191 -1231 0
-192 -1232 0
-184 -1240 0
-185 -1241 0
-188 -1243 0
-191 -1244 0
-192 -1245 0
-184 -1246 0
-185 -1247 0
-189 -1249 0
-190 -1250 0
-191 -1251 0
-192 -1252 0
-184 -1281 0
-187 -1283 0
-191 -1285 0
-192 -1286 0
-185 -1295 0
-187 -1297 0
-188 -1298 0
-189 -1299 0
-190 -1301 0
-191 -1302 0
-192 -1303 0
-184 -1304 0
-185 -1305 0
-187 -1306 0
-190 -1308 0
-191 -1309 0
-192 -1310 0
-184 -1326 0
-187 -1328 0
-188 -1329 0
-189 -1330 0
-191 -1331 0
-192 -1332 0
-184 -1333 0
-187 -1334 0
-188 -1335 0
-190 -1336 0
-191 -1337 0
-192 -1338 0
-184 -1339 0
-189 -1340 0
-190 -1342 0
-191 -1343 0
-192 -1344 0
-183 -1360 0
-188 -1362 0
-189 -1363 0
-190 -1364 0
-191 -1365 0
-192 -1366 0
-185 -1367 0
-186 -1369 0
-188 -1370 0
-189 -1371 0
-191 -1372 0
-192 -1373 0
-183 -1374 0
-187 -1375 0
-189 -1376 0
-191 -1378 0
-192 -1379 0
-186 -1393 0
-187 -1394 0
-188 -1395 0
-189 -1396 0
-190 -1398 0
-191 -1399 0
-192 -1400 0
-184 -1401 0
-186 -1402 0
-187 -1403 0
-189 -1404 0
-191 -1406 0
-192 -1407 0
-186 -1422 0
-187 -1423 0
-188 -1424 0
-189 -1425 0
-191 -1426 0
-192 -1427 0
-185 -1428 0
-188 -1430 0
-189 -1431 0
-190 -1433 0
-191 -1434 0
-192 -1435 0
-184 -1442 0
-187 -1444 0
-189 -1445 0
-190 -1447 0
-191 -1448 0
-192 -1449 0
-187 -1464 0
-188 -1465 0
-190 -1467 0
-191 -1468 0
-192 -1469 0
-185 -1478 0
-188 -1479 0
-189 -1480 0
-190 -1481 0
-191 -1482 0
-192 -1483 0
-184 -1499 0
-185 -1500 0
-188 -1501 0
-189 -1502 0
-191 -1504 0
-192 -1505 0
-185 -1506 0
-187 -1507 0
-188 -1508 0
-191 -1510 0
-192 -1511 0
-184 -1519 0
-187 -1520 0
-188 -1521 0
-190 -1522 0
-191 -1523 0
-192 -1524 0
-183 -1533 0
-186 -1535 0
-187 -1536 0
-188 -1537 0
-189 -1538 0
-190 -1540 0
-191 -1541 0
-192 -1542 0
-183 -1570 0
-187 -1572 0
-188 -1573 0
-191 -1574 0
-192 -1575 0
-186 -1637 0
-188 -1638 0
-190 -1639 0
-191 -1640 0
-192 -1641 0
-183 -1662 0
-185 -1663 0
-187 -1664 0
-188 -1665 0
-190 -1667 0
-191 -1668 0
-192 -1669 0
-183 -1684 0
-187 -1686 0
-188 -1687 0
-189 -1688 0
-191 -1690 0
-192 -1691 0
-183 -1692 0
-184 -1693 0
-187 -1694 0
-190 -1696 0
-191 -1697 0
-192 -1698 0
-185 -1699 0
-186 -1701 0
-187 -1702 0
-190 -1704 0
-191 -1705 0
-192 -1706 0
-183 -1707 0
-187 -1708 0
-188 -1709 0
-189 -1710 0
-190 -1711 0
-191 -1712 0
-192 -1713 0
-186 -1730 0
-187 -1731 0
-189 -1732 0
-191 -1734 0
-192 -1735 0
-184 -1736 0
-186 -1737 0
-187 -1738 0
-188 -1739 0
-190 -1741 0
-191 -1742 0
-192 -1743 0
-186 -1757 0
-188 -1758 0
-189 -1759 0
-190 -1761 0
-191 -1762 0
-192 -1763 0
-185 -1772 0
-187 -1774 0
-189 -1775 0
-191 -1777 0
-192 -1778 0
-184 -1779 0
-185 -1780 0
-187 -1782 0
-188 -1783 0
-190 -1785 0
-191 -1786 0
-192 -1787 0
-184 -1817 0
-187 -1819 0
-188 -1820 0
-189 -1821 0
-191 -1822 0
-192 -1823 0
-185 -1839 0
-188 -1840 0
-189 -1841 0
-190 -1842 0
-191 -1843 0
-192 -1844 0
-188 -1859 0
-189 -1860 0
-191 -1862 0
-192 -1863 0
-184 -1864 0
-189 -1865 0
-190 -1867 0
-191 -1868 0
-192 -1869 0
-187 -1870 0
-188 -1871 0
-189 -1872 0
-190 -1874 0
-191 -1875 0
-192 -1876 0
-186 -1878 0
-187 -1879 0
-188 -1880 0
-189 -1881 0
-191 -1882 0
-192 -1883 0
-187 -1891 0
-188 -1892 0
-190 -1894 0
-191 -1895 0
-192 -1896 0
-185 -1910 0
-187 -1911 0
-188 -1912 0
-191 -1914 0
-192 -1915 0
-187 -1917 0
-188 -1918 0
-189 -1919 0
-190 -1921 0
-191 -1922 0
-192 -1923 0
-186 -1925 0
-189 -1926 0
-190 -1928 0
-191 -1929 0
-192 -1930 0
-185 -1944 0
-190 -1947 0
-191 -1948 0
-192 -1949 0
-184 -1965 0
-188 -1967 0
-190 -1969 0
-191 -1970 0
-192 -1971 0
-187 -1973 0
-189 -1974 0
-190 -1975 0
-191 -1976 0
-192 -1977 0
-184 -1978 0
-187 -1979 0
-188 -1980 0
-190 -1981 0
-191 -1982 0
-192 -1983 0
-187 -1991 0
-188 -1992 0
-189 -1993 0
-190 -1995 0
-191 -1996 0
-192 -1997 0
-193 -241 0
-196 -243 0
-197 -244 0
-201 -246 0
-202 -247 0
-193 -324 0
-198 -326 0
-199 -328 0
-201 -329 0
-202 -330 0
-193 -331 0
-196 -333 0
-199 -334 0
-200 -335 0
-201 -336 0
-202 -337 0
-193 -364 0
-194 -365 0
-196 -367 0
-198 -368 0
-199 -369 0
-201 -370 0
-202 -371 0
-193 -409 0
-196 -410 0
-198 -411 0
-199 -413 0
-201 -414 0
-202 -415 0
-196 -417 0
-198 -418 0
-199 -419 0
-200 -420 0
-201 -421 0
-202 -422 0
-193 -442 0
-194 -443 0
-197 -445 0
-199 -447 0
-201 -448 0
-202 -449 0
-193 -541 0
-197 -543 0
-198 -544 0
-201 -546 0
-202 -547 0
-196 -549 0
-197 -550 0
-200 -552 0
-201 -553 0
-202 -554 0
-194 -574 0
-196 -576 0
-197 -577 0
-198 -578 0
-199 -580 0
-201 -581 0
-202 -582 0
-193 -617 0
-196 -619 0
-198 -620 0
-199 -622 0
-200 -623 0
-201 -624 0
-202 -625 0
-196 -737 0
-197 -738 0
-198 -739 0
-200 -740 0
-201 -741 0
-202 -742 0
-193 -763 0
-197 -765 0
-198 -766 0
-199 -767 0
-200 -768 0
-201 -769 0
-202 -770 0
-196 -772 0
-197 -773 0
-198 -774 0
-199 -776 0
-201 -777 0
-202 -778 0
-194 -800 0
-198 -802 0
-199 -803 0
-200 -804 0
-201 -805 0
-202 -806 0
-198 -836 0
-200 -838 0
-201 -839 0
-202 -840 0
-193 -848 0
-195 -849 0
-197 -850 0
-198 -851 0
-201 -852 0
-202 -853 0
-193 -854 0
-195 -856 0
-196 -857 0
-197 -858 0
-200 -860 0
-201 -861 0
-202 -862 0
-193 -878 0
-194 -879 0
-195 -880 0
-196 -881 0
-197 -882 0
-198 -883 0
-199 -885 0
-201 -886 0
-202 -887 0
-193 -903 0
-194 -904 0
-196 -905 0
-197 -906 0
-201 -907 0
-202 -908 0
-193 -915 0
-196 -916 0
-197 -917 0
-199 -919 0
-200 -920 0
-201 -921 0
-202 -922 0
-195 -930 0
-196 -931 0
-197 -932 0
-198 -933 0
-200 -935 0
-201 -936 0
-202 -937 0
-196 -938 0
-197 -939 0
-199 -940 0
-200 -941 0
-201 -942 0
-202 -943 0
-193 -1028 0
-195 -1029 0
-197 -1030 0
-198 -1031 0
-199 -1033 0
-201 -1034 0
-202 -1035 0
-195 -1037 0
-196 -1038 0
-197 -1039 0
-199 -1040 0
-200 -1041 0
-201 -1042 0
-202 -1043 0
-194 -1060 0
-195 -1061 0
-196 -1062 0
-197 -1063 0
-198 -1064 0
-201 -1065 0
-202 -1066 0
-194 -1082 0
-196 -1083 0
-197 -1084 0
-199 -1086 0
-201 -1087 0
-202 -1088 0
-193 -1089 0
-195 -1091 0
-198 -1092 0
-200 -1093 0
-201 -1094 0
-202 -1095 0
-193 -1096 0
-194 -1097 0
-200 -1100 0
-201 -1101 0
-202 -1102 0
-193 -1121 0
-194 -1122 0
-195 -1123 0
-198 -1124 0
-199 -1125 0
-201 -1126 0
-202 -1127 0
-193 -1128 0
-194 -1129 0
-198 -1130 0
-199 -1132 0
-200 -1133 0
-201 -1134 0
-202 -1135 0
-194 -1136 0
-195 -1138 0
-196 -1139 0
-198 -1140 0
-199 -1142 0
-200 -1143 0
-201 -1144 0
-202 -1145 0
-193 -1153 0
-194 -1154 0
-198 -1155 0
-201 -1157 0
-202 -1158 0
-194 -1159 0
-196 -1161 0
-200 -1162 0
-201 -1163 0
-202 -1164 0
-194 -1179 0
-196 -1180 0
-198 -1181 0
-199 -1182 0
-201 -1183 0
-202 -1184 0
-193 -1185 0
-198 -1186 0
-199 -1187 0
-200 -1188 0
-201 -1189 0
-202 -1190 0
-195 -1205 0
-196 -1206 0
-198 -1207 0
-200 -1208 0
-201 -1209 0
-202 -1210 0
-194 -1211 0
-196 -1212 0
-198 -1213 0
-200 -1215 0
-201 -1216 0
-202 -1217 0
-196 -1226 0
-198 -1227 0
-199 -1229 0
-200 -1230 0
-201 -1231 0
-202 -1232 0
-194 -1233 0
-195 -1235 0
-197 -1236 0
-200 -1237 0
-201 -1238 0
-202 -1239 0
-194 -1253 0
-195 -1255 0
-197 -1256 0
-198 -1257 0
-199 -1258 0
-201 -1259 0
-202 -1260 0
-194 -1275 0
-197 -1277 0
-201 -1279 0
-202 -1280 0
-195 -1296 0
-197 -1297 0
-198 -1298 0
-199 -1300 0
-200 -1301 0
-201 -1302 0
-202 -1303 0
-194 -1304 0
-197 -1306 0
-199 -1307 0
-200 -1308 0
-201 -1309 0
-202 -1310 0
-194 -1326 0
-195 -1327 0
-197 -1328 0
-198 -1329 0
-201 -1331 0
-202 -1332 0
-194 -1333 0
-197 -1334 0
-198 -1335 0
-200 -1336 0
-201 -1337 0
-202 -1338 0
-194 -1345 0
-197 -1346 0
-198 -1347 0
-199 -1349 0
-201 -1350 0
-202 -1351 0
-193 -1360 0
-195 -1361 0
-198 -1362 0
-200 -1364 0
-201 -1365 0
-202 -1366 0
-195 -1368 0
-196 -1369 0
-198 -1370 0
-201 -1372 0
-202 -1373 0
-193 -1380 0
-198 -1381 0
-199 -1382 0
-200 -1383 0
-201 -1384 0
-202 -1385 0
-196 -1387 0
-199 -1389 0
-201 -1390 0
-202 -1391 0
-194 -1408 0
-196 -1409 0
-198 -1410 0
-200 -1412 0
-201 -1413 0
-202 -1414 0
-196 -1415 0
-198 -1416 0
-199 -1418 0
-200 -1419 0
-201 -1420 0
-202 -1421 0
-195 -1463 0
-197 -1464 0
-198 -1465 0
-199 -1466 0
-200 -1467 0
-201 -1468 0
-202 -1469 0
-197 -1471 0
-198 -1472 0
-199 -1474 0
-200 -1475 0
-201 -1476 0
-202 -1477 0
-195 -1485 0
-197 -1486 0
-198 -1487 0
-201 -1489 0
-202 -1490 0
-194 -1491 0
-197 -1493 0
-198 -1494 0
-200 -1496 0
-201 -1497 0
-202 -1498 0
-197 -1507 0
-198 -1508 0
-199 -1509 0
-201 -1510 0
-202 -1511 0
-194 -1519 0
-197 -1520 0
-198 -1521 0
-200 -1522 0
-201 -1523 0
-202 -1524 0
-197 -1525 0
-198 -1526 0
-199 -1528 0
-200 -1529 0
-201 -1530 0
-202 -1531 0
-193 -1543 0
-195 -1544 0
-196 -1545 0
-199 -1546 0
-201 -1547 0
-202 -1548 0
-193 -1556 0
-196 -1557 0
-198 -1558 0
-199 -1560 0
-201 -1561 0
-202 -1562 0
-195 -1642 0
-196 -1643 0
-197 -1644 0
-199 -1646 0
-201 -1647 0
-202 -1648 0
-196 -1656 0
-197 -1657 0
-198 -1658 0
-201 -1660 0
-202 -1661 0
-193 -1662 0
-197 -1664 0
-198 -1665 0
-199 -1666 0
-200 -1667 0
-201 -1668 0
-202 -1669 0
-193 -1684 0
-195 -1685 0
-197 -1686 0
-198 -1687 0
-199 -1689 0
-201 -1690 0
-202 -1691 0
-193 -1692 0
-194 -1693 0
-197 -1694 0
-199 -1695 0
-200 -1696 0
-201 -1697 0
-202 -1698 0
-195 -1700 0
-196 -1701 0
-197 -1702 0
-199 -1703 0
-200 -1704 0
-201 -1705 0
-202 -1706 0
-193 -1714 0
-197 -1715 0
-199 -1717 0
-201 -1718 0
-202 -1719 0
-196 -1721 0
-197 -1722 0
-198 -1723 0
-199 -1725 0
-200 -1726 0
-201 -1727 0
-202 -1728 0
-194 -1744 0
-196 -1745 0
-197 -1746 0
-199 -1748 0
-201 -1749 0
-202 -1750 0
-196 -1751 0
-197 -1752 0
-199 -1753 0
-200 -1754 0
-201 -1755 0
-202 -1756 0
-195 -1765 0
-198 -1766 0
-199 -1768 0
-200 -1769 0
-201 -1770 0
-202 -1771 0
-194 -1788 0
-195 -1790 0
-199 -1792 0
-201 -1793 0
-202 -1794 0
-194 -1810 0
-198 -1812 0
-199 -1814 0
-201 -1815 0
-202 -1816 0
-198 -1840 0
-200 -1842 0
-201 -1843 0
-202 -1844 0
-195 -1858 0
-198 -1859 0
-199 -1861 0
-201 -1862 0
-202 -1863 0
-194 -1864 0
-199 -1866 0
-200 -1867 0
-201 -1868 0
-202 -1869 0
-196 -1884 0
-197 -1885 0
-199 -1886 0
-200 -1887 0
-201 -1888 0
-202 -1889 0
-197 -1904 0
-199 -1906 0
-200 -1907 0
-201 -1908 0
-202 -1909 0
-197 -1917 0
-198 -1918 0
-199 -1920 0
-200 -1921 0
-201 -1922 0
-202 -1923 0
-195 -1924 0
-196 -1925 0
-199 -1927 0
-200 -1928 0
-201 -1929 0
-202 -1930 0
-195 -1931 0
-196 -1932 0
-198 -1933 0
-200 -1934 0
-201 -1935 0
-202 -1936 0
-195 -1950 0
-197 -1951 0
-198 -1952 0
-199 -1953 0
-200 -1954 0
-201 -1955 0
-202 -1956 0
-194 -1957 0
-195 -1958 0
-197 -1959 0
-199 -1961 0
-200 -1962 0
-201 -1963 0
-202 -1964 0
-195 -1972 0
-197 -1973 0
-200 -1975 0
-201 -1976 0
-202 -1977 0
-194 -1978 0
-197 -1979 0
-198 -1980 0
-200 -1981 0
-201 -1982 0
-202 -1983 0
-203 -232 0
-206 -234 0
-208 -238 0
-209 -239 0
-210 -240 0
-203 -318 0
-208 -321 0
-209 -322 0
-210 -323 0
-203 -331 0
-206 -333 0
-208 -335 0
-209 -336 0
-210 -337 0
-203 -354 0
-204 -355 0
-206 -357 0
-207 -359 0
-208 -361 0
-209 -362 0
-210 -363 0
-203 -402 0
-206 -403 0
-208 -406 0
-209 -407 0
-210 -408 0
-206 -417 0
-208 -420 0
-209 -421 0
-210 -422 0
-203 -435 0
-204 -436 0
-208 -439 0
-209 -440 0
-210 -441 0
-203 -534 0
-207 -536 0
-208 -538 0
-209 -539 0
-210 -540 0
-206 -549 0
-207 -551 0
-208 -552 0
-209 -553 0
-210 -554 0
-204 -568 0
-206 -570 0
-208 -571 0
-209 -572 0
-210 -573 0
-203 -610 0
-206 -612 0
-207 -614 0
-209 -615 0
-210 -616 0
-206 -731 0
-207 -732 0
-209 -734 0
-210 -735 0
-203 -756 0
-207 -760 0
-209 -761 0
-210 -762 0
-206 -772 0
-207 -775 0
-209 -777 0
-210 -778 0
-204 -794 0
-207 -797 0
-209 -798 0
-210 -799 0
-209 -833 0
-210 -834 0
-203 -841 0
-205 -842 0
-207 -843 0
-208 -845 0
-209 -846 0
-210 -847 0
-203 -854 0
-205 -856 0
-206 -857 0
-207 -859 0
-208 -860 0
-209 -861 0
-210 -862 0
-203 -870 0
-204 -871 0
-205 -872 0
-206 -873 0
-207 -874 0
-208 -875 0
-209 -876 0
-210 -877 0
-203 -894 0
-204 -895 0
-206 -896 0
-207 -898 0
-208 -900 0
-209 -901 0
-210 -902 0
-203 -923 0
-206 -924 0
-208 -927 0
-209 -928 0
-210 -929 0
-205 -930 0
-206 -931 0
-207 -934 0
-208 -935 0
-209 -936 0
-210 -937 0
-206 -938 0
-208 -941 0
-209 -942 0
-210 -943 0
-203 -1021 0
-205 -1022 0
-208 -1025 0
-209 -1026 0
-210 -1027 0
-205 -1037 0
-206 -1038 0
-208 -1041 0
-209 -1042 0
-210 -1043 0
-204 -1051 0
-205 -1052 0
-206 -1053 0
-207 -1055 0
-208 -1057 0
-209 -1058 0
-210 -1059 0
-204 -1074 0
-206 -1075 0
-208 -1079 0
-209 -1080 0
-210 -1081 0
-203 -1089 0
-205 -1091 0
-208 -1093 0
-209 -1094 0
-210 -1095 0
-203 -1103 0
-204 -1104 0
-208 -1109 0
-209 -1110 0
-210 -1111 0
-203 -1112 0
-204 -1113 0
-205 -1114 0
-207 -1117 0
-208 -1118 0
-209 -1119 0
-210 -1120 0
-203 -1128 0
-204 -1129 0
-207 -1131 0
-208 -1133 0
-209 -1134 0
-210 -1135 0
-204 -1136 0
-205 -1138 0
-206 -1139 0
-207 -1141 0
-208 -1143 0
-209 -1144 0
-210 -1145 0
-203 -1146 0
-204 -1147 0
-208 -1150 0
-209 -1151 0
-210 -1152 0
-204 -1159 0
-206 -1161 0
-208 -1162 0
-209 -1163 0
-210 -1164 0
-204 -1172 0
-206 -1173 0
-207 -1175 0
-208 -1176 0
-209 -1177 0
-210 -1178 0
-203 -1191 0
-207 -1194 0
-208 -1195 0
-209 -1196 0
-210 -1197 0
-205 -1205 0
-206 -1206 0
-208 -1208 0
-209 -1209 0
-210 -1210 0
-204 -1218 0
-206 -1219 0
-208 -1223 0
-209 -1224 0
-210 -1225 0
-206 -1226 0
-207 -1228 0
-208 -1230 0
-209 -1231 0
-210 -1232 0
-204 -1233 0
-205 -1235 0
-208 -1237 0
-209 -1238 0
-210 -1239 0
-204 -1246 0
-205 -1248 0
-207 -1249 0
-208 -1250 0
-209 -1251 0
-210 -1252 0
-204 -1268 0
-208 -1272 0
-209 -1273 0
-210 -1274 0
-205 -1296 0
-207 -1299 0
-208 -1301 0
-209 -1302 0
-210 -1303 0
-204 -1311 0
-207 -1315 0
-208 -1316 0
-209 -1317 0
-210 -1318 0
-204 -1319 0
-205 -1320 0
-208 -1323 0
-209 -1324 0
-210 -1325 0
-204 -1333 0
-208 -1336 0
-209 -1337 0
-210 -1338 0
-204 -1339 0
-207 -1340 0
-208 -1342 0
-209 -1343 0
-210 -1344 0
-203 -1352 0
-205 -1353 0
-207 -1356 0
-209 -1358 0
-210 -1359 0
-205 -1368 0
-206 -1369 0
-207 -1371 0
-209 -1372 0
-210 -1373 0
-203 -1374 0
-207 -1376 0
-209 -1378 0
-210 -1379 0
-206 -1387 0
-207 -1388 0
-209 -1390 0
-210 -1391 0
-204 -1401 0
-206 -1402 0
-207 -1404 0
-209 -1406 0
-210 -1407 0
-206 -1422 0
-207 -1425 0
-209 -1426 0
-210 -1427 0
-205 -1457 0
-207 -1459 0
-209 -1461 0
-210 -1462 0
-205 -1485 0
-207 -1488 0
-209 -1489 0
-210 -1490 0
-204 -1499 0
-207 -1502 0
-209 -1504 0
-210 -1505 0
-209 -1510 0
-210 -1511 0
-204 -1512 0
-207 -1515 0
-209 -1517 0
-210 -1518 0
-203 -1533 0
-205 -1534 0
-206 -1535 0
-207 -1538 0
-208 -1540 0
-209 -1541 0
-210 -1542 0
-203 -1549 0
-206 -1550 0
-208 -1553 0
-209 -1554 0
-210 -1555 0
-205 -1636 0
-206 -1637 0
-208 -1639 0
-209 -1640 0
-210 -1641 0
-206 -1649 0
-207 -1651 0
-208 -1653 0
-209 -1654 0
-210 -1655 0
-203 -1670 0
-207 -1672 0
-208 -1674 0
-209 -1675 0
-210 -1676 0
-203 -1677 0
-205 -1678 0
-208 -1681 0
-209 -1682 0
-210 -1683 0
-203 -1692 0
-204 -1693 0
-208 -1696 0
-209 -1697 0
-210 -1698 0
-205 -1700 0
-206 -1701 0
-208 -1704 0
-209 -1705 0
-210 -1706 0
-203 -1707 0
-207 -1710 0
-208 -1711 0
-209 -1712 0
-210 -1713 0
-206 -1721 0
-207 -1724 0
-208 -1726 0
-209 -1727 0
-210 -1728 0
-204 -1736 0
-206 -1737 0
-208 -1741 0
-209 -1742 0
-210 -1743 0
-206 -1757 0
-207 -1759 0
-208 -1761 0
-209 -1762 0
-210 -1763 0
-205 -1765 0
-207 -1767 0
-208 -1769 0
-209 -1770 0
-210 -1771 0
-204 -1779 0
-205 -1781 0
-208 -1785 0
-209 -1786 0
-210 -1787 0
-204 -1802 0
-207 -1806 0
-208 -1807 0
-209 -1808 0
-210 -1809 0
-207 -1847 0
-208 -1849 0
-209 -1850 0
-210 -1851 0
-205 -1852 0
-207 -1854 0
-208 -1855 0
-209 -1856 0
-210 -1857 0
-204 -1864 0
-207 -1865 0
-208 -1867 0
-209 -1868 0
-210 -1869 0
-207 -1872 0
-208 -1874 0
-209 -1875 0
-210 -1876 0
-206 -1878 0
-207 -1881 0
-209 -1882 0
-210 -1883 0
-209 -1914 0
-210 -1915 0
-205 -1924 0
-206 -1925 0
-207 -1926 0
-208 -1928 0
-209 -1929 0
-210 -1930 0
-205 -1931 0
-206 -1932 0
-208 -1934 0
-209 -1935 0
-210 -1936 0
-205 -1950 0
-208 -1954 0
-209 -1955 0
-210 -1956 0
-204 -1965 0
-205 -1966 0
-208 -1969 0
-209 -1970 0
-210 -1971 0
-205 -1972 0
-207 -1974 0
-208 -1975 0
-209 -1976 0
-210 -1977 0
-204 -1984 0
-207 -1985 0
-208 -1987 0
-209 -1988 0
-210 -1989 0
-211 -318 0
-215 -321 0
-216 -322 0
-217 -323 0
-211 -324 0
-214 -326 0
-216 -329 0
-217 -330 0
-211 -331 0
-213 -333 0
-215 -335 0
-216 -336 0
-217 -337 0
-211 -345 0
-213 -348 0
-214 -350 0
-216 -352 0
-217 -353 0
-211 -372 0
-213 -374 0
-216 -377 0
-217 -378 0
-211 -402 0
-213 -403 0
-214 -405 0
-215 -406 0
-216 -407 0
-217 -408 0
-211 -409 0
-213 -410 0
-214 -411 0
-216 -414 0
-217 -415 0
-213 -417 0
-214 -418 0
-215 -420 0
-216 -421 0
-217 -422 0
-213 -423 0
-214 -425 0
-216 -427 0
-217 -428 0
-211 -429 0
-216 -433 0
-217 -434 0
-211 -534 0
-215 -538 0
-216 -539 0
-217 -540 0
-211 -541 0
-214 -544 0
-216 -546 0
-217 -547 0
-213 -549 0
-215 -552 0
-216 -553 0
-217 -554 0
-213 -563 0
-214 -564 0
-216 -566 0
-217 -567 0
-213 -584 0
-216 -587 0
-217 -588 0
-211 -756 0
-214 -759 0
-216 -761 0
-217 -762 0
-211 -763 0
-214 -766 0
-215 -768 0
-216 -769 0
-217 -770 0
-213 -772 0
-214 -774 0
-216 -777 0
-217 -778 0
-213 -780 0
-214 -782 0
-215 -783 0
-216 -784 0
-217 -785 0
-214 -790 0
-215 -791 0
-216 -792 0
-217 -793 0
-215 -811 0
-216 -812 0
-217 -813 0
-214 -831 0
-216 -833 0
-217 -834 0
-214 -836 0
-215 -838 0
-216 -839 0
-217 -840 0
-211 -841 0
-215 -845 0
-216 -846 0
-217 -847 0
-211 -848 0
-214 -851 0
-216 -852 0
-217 -853 0
-211 -854 0
-213 -857 0
-215 -860 0
-216 -861 0
-217 -862 0
-211 -863 0
-213 -865 0
-214 -866 0
-216 -868 0
-217 -869 0
-211 -888 0
-213 -890 0
-216 -892 0
-217 -893 0
-211 -915 0
-213 -916 0
-215 -920 0
-216 -921 0
-217 -922 0
-211 -923 0
-213 -924 0
-214 -926 0
-215 -927 0
-216 -928 0
-217 -929 0
-213 -931 0
-214 -933 0
-215 -935 0
-216 -936 0
-217 -937 0
-213 -938 0
-215 -941 0
-216 -942 0
-217 -943 0
-211 -944 0
-216 -949 0
-217 -950 0
-211 -1021 0
-215 -1025 0
-216 -1026 0
-217 -1027 0
-211 -1028 0
-214 -1031 0
-216 -1034 0
-217 -1035 0
-213 -1038 0
-215 -1041 0
-216 -1042 0
-217 -1043 0
-213 -1045 0
-214 -1047 0
-216 -1049 0
-217 -1050 0
-213 -1068 0
-216 -1072 0
-217 -1073 0
-211 -1096 0
-212 -1097 0
-215 -1100 0
-216 -1101 0
-217 -1102 0
-211 -1103 0
-212 -1104 0
-214 -1107 0
-215 -1109 0
-216 -1110 0
-217 -1111 0
-211 -1112 0
-212 -1113 0
-214 -1116 0
-215 -1118 0
-216 -1119 0
-217 -1120 0
-211 -1121 0
-212 -1122 0
-214 -1124 0
-216 -1126 0
-217 -1127 0
-212 -1136 0
-213 -1139 0
-214 -1140 0
-215 -1143 0
-216 -1144 0
-217 -1145 0
-211 -1146 0
-212 -1147 0
-215 -1150 0
-216 -1151 0
-217 -1152 0
-211 -1153 0
-212 -1154 0
-214 -1155 0
-216 -1157 0
-217 -1158 0
-212 -1159 0
-213 -1161 0
-215 -1162 0
-216 -1163 0
-217 -1164 0
-212 -1165 0
-213 -1167 0
-214 -1169 0
-216 -1170 0
-217 -1171 0
-212 -1211 0
-213 -1212 0
-214 -1213 0
-215 -1215 0
-216 -1216 0
-217 -1217 0
-212 -1218 0
-213 -1219 0
-214 -1221 0
-215 -1223 0
-216 -1224 0
-217 -1225 0
-212 -1233 0
-215 -1237 0
-216 -1238 0
-217 -1239 0
-212 -1240 0
-214 -1243 0
-216 -1244 0
-217 -1245 0
-212 -1261 0
-216 -1266 0
-217 -1267 0
-212 -1304 0
-215 -1308 0
-216 -1309 0
-217 -1310 0
-212 -1311 0
-214 -1314 0
-215 -1316 0
-216 -1317 0
-217 -1318 0
-212 -1319 0
-214 -1321 0
-215 -1323 0
-216 -1324 0
-217 -1325 0
-212 -1326 0
-214 -1329 0
-216 -1331 0
-217 -1332 0
-212 -1339 0
-215 -1342 0
-216 -1343 0
-217 -1344 0
-212 -1345 0
-214 -1347 0
-216 -1350 0
-217 -1351 0
-211 -1352 0
-214 -1355 0
-216 -1358 0
-217 -1359 0
-211 -1360 0
-214 -1362 0
-215 -1364 0
-216 -1365 0
-217 -1366 0
-213 -1369 0
-214 -1370 0
-216 -1372 0
-217 -1373 0
-211 -1374 0
-216 -1378 0
-217 -1379 0
-211 -1380 0
-214 -1381 0
-215 -1383 0
-216 -1384 0
-217 -1385 0
-213 -1387 0
-216 -1390 0
-217 -1391 0
-213 -1393 0
-214 -1395 0
-215 -1398 0
-216 -1399 0
-217 -1400 0
-213 -1415 0
-214 -1416 0
-215 -1419 0
-216 -1420 0
-217 -1421 0
-213 -1422 0
-214 -1424 0
-216 -1426 0
-217 -1427 0
-214 -1430 0
-215 -1433 0
-216 -1434 0
-217 -1435 0
-215 -1439 0
-216 -1440 0
-217 -1441 0
-214 -1458 0
-216 -1461 0
-217 -1462 0
-214 -1465 0
-215 -1467 0
-216 -1468 0
-217 -1469 0
-214 -1472 0
-215 -1475 0
-216 -1476 0
-217 -1477 0
-212 -1491 0
-214 -1494 0
-215 -1496 0
-216 -1497 0
-217 -1498 0
-212 -1499 0
-214 -1501 0
-216 -1504 0
-217 -1505 0
-212 -1512 0
-214 -1514 0
-216 -1517 0
-217 -1518 0
-212 -1519 0
-214 -1521 0
-215 -1522 0
-216 -1523 0
-217 -1524 0
-211 -1662 0
-214 -1665 0
-215 -1667 0
-216 -1668 0
-217 -1669 0
-211 -1670 0
-215 -1674 0
-216 -1675 0
-217 -1676 0
-211 -1677 0
-215 -1681 0
-216 -1682 0
-217 -1683 0
-211 -1684 0
-214 -1687 0
-216 -1690 0
-217 -1691 0
-213 -1701 0
-215 -1704 0
-216 -1705 0
-217 -1706 0
-211 -1707 0
-214 -1709 0
-215 -1711 0
-216 -1712 0
-217 -1713 0
-211 -1714 0
-216 -1718 0
-217 -1719 0
-213 -1721 0
-214 -1723 0
-215 -1726 0
-216 -1727 0
-217 -1728 0
-213 -1730 0
-216 -1734 0
-217 -1735 0
-213 -1751 0
-215 -1754 0
-216 -1755 0
-217 -1756 0
-213 -1757 0
-214 -1758 0
-215 -1761 0
-216 -1762 0
-217 -1763 0
-214 -1766 0
-215 -1769 0
-216 -1770 0
-217 -1771 0
-216 -1777 0
-217 -1778 0
-214 -1798 0
-216 -1800 0
-217 -1801 0
-214 -1840 0
-215 -1842 0
-216 -1843 0
-217 -1844 0
-215 -1849 0
-216 -1850 0
-217 -1851 0
-215 -1855 0
-216 -1856 0
-217 -1857 0
-214 -1859 0
-216 -1862 0
-217 -1863 0
-214 -1871 0
-215 -1874 0
-216 -1875 0
-217 -1876 0
-215 -1907 0
-216 -1908 0
-217 -1909 0
-214 -1912 0
-216 -1914 0
-217 -1915 0
-214 -1918 0
-215 -1921 0
-216 -1922 0
-217 -1923 0
-213 -1925 0
-215 -1928 0
-216 -1929 0
-217 -1930 0
-213 -1932 0
-214 -1933 0
-215 -1934 0
-216 -1935 0
-217 -1936 0
-214 -1939 0
-216 -1942 0
-217 -1943 0
-212 -1957 0
-215 -1962 0
-216 -1963 0
-217 -1964 0
-212 -1965 0
-214 -1967 0
-215 -1969 0
-216 -1970 0
-217 -1971 0
-212 -1978 0
-214 -1980 0
-215 -1981 0
-216 -1982 0
-217 -1983 0
-212 -1984 0
-215 -1987 0
-216 -1988 0
-217 -1989 0
-224 -230 0
-225 -231 0
-219 -319 0
-223 -321 0
-224 -322 0
-225 -323 0
-219 -325 0
-222 -326 0
-224 -329 0
-225 -330 0
-218 -339 0
-222 -341 0
-224 -343 0
-225 -344 0
-221 -403 0
-222 -405 0
-223 -406 0
-224 -407 0
-225 -408 0
-221 -410 0
-222 -411 0
-224 -414 0
-225 -415 0
-219 -535 0
-223 -538 0
-224 -539 0
-225 -540 0
-219 -542 0
-222 -544 0
-224 -546 0
-225 -547 0
-218 -556 0
-222 -557 0
-224 -559 0
-225 -560 0
-222 -605 0
-223 -607 0
-224 -608 0
-225 -609 0
-222 -725 0
-223 -727 0
-224 -728 0
-225 -729 0
-219 -757 0
-222 -759 0
-224 -761 0
-225 -762 0
-219 -764 0
-222 -766 0
-223 -768 0
-224 -769 0
-225 -770 0
-219 -829 0
-222 -831 0
-224 -833 0
-225 -834 0
-219 -835 0
-222 -836 0
-223 -838 0
-224 -839 0
-225 -840 0
-220 -842 0
-223 -845 0
-224 -846 0
-225 -847 0
-220 -849 0
-222 -851 0
-224 -852 0
-225 -853 0
-221 -916 0
-223 -920 0
-224 -921 0
-225 -922 0
-221 -924 0
-222 -926 0
-223 -927 0
-224 -928 0
-225 -929 0
-220 -1022 0
-223 -1025 0
-224 -1026 0
-225 -1027 0
-220 -1029 0
-222 -1031 0
-224 -1034 0
-225 -1035 0
-219 -1090 0
-220 -1091 0
-222 -1092 0
-223 -1093 0
-224 -1094 0
-225 -1095 0
-218 -1097 0
-219 -1098 0
-223 -1100 0
-224 -1101 0
-225 -1102 0
-218 -1104 0
-219 -1105 0
-222 -1107 0
-223 -1109 0
-224 -1110 0
-225 -1111 0
-218 -1113 0
-220 -1114 0
-222 -1116 0
-223 -1118 0
-224 -1119 0
-225 -1120 0
-218 -1122 0
-220 -1123 0
-222 -1124 0
-224 -1126 0
-225 -1127 0
-218 -1129 0
-222 -1130 0
-223 -1133 0
-224 -1134 0
-225 -1135 0
-218 -1147 0
-223 -1150 0
-224 -1151 0
-225 -1152 0
-218 -1154 0
-222 -1155 0
-224 -1157 0
-225 -1158 0
-219 -1198 0
-221 -1199 0
-222 -1201 0
-223 -1202 0
-224 -1203 0
-225 -1204 0
-220 -1205 0
-221 -1206 0
-222 -1207 0
-223 -1208 0
-224 -1209 0
-225 -1210 0
-218 -1211 0
-221 -1212 0
-222 -1213 0
-223 -1215 0
-224 -1216 0
-225 -1217 0
-218 -1218 0
-221 -1219 0
-222 -1221 0
-223 -1223 0
-224 -1224 0
-225 -1225 0
-221 -1226 0
-222 -1227 0
-223 -1230 0
-224 -1231 0
-225 -1232 0
-219 -1295 0
-220 -1296 0
-222 -1298 0
-223 -1301 0
-224 -1302 0
-225 -1303 0
-218 -1304 0
-219 -1305 0
-223 -1308 0
-224 -1309 0
-225 -1310 0
-218 -1311 0
-219 -1312 0
-222 -1314 0
-223 -1316 0
-224 -1317 0
-225 -1318 0
-218 -1319 0
-220 -1320 0
-222 -1321 0
-223 -1323 0
-224 -1324 0
-225 -1325 0
-218 -1326 0
-220 -1327 0
-222 -1329 0
-224 -1331 0
-225 -1332 0
-218 -1333 0
-222 -1335 0
-223 -1336 0
-224 -1337 0
-225 -1338 0
-218 -1339 0
-223 -1342 0
-224 -1343 0
-225 -1344 0
-218 -1345 0
-222 -1347 0
-224 -1350 0
-225 -1351 0
-220 -1353 0
-222 -1355 0
-224 -1358 0
-225 -1359 0
-220 -1361 0
-222 -1362 0
-223 -1364 0
-224 -1365 0
-225 -1366 0
-224 -1378 0
-225 -1379 0
-222 -1381 0
-223 -1383 0
-224 -1384 0
-225 -1385 0
-221 -1415 0
-222 -1416 0
-223 -1419 0
-224 -1420 0
-225 -1421 0
-221 -1422 0
-222 -1424 0
-224 -1426 0
-225 -1427 0
-220 -1457 0
-222 -1458 0
-224 -1461 0
-225 -1462 0
-220 -1463 0
-222 -1465 0
-223 -1467 0
-224 -1468 0
-225 -1469 0
-222 -1472 0
-223 -1475 0
-224 -1476 0
-225 -1477 0
-219 -1478 0
-222 -1479 0
-223 -1481 0
-224 -1482 0
-225 -1483 0
-219 -1484 0
-220 -1485 0
-222 -1487 0
-224 -1489 0
-225 -1490 0
-218 -1491 0
-219 -1492 0
-222 -1494 0
-223 -1496 0
-224 -1497 0
-225 -1498 0
-218 -1499 0
-219 -1500 0
-222 -1501 0
-224 -1504 0
-225 -1505 0
-219 -1506 0
-222 -1508 0
-224 -1510 0
-225 -1511 0
-218 -1512 0
-222 -1514 0
-224 -1517 0
-225 -1518 0
-218 -1519 0
-222 -1521 0
-223 -1522 0
-224 -1523 0
-225 -1524 0
-219 -1663 0
-222 -1665 0
-223 -1667 0
-224 -1668 0
-225 -1669 0
-219 -1671 0
-223 -1674 0
-224 -1675 0
-225 -1676 0
-220 -1678 0
-223 -1681 0
-224 -1682 0
-225 -1683 0
-220 -1685 0
-222 -1687 0
-224 -1690 0
-225 -1691 0
-218 -1693 0
-223 -1696 0
-224 -1697 0
-225 -1698 0
-222 -1709 0
-223 -1711 0
-224 -1712 0
-225 -1713 0
-224 -1718 0
-225 -1719 0
-221 -1751 0
-223 -1754 0
-224 -1755 0
-225 -1756 0
-221 -1757 0
-222 -1758 0
-223 -1761 0
-224 -1762 0
-225 -1763 0
-219 -1839 0
-222 -1840 0
-223 -1842 0
-224 -1843 0
-225 -1844 0
-219 -1845 0
-223 -1849 0
-224 -1850 0
-225 -1851 0
-220 -1852 0
-223 -1855 0
-224 -1856 0
-225 -1857 0
-220 -1858 0
-222 -1859 0
-224 -1862 0
-225 -1863 0
-218 -1864 0
-223 -1867 0
-224 -1868 0
-225 -1869 0
-222 -1871 0
-223 -1874 0
-224 -1875 0
-225 -1876 0
-219 -1903 0
-223 -1907 0
-224 -1908 0
-225 -1909 0
-219 -1910 0
-222 -1912 0
-224 -1914 0
-225 -1915 0
-222 -1918 0
-223 -1921 0
-224 -1922 0
-225 -1923 0
-219 -1944 0
-220 -1945 0
-223 -1947 0
-224 -1948 0
-225 -1949 0
-220 -1950 0
-222 -1952 0
-223 -1954 0
-224 -1955 0
-225 -1956 0
-218 -1957 0
-220 -1958 0
-223 -1962 0
-224 -1963 0
-225 -1964 0
-218 -1965 0
-220 -1966 0
-222 -1967 0
-223 -1969 0
-224 -1970 0
-225 -1971 0
-220 -1972 0
-223 -1975 0
-224 -1976 0
-225 -1977 0
-218 -1978 0
-222 -1980 0
-223 -1981 0
-224 -1982 0
-225 -1983 0
-218 -1984 0
-223 -1987 0
-224 -1988 0
-225 -1989 0
-226 -331 0
-229 -334 0
-230 -336 0
-231 -337 0
-226 -345 0
-227 -349 0
-229 -351 0
-230 -352 0
-231 -353 0
-226 -354 0
-227 -358 0
-228 -359 0
-229 -360 0
-230 -362 0
-231 -363 0
-226 -364 0
-229 -369 0
-230 -370 0
-231 -371 0
-226 -372 0
-227 -375 0
-228 -376 0
-230 -377 0
-231 -378 0
-226 -379 0
-227 -382 0
-230 -383 0
-231 -384 0
-226 -385 0
-227 -388 0
-228 -390 0
-229 -391 0
-230 -393 0
-231 -394 0
-229 -419 0
-230 -421 0
-231 -422 0
-227 -424 0
-228 -426 0
-230 -427 0
-231 -428 0
-229 -477 0
-230 -478 0
-231 -479 0
-228 -500 0
-230 -501 0
-231 -502 0
-227 -514 0
-228 -515 0
-230 -517 0
-231 -518 0
-227 -522 0
-230 -524 0
-231 -525 0
-228 -529 0
-229 -530 0
-230 -532 0
-231 -533 0
-226 -610 0
-227 -613 0
-228 -614 0
-230 -615 0
-231 -616 0
-226 -617 0
-228 -621 0
-229 -622 0
-230 -624 0
-231 -625 0
-226 -626 0
-227 -628 0
-228 -629 0
-229 -630 0
-230 -632 0
-231 -633 0
-226 -634 0
-227 -636 0
-230 -639 0
-231 -640 0
-228 -667 0
-230 -669 0
-231 -670 0
-229 -689 0
-230 -691 0
-231 -692 0
-227 -703 0
-229 -704 0
-230 -706 0
-231 -707 0
-227 -711 0
-228 -713 0
-229 -714 0
-230 -716 0
-231 -717 0
-230 -722 0
-231 -723 0
-226 -756 0
-227 -758 0
-228 -760 0
-230 -761 0
-231 -762 0
-226 -763 0
-227 -765 0
-229 -767 0
-230 -769 0
-231 -770 0
-227 -789 0
-230 -792 0
-231 -793 0
-227 -796 0
-228 -797 0
-230 -798 0
-231 -799 0
-229 -803 0
-230 -805 0
-231 -806 0
-227 -808 0
-228 -809 0
-229 -810 0
-230 -812 0
-231 -813 0
-227 -816 0
-229 -817 0
-230 -819 0
-231 -820 0
-227 -823 0
-228 -825 0
-230 -827 0
-231 -828 0
-226 -854 0
-227 -858 0
-228 -859 0
-230 -861 0
-231 -862 0
-226 -863 0
-228 -867 0
-230 -868 0
-231 -869 0
-226 -870 0
-228 -874 0
-230 -876 0
-231 -877 0
-226 -878 0
-227 -882 0
-228 -884 0
-229 -885 0
-230 -886 0
-231 -887 0
-226 -888 0
-229 -891 0
-230 -892 0
-231 -893 0
-226 -894 0
-228 -898 0
-229 -899 0
-230 -901 0
-231 -902 0
-226 -903 0
-227 -906 0
-230 -907 0
-231 -908 0
-227 -932 0
-228 -934 0
-230 -936 0
-231 -937 0
-227 -939 0
-229 -940 0
-230 -942 0
-231 -943 0
-227 -970 0
-228 -971 0
-230 -972 0
-231 -973 0
-227 -994 0
-229 -996 0
-230 -997 0
-231 -998 0
-229 -1002 0
-230 -1004 0
-231 -1005 0
-228 -1010 0
-229 -1011 0
-230 -1012 0
-231 -1013 0
-227 -1017 0
-230 -1019 0
-231 -1020 0
-226 -1089 0
-230 -1094 0
-231 -1095 0
-226 -1096 0
-228 -1099 0
-230 -1101 0
-231 -1102 0
-226 -1103 0
-227 -1106 0
-229 -1108 0
-230 -1110 0
-231 -1111 0
-226 -1112 0
-227 -1115 0
-228 -1117 0
-230 -1119 0
-231 -1120 0
-226 -1121 0
-229 -1125 0
-230 -1126 0
-231 -1127 0
-226 -1128 0
-228 -1131 0
-229 -1132 0
-230 -1134 0
-231 -1135 0
-226 -1146 0
-227 -1148 0
-229 -1149 0
-230 -1151 0
-231 -1152 0
-226 -1153 0
-228 -1156 0
-230 -1157 0
-231 -1158 0
-227 -1200 0
-230 -1203 0
-231 -1204 0
-230 -1209 0
-231 -1210 0
-228 -1214 0
-230 -1216 0
-231 -1217 0
-227 -1220 0
-229 -1222 0
-230 -1224 0
-231 -1225 0
-228 -1228 0
-229 -1229 0
-230 -1231 0
-231 -1232 0
-227 -1236 0
-230 -1238 0
-231 -1239 0
-230 -1244 0
-231 -1245 0
-228 -1249 0
-230 -1251 0
-231 -1252 0
-227 -1256 0
-229 -1258 0
-230 -1259 0
-231 -1260 0
-228 -1264 0
-229 -1265 0
-230 -1266 0
-231 -1267 0
-229 -1271 0
-230 -1273 0
-231 -1274 0
-227 -1277 0
-228 -1278 0
-230 -1279 0
-231 -1280 0
-227 -1283 0
-229 -1284 0
-230 -1285 0
-231 -1286 0
-228 -1290 0
-230 -1292 0
-231 -1293 0
-226 -1352 0
-227 -1354 0
-228 -1356 0
-229 -1357 0
-230 -1358 0
-231 -1359 0
-226 -1360 0
-228 -1363 0
-230 -1365 0
-231 -1366 0
-226 -1374 0
-227 -1375 0
-228 -1376 0
-229 -1377 0
-230 -1378 0
-231 -1379 0
-226 -1380 0
-229 -1382 0
-230 -1384 0
-231 -1385 0
-228 -1417 0
-229 -1418 0
-230 -1420 0
-231 -1421 0
-227 -1423 0
-228 -1425 0
-230 -1426 0
-231 -1427 0
-228 -1431 0
-229 -1432 0
-230 -1434 0
-231 -1435 0
-229 -1438 0
-230 -1440 0
-231 -1441 0
-227 -1444 0
-228 -1445 0
-229 -1446 0
-230 -1448 0
-231 -1449 0
-229 -1453 0
-230 -1455 0
-231 -1456 0
-227 -1525 0
-228 -1527 0
-229 -1528 0
-230 -1530 0
-231 -1531 0
-226 -1533 0
-227 -1536 0
-228 -1538 0
-229 -1539 0
-230 -1541 0
-231 -1542 0
-226 -1543 0
-229 -1546 0
-230 -1547 0
-231 -1548 0
-226 -1549 0
-227 -1551 0
-230 -1554 0
-231 -1555 0
-226 -1556 0
-228 -1559 0
-229 -1560 0
-230 -1561 0
-231 -1562 0
-229 -1587 0
-230 -1588 0
-231 -1589 0
-228 -1609 0
-230 -1610 0
-231 -1611 0
-227 -1614 0
-228 -1616 0
-230 -1618 0
-231 -1619 0
-227 -1623 0
-230 -1625 0
-231 -1626 0
-228 -1631 0
-229 -1632 0
-230 -1634 0
-231 -1635 0
-226 -1662 0
-227 -1664 0
-229 -1666 0
-230 -1668 0
-231 -1669 0
-226 -1670 0
-228 -1672 0
-229 -1673 0
-230 -1675 0
-231 -1676 0
-226 -1677 0
-227 -1679 0
-229 -1680 0
-230 -1682 0
-231 -1683 0
-226 -1684 0
-227 -1686 0
-228 -1688 0
-229 -1689 0
-230 -1690 0
-231 -1691 0
-226 -1692 0
-227 -1694 0
-229 -1695 0
-230 -1697 0
-231 -1698 0
-226 -1707 0
-227 -1708 0
-228 -1710 0
-230 -1712 0
-231 -1713 0
-226 -1714 0
-227 -1715 0
-228 -1716 0
-229 -1717 0
-230 -1718 0
-231 -1719 0
-227 -1752 0
-229 -1753 0
-230 -1755 0
-231 -1756 0
-228 -1759 0
-229 -1760 0
-230 -1762 0
-231 -1763 0
-228 -1767 0
-229 -1768 0
-230 -1770 0
-231 -1771 0
-227 -1774 0
-228 -1775 0
-229 -1776 0
-230 -1777 0
-231 -1778 0
-227 -1782 0
-229 -1784 0
-230 -1786 0
-231 -1787 0
-228 -1791 0
-229 -1792 0
-230 -1793 0
-231 -1794 0
-227 -1797 0
-228 -1799 0
-230 -1800 0
-231 -1801 0
-227 -1804 0
-228 -1806 0
-230 -1808 0
-231 -1809 0
-228 -1813 0
-229 -1814 0
-230 -1815 0
-231 -1816 0
-227 -1819 0
-228 -1821 0
-230 -1822 0
-231 -1823 0
-227 -1826 0
-228 -1827 0
-229 -1828 0
-230 -1830 0
-231 -1831 0
-227 -1833 0
-228 -1835 0
-229 -1836 0
-230 -1837 0
-231 -1838 0
-227 -1891 0
-229 -1893 0
-230 -1895 0
-231 -1896 0
-227 -1898 0
-228 -1899 0
-230 -1901 0
-231 -1902 0
-228 -1940 0
-229 -1941 0
-230 -1942 0
-231 -1943 0
-227 -1991 0
-228 -1993 0
-229 -1994 0
-230 -1996 0
-231 -1997 0
-232 -324 0
-233 -325 0
-236 -326 0
-237 -328 0
-239 -329 0
-240 -330 0
-232 -338 0
-235 -340 0
-236 -341 0
-237 -342 0
-239 -343 0
-240 -344 0
-232 -345 0
-233 -346 0
-234 -348 0
-235 -349 0
-236 -350 0
-237 -351 0
-239 -352 0
-240 -353 0
-232 -364 0
-233 -366 0
-234 -367 0
-236 -368 0
-237 -369 0
-239 -370 0
-240 -371 0
-232 -372 0
-233 -373 0
-234 -374 0
-235 -375 0
-239 -377 0
-240 -378 0
-232 -379 0
-234 -381 0
-235 -382 0
-239 -383 0
-240 -384 0
-233 -396 0
-234 -397 0
-235 -398 0
-237 -399 0
-239 -400 0
-240 -401 0
-232 -409 0
-234 -410 0
-236 -411 0
-237 -413 0
-239 -414 0
-240 -415 0
-234 -423 0
-235 -424 0
-236 -425 0
-239 -427 0
-240 -428 0
-232 -457 0
-233 -459 0
-236 -461 0
-237 -463 0
-238 -464 0
-239 -465 0
-240 -466 0
-232 -489 0
-233 -491 0
-238 -493 0
-239 -494 0
-240 -495 0
-232 -503 0
-235 -505 0
-238 -507 0
-239 -508 0
-240 -509 0
-233 -511 0
-234 -513 0
-235 -514 0
-238 -516 0
-239 -517 0
-240 -518 0
-233 -527 0
-234 -528 0
-237 -530 0
-238 -531 0
-239 -532 0
-240 -533 0
-234 -597 0
-236 -598 0
-238 -600 0
-239 -601 0
-240 -602 0
-232 -603 0
-235 -604 0
-236 -605 0
-238 -607 0
-239 -608 0
-240 -609 0
-232 -617 0
-233 -618 0
-234 -619 0
-236 -620 0
-237 -622 0
-238 -623 0
-239 -624 0
-240 -625 0
-232 -626 0
-234 -627 0
-235 -628 0
-237 -630 0
-238 -631 0
-239 -632 0
-240 -633 0
-233 -641 0
-234 -642 0
-235 -643 0
-238 -645 0
-239 -646 0
-240 -647 0
-232 -657 0
-233 -658 0
-236 -660 0
-238 -661 0
-239 -662 0
-240 -663 0
-232 -679 0
-233 -680 0
-237 -682 0
-238 -683 0
-239 -684 0
-240 -685 0
-232 -693 0
-235 -695 0
-237 -696 0
-238 -697 0
-239 -698 0
-240 -699 0
-233 -700 0
-234 -702 0
-235 -703 0
-237 -704 0
-238 -705 0
-239 -706 0
-240 -707 0
-233 -719 0
-234 -720 0
-238 -721 0
-239 -722 0
-240 -723 0
-234 -749 0
-236 -750 0
-237 -752 0
-238 -753 0
-239 -754 0
-240 -755 0
-232 -756 0
-233 -757 0
-235 -758 0
-236 -759 0
-239 -761 0
-240 -762 0
-233 -771 0
-234 -772 0
-235 -773 0
-236 -774 0
-237 -776 0
-239 -777 0
-240 -778 0
-233 -787 0
-235 -789 0
-236 -790 0
-238 -791 0
-239 -792 0
-240 -793 0
-233 -801 0
-236 -802 0
-237 -803 0
-238 -804 0
-239 -805 0
-240 -806 0
-233 -807 0
-235 -808 0
-237 -810 0
-238 -811 0
-239 -812 0
-240 -813 0
-233 -815 0
-235 -816 0
-237 -817 0
-238 -818 0
-239 -819 0
-240 -820 0
-233 -835 0
-236 -836 0
-238 -838 0
-239 -839 0
-240 -840 0
-232 -848 0
-235 -850 0
-236 -851 0
-239 -852 0
-240 -853 0
-232 -863 0
-234 -865 0
-236 -866 0
-239 -868 0
-240 -869 0
-232 -878 0
-234 -881 0
-235 -882 0
-236 -883 0
-237 -885 0
-239 -886 0
-240 -887 0
-232 -888 0
-234 -890 0
-237 -891 0
-239 -892 0
-240 -893 0
-232 -903 0
-234 -905 0
-235 -906 0
-239 -907 0
-240 -908 0
-234 -911 0
-239 -913 0
-240 -914 0
-232 -958 0
-235 -961 0
-236 -962 0
-238 -963 0
-239 -964 0
-240 -965 0
-232 -981 0
-235 -984 0
-237 -986 0
-238 -987 0
-239 -988 0
-240 -989 0
-234 -1001 0
-237 -1002 0
-238 -1003 0
-239 -1004 0
-240 -1005 0
-234 -1016 0
-235 -1017 0
-238 -1018 0
-239 -1019 0
-240 -1020 0
-232 -1089 0
-233 -1090 0
-236 -1092 0
-238 -1093 0
-239 -1094 0
-240 -1095 0
-232 -1103 0
-233 -1105 0
-235 -1106 0
-236 -1107 0
-237 -1108 0
-238 -1109 0
-239 -1110 0
-240 -1111 0
-232 -1112 0
-235 -1115 0
-236 -1116 0
-238 -1118 0
-239 -1119 0
-240 -1120 0
-232 -1128 0
-236 -1130 0
-237 -1132 0
-238 -1133 0
-239 -1134 0
-240 -1135 0
-233 -1137 0
-234 -1139 0
-236 -1140 0
-237 -1142 0
-238 -1143 0
-239 -1144 0
-240 -1145 0
-232 -1146 0
-235 -1148 0
-237 -1149 0
-238 -1150 0
-239 -1151 0
-240 -1152 0
-233 -1160 0
-234 -1161 0
-238 -1162 0
-239 -1163 0
-240 -1164 0
-234 -1173 0
-235 -1174 0
-238 -1176 0
-239 -1177 0
-240 -1178 0
-232 -1191 0
-235 -1192 0
-236 -1193 0
-238 -1195 0
-239 -1196 0
-240 -1197 0
-234 -1206 0
-236 -1207 0
-238 -1208 0
-239 -1209 0
-240 -1210 0
-234 -1219 0
-235 -1220 0
-236 -1221 0
-237 -1222 0
-238 -1223 0
-239 -1224 0
-240 -1225 0
-234 -1226 0
-236 -1227 0
-237 -1229 0
-238 -1230 0
-239 -1231 0
-240 -1232 0
-233 -1241 0
-236 -1243 0
-239 -1244 0
-240 -1245 0
-233 -1254 0
-235 -1256 0
-236 -1257 0
-237 -1258 0
-239 -1259 0
-240 -1260 0
-233 -1262 0
-237 -1265 0
-239 -1266 0
-240 -1267 0
-233 -1276 0
-235 -1277 0
-239 -1279 0
-240 -1280 0
-235 -1283 0
-237 -1284 0
-239 -1285 0
-240 -1286 0
-235 -1328 0
-236 -1329 0
-239 -1331 0
-240 -1332 0
-235 -1346 0
-236 -1347 0
-237 -1349 0
-239 -1350 0
-240 -1351 0
-232 -1352 0
-235 -1354 0
-236 -1355 0
-237 -1357 0
-239 -1358 0
-240 -1359 0
-233 -1367 0
-234 -1369 0
-236 -1370 0
-239 -1372 0
-240 -1373 0
-232 -1374 0
-235 -1375 0
-237 -1377 0
-239 -1378 0
-240 -1379 0
-233 -1386 0
-234 -1387 0
-237 -1389 0
-239 -1390 0
-240 -1391 0
-234 -1402 0
-235 -1403 0
-237 -1405 0
-239 -1406 0
-240 -1407 0
-234 -1422 0
-235 -1423 0
-236 -1424 0
-239 -1426 0
-240 -1427 0
-233 -1428 0
-236 -1430 0
-237 -1432 0
-238 -1433 0
-239 -1434 0
-240 -1435 0
-233 -1436 0
-237 -1438 0
-238 -1439 0
-239 -1440 0
-240 -1441 0
-235 -1444 0
-237 -1446 0
-238 -1447 0
-239 -1448 0
-240 -1449 0
-235 -1464 0
-236 -1465 0
-237 -1466 0
-238 -1467 0
-239 -1468 0
-240 -1469 0
-235 -1471 0
-236 -1472 0
-237 -1474 0
-238 -1475 0
-239 -1476 0
-240 -1477 0
-233 -1478 0
-236 -1479 0
-238 -1481 0
-239 -1482 0
-240 -1483 0
-233 -1492 0
-235 -1493 0
-236 -1494 0
-238 -1496 0
-239 -1497 0
-240 -1498 0
-235 -1525 0
-236 -1526 0
-237 -1528 0
-238 -1529 0
-239 -1530 0
-240 -1531 0
-232 -1543 0
-234 -1545 0
-237 -1546 0
-239 -1547 0
-240 -1548 0
-232 -1556 0
-234 -1557 0
-236 -1558 0
-237 -1560 0
-239 -1561 0
-240 -1562 0
-234 -1564 0
-235 -1565 0
-236 -1566 0
-237 -1567 0
-239 -1568 0
-240 -1569 0
-232 -1576 0
-237 -1579 0
-238 -1580 0
-239 -1581 0
-240 -1582 0
-232 -1598 0
-236 -1600 0
-238 -1602 0
-239 -1603 0
-240 -1604 0
-234 -1613 0
-235 -1614 0
-236 -1615 0
-238 -1617 0
-239 -1618 0
-240 -1619 0
-234 -1629 0
-236 -1630 0
-237 -1632 0
-238 -1633 0
-239 -1634 0
-240 -1635 0
-232 -1670 0
-233 -1671 0
-237 -1673 0
-238 -1674 0
-239 -1675 0
-240 -1676 0
-232 -1677 0
-235 -1679 0
-237 -1680 0
-238 -1681 0
-239 -1682 0
-240 -1683 0
-232 -1692 0
-235 -1694 0
-237 -1695 0
-238 -1696 0
-239 -1697 0
-240 -1698 0
-233 -1699 0
-234 -1701 0
-235 -1702 0
-237 -1703 0
-238 -1704 0
-239 -1705 0
-240 -1706 0
-232 -1707 0
-235 -1708 0
-236 -1709 0
-238 -1711 0
-239 -1712 0
-240 -1713 0
-233 -1720 0
-234 -1721 0
-235 -1722 0
-236 -1723 0
-237 -1725 0
-238 -1726 0
-239 -1727 0
-240 -1728 0
-234 -1737 0
-235 -1738 0
-236 -1739 0
-237 -1740 0
-238 -1741 0
-239 -1742 0
-240 -1743 0
-234 -1757 0
-236 -1758 0
-237 -1760 0
-238 -1761 0
-239 -1762 0
-240 -1763 0
-233 -1772 0
-235 -1774 0
-237 -1776 0
-239 -1777 0
-240 -1778 0
-233 -1789 0
-237 -1792 0
-239 -1793 0
-240 -1794 0
-233 -1795 0
-235 -1797 0
-236 -1798 0
-239 -1800 0
-240 -1801 0
-233 -1811 0
-236 -1812 0
-237 -1814 0
-239 -1815 0
-240 -1816 0
-235 -1819 0
-236 -1820 0
-239 -1822 0
-240 -1823 0
-235 -1833 0
-236 -1834 0
-237 -1836 0
-239 -1837 0
-240 -1838 0
-236 -1859 0
-237 -1861 0
-239 -1862 0
-240 -1863 0
-234 -1878 0
-235 -1879 0
-236 -1880 0
-239 -1882 0
-240 -1883 0
-235 -1891 0
-236 -1892 0
-237 -1893 0
-238 -1894 0
-239 -1895 0
-240 -1896 0
-233 -1903 0
-235 -1904 0
-237 -1906 0
-238 -1907 0
-239 -1908 0
-240 -1909 0
-234 -1925 0
-237 -1927 0
-238 -1928 0
-239 -1929 0
-240 -1930 0
-234 -1932 0
-236 -1933 0
-238 -1934 0
-239 -1935 0
-240 -1936 0
-236 -1939 0
-237 -1941 0
-239 -1942 0
-240 -1943 0
-233 -1944 0
-237 -1946 0
-238 -1947 0
-239 -1948 0
-240 -1949 0
-235 -1959 0
-237 -1961 0
-238 -1962 0
-239 -1963 0
-240 -1964 0
-235 -1979 0
-236 -1980 0
-238 -1981 0
-239 -1982 0
-240 -1983 0
-235 -1991 0
-236 -1992 0
-237 -1994 0
-238 -1995 0
-239 -1996 0
-240 -1997 0
-241 -318 0
-242 -319 0
-244 -320 0
-246 -322 0
-247 -323 0
-241 -338 0
-244 -340 0
-246 -343 0
-247 -344 0
-241 -345 0
-242 -346 0
-243 -348 0
-244 -349 0
-246 -352 0
-247 -353 0
-241 -354 0
-242 -356 0
-243 -357 0
-244 -358 0
-245 -359 0
-246 -362 0
-247 -363 0
-241 -372 0
-242 -373 0
-243 -374 0
-244 -375 0
-245 -376 0
-246 -377 0
-247 -378 0
-241 -385 0
-243 -387 0
-244 -388 0
-245 -390 0
-246 -393 0
-247 -394 0
-242 -396 0
-243 -397 0
-244 -398 0
-246 -400 0
-247 -401 0
-241 -402 0
-243 -403 0
-244 -404 0
-246 -407 0
-247 -408 0
-243 -423 0
-244 -424 0
-245 -426 0
-246 -427 0
-247 -428 0
-241 -450 0
-242 -452 0
-244 -454 0
-246 -455 0
-247 -456 0
-241 -480 0
-242 -482 0
-244 -483 0
-245 -485 0
-246 -487 0
-247 -488 0
-241 -503 0
-244 -505 0
-245 -506 0
-246 -508 0
-247 -509 0
-242 -511 0
-243 -513 0
-244 -514 0
-245 -515 0
-246 -517 0
-247 -518 0
-242 -520 0
-243 -521 0
-244 -522 0
-246 -524 0
-247 -525 0
-243 -590 0
-244 -591 0
-245 -592 0
-246 -594 0
-247 -595 0
-241 -603 0
-244 -604 0
-245 -606 0
-246 -608 0
-247 -609 0
-241 -610 0
-242 -611 0
-243 -612 0
-244 -613 0
-245 -614 0
-246 -615 0
-247 -616 0
-241 -634 0
-243 -635 0
-244 -636 0
-246 -639 0
-247 -640 0
-242 -641 0
-243 -642 0
-244 -643 0
-245 -644 0
-246 -646 0
-247 -647 0
-241 -648 0
-242 -649 0
-244 -651 0
-245 -652 0
-246 -655 0
-247 -656 0
-241 -671 0
-242 -672 0
-244 -673 0
-246 -677 0
-247 -678 0
-241 -693 0
-244 -695 0
-246 -698 0
-247 -699 0
-242 -700 0
-243 -702 0
-244 -703 0
-246 -706 0
-247 -707 0
-242 -709 0
-243 -710 0
-244 -711 0
-245 -713 0
-246 -716 0
-247 -717 0
-243 -743 0
-244 -744 0
-246 -747 0
-247 -748 0
-241 -763 0
-242 -764 0
-244 -765 0
-246 -769 0
-247 -770 0
-242 -771 0
-243 -772 0
-244 -773 0
-245 -775 0
-246 -777 0
-247 -778 0
-242 -787 0
-244 -789 0
-246 -792 0
-247 -793 0
-242 -795 0
-244 -796 0
-245 -797 0
-246 -798 0
-247 -799 0
-242 -807 0
-244 -808 0
-245 -809 0
-246 -812 0
-247 -813 0
-242 -822 0
-244 -823 0
-245 -825 0
-246 -827 0
-247 -828 0
-242 -829 0
-244 -830 0
-246 -833 0
-247 -834 0
-241 -841 0
-245 -843 0
-246 -846 0
-247 -847 0
-241 -863 0
-243 -865 0
-245 -867 0
-246 -868 0
-247 -869 0
-241 -870 0
-243 -873 0
-245 -874 0
-246 -876 0
-247 -877 0
-241 -888 0
-243 -890 0
-246 -892 0
-247 -893 0
-241 -894 0
-243 -896 0
-245 -898 0
-246 -901 0
-247 -902 0
-243 -911 0
-245 -912 0
-246 -913 0
-247 -914 0
-241 -951 0
-245 -954 0
-246 -956 0
-247 -957 0
-241 -974 0
-246 -979 0
-247 -980 0
-243 -1001 0
-246 -1004 0
-247 -1005 0
-243 -1008 0
-245 -1010 0
-246 -1012 0
-247 -1013 0
-241 -1089 0
-242 -1090 0
-246 -1094 0
-247 -1095 0
-241 -1096 0
-242 -1098 0
-245 -1099 0
-246 -1101 0
-247 -1102 0
-241 -1121 0
-246 -1126 0
-247 -1127 0
-241 -1128 0
-245 -1131 0
-246 -1134 0
-247 -1135 0
-242 -1137 0
-243 -1139 0
-245 -1141 0
-246 -1144 0
-247 -1145 0
-241 -1153 0
-245 -1156 0
-246 -1157 0
-247 -1158 0
-242 -1160 0
-243 -1161 0
-246 -1163 0
-247 -1164 0
-243 -1180 0
-246 -1183 0
-247 -1184 0
-241 -1185 0
-246 -1189 0
-247 -1190 0
-243 -1206 0
-246 -1209 0
-247 -1210 0
-243 -1212 0
-245 -1214 0
-246 -1216 0
-247 -1217 0
-243 -1226 0
-245 -1228 0
-246 -1231 0
-247 -1232 0
-242 -1241 0
-246 -1244 0
-247 -1245 0
-242 -1247 0
-245 -1249 0
-246 -1251 0
-247 -1252 0
-242 -1262 0
-245 -1264 0
-246 -1266 0
-247 -1267 0
-242 -1269 0
-246 -1273 0
-247 -1274 0
-245 -1290 0
-246 -1292 0
-247 -1293 0
-246 -1324 0
-247 -1325 0
-245 -1340 0
-246 -1343 0
-247 -1344 0
-241 -1360 0
-245 -1363 0
-246 -1365 0
-247 -1366 0
-242 -1367 0
-243 -1369 0
-245 -1371 0
-246 -1372 0
-247 -1373 0
-241 -1380 0
-246 -1384 0
-247 -1385 0
-242 -1386 0
-243 -1387 0
-245 -1388 0
-246 -1390 0
-247 -1391 0
-243 -1409 0
-245 -1411 0
-246 -1413 0
-247 -1414 0
-243 -1415 0
-245 -1417 0
-246 -1420 0
-247 -1421 0
-242 -1428 0
-245 -1431 0
-246 -1434 0
-247 -1435 0
-242 -1436 0
-246 -1440 0
-247 -1441 0
-246 -1455 0
-247 -1456 0
-245 -1459 0
-246 -1461 0
-247 -1462 0
-242 -1478 0
-245 -1480 0
-246 -1482 0
-247 -1483 0
-242 -1500 0
-245 -1502 0
-246 -1504 0
-247 -1505 0
-241 -1533 0
-243 -1535 0
-244 -1536 0
-245 -1538 0
-246 -1541 0
-247 -1542 0
-241 -1549 0
-243 -1550 0
-244 -1551 0
-246 -1554 0
-247 -1555 0
-243 -1564 0
-244 -1565 0
-246 -1568 0
-247 -1569 0
-241 -1570 0
-244 -1572 0
-246 -1574 0
-247 -1575 0
-241 -1590 0
-244 -1592 0
-245 -1594 0
-246 -1596 0
-247 -1597 0
-243 -1613 0
-244 -1614 0
-245 -1616 0
-246 -1618 0
-247 -1619 0
-243 -1622 0
-244 -1623 0
-246 -1625 0
-247 -1626 0
-241 -1662 0
-242 -1663 0
-244 -1664 0
-246 -1668 0
-247 -1669 0
-241 -1684 0
-244 -1686 0
-245 -1688 0
-246 -1690 0
-247 -1691 0
-241 -1692 0
-244 -1694 0
-246 -1697 0
-247 -1698 0
-242 -1699 0
-243 -1701 0
-244 -1702 0
-246 -1705 0
-247 -1706 0
-241 -1714 0
-244 -1715 0
-245 -1716 0
-246 -1718 0
-247 -1719 0
-242 -1720 0
-243 -1721 0
-244 -1722 0
-245 -1724 0
-246 -1727 0
-247 -1728 0
-243 -1745 0
-244 -1746 0
-245 -1747 0
-246 -1749 0
-247 -1750 0
-243 -1751 0
-244 -1752 0
-246 -1755 0
-247 -1756 0
-242 -1772 0
-244 -1774 0
-245 -1775 0
-246 -1777 0
-247 -1778 0
-242 -1780 0
-244 -1782 0
-246 -1786 0
-247 -1787 0
-242 -1795 0
-244 -1797 0
-245 -1799 0
-246 -1800 0
-247 -1801 0
-242 -1803 0
-244 -1804 0
-245 -1806 0
-246 -1808 0
-247 -1809 0
-244 -1826 0
-245 -1827 0
-246 -1830 0
-247 -1831 0
-244 -1833 0
-245 -1835 0
-246 -1837 0
-247 -1838 0
-244 -1853 0
-245 -1854 0
-246 -1856 0
-247 -1857 0
-244 -1870 0
-245 -1872 0
-246 -1875 0
-247 -1876 0
-243 -1884 0
-244 -1885 0
-246 -1888 0
-247 -1889 0
-244 -1898 0
-245 -1899 0
-246 -1901 0
-247 -1902 0
-242 -1910 0
-244 -1911 0
-246 -1914 0
-247 -1915 0
-243 -1925 0
-245 -1926 0
-246 -1929 0
-247 -1930 0
-243 -1932 0
-246 -1935 0
-247 -1936 0
-245 -1940 0
-246 -1942 0
-247 -1943 0
-242 -1944 0
-246 -1948 0
-247 -1949 0
-246 -1970 0
-247 -1971 0
-245 -1985 0
-246 -1988 0
-247 -1989 0
-248 -324 0
-251 -328 0
-252 -329 0
-253 -330 0
-248 -331 0
-250 -333 0
-251 -334 0
-252 -336 0
-253 -337 0
-248 -364 0
-250 -367 0
-251 -369 0
-252 -370 0
-253 -371 0
-248 -372 0
-250 -374 0
-252 -377 0
-253 -378 0
-248 -385 0
-250 -387 0
-251 -391 0
-252 -393 0
-253 -394 0
-250 -397 0
-251 -399 0
-252 -400 0
-253 -401 0
-248 -442 0
-251 -447 0
-252 -448 0
-253 -449 0
-248 -489 0
-252 -494 0
-253 -495 0
-250 -498 0
-252 -501 0
-253 -502 0
-250 -528 0
-251 -530 0
-252 -532 0
-253 -533 0
-248 -617 0
-250 -619 0
-251 -622 0
-252 -624 0
-253 -625 0
-248 -634 0
-250 -635 0
-252 -639 0
-253 -640 0
-250 -642 0
-252 -646 0
-253 -647 0
-248 -679 0
-251 -682 0
-252 -684 0
-253 -685 0
-250 -687 0
-251 -689 0
-252 -691 0
-253 -692 0
-250 -720 0
-252 -722 0
-253 -723 0
-248 -763 0
-251 -767 0
-252 -769 0
-253 -770 0
-250 -772 0
-251 -776 0
-252 -777 0
-253 -778 0
-250 -780 0
-252 -784 0
-253 -785 0
-251 -803 0
-252 -805 0
-253 -806 0
-251 -810 0
-252 -812 0
-253 -813 0
-252 -827 0
-253 -828 0
-248 -848 0
-249 -849 0
-252 -852 0
-253 -853 0
-248 -854 0
-249 -856 0
-250 -857 0
-252 -861 0
-253 -862 0
-248 -878 0
-249 -880 0
-250 -881 0
-251 -885 0
-252 -886 0
-253 -887 0
-248 -888 0
-249 -889 0
-250 -890 0
-251 -891 0
-252 -892 0
-253 -893 0
-248 -894 0
-250 -896 0
-251 -899 0
-252 -901 0
-253 -902 0
-249 -910 0
-250 -911 0
-252 -913 0
-253 -914 0
-248 -923 0
-250 -924 0
-252 -928 0
-253 -929 0
-250 -938 0
-251 -940 0
-252 -942 0
-253 -943 0
-248 -981 0
-249 -983 0
-251 -986 0
-252 -988 0
-253 -989 0
-249 -992 0
-250 -993 0
-251 -996 0
-252 -997 0
-253 -998 0
-249 -1015 0
-250 -1016 0
-252 -1019 0
-253 -1020 0
-250 -1083 0
-251 -1086 0
-252 -1087 0
-253 -1088 0
-248 -1089 0
-249 -1091 0
-252 -1094 0
-253 -1095 0
-248 -1096 0
-252 -1101 0
-253 -1102 0
-248 -1121 0
-249 -1123 0
-251 -1125 0
-252 -1126 0
-253 -1127 0
-248 -1128 0
-251 -1132 0
-252 -1134 0
-253 -1135 0
-249 -1138 0
-250 -1139 0
-251 -1142 0
-252 -1144 0
-253 -1145 0
-248 -1146 0
-251 -1149 0
-252 -1151 0
-253 -1152 0
-249 -1166 0
-250 -1167 0
-252 -1170 0
-253 -1171 0
-250 -1173 0
-252 -1177 0
-253 -1178 0
-248 -1191 0
-252 -1196 0
-253 -1197 0
-250 -1199 0
-252 -1203 0
-253 -1204 0
-250 -1219 0
-251 -1222 0
-252 -1224 0
-253 -1225 0
-250 -1226 0
-251 -1229 0
-252 -1231 0
-253 -1232 0
-249 -1235 0
-252 -1238 0
-253 -1239 0
-249 -1255 0
-251 -1258 0
-252 -1259 0
-253 -1260 0
-249 -1263 0
-251 -1265 0
-252 -1266 0
-253 -1267 0
-251 -1271 0
-252 -1273 0
-253 -1274 0
-249 -1288 0
-252 -1292 0
-253 -1293 0
-252 -1317 0
-253 -1318 0
-251 -1349 0
-252 -1350 0
-253 -1351 0
-248 -1360 0
-249 -1361 0
-252 -1365 0
-253 -1366 0
-249 -1368 0
-250 -1369 0
-252 -1372 0
-253 -1373 0
-248 -1374 0
-251 -1377 0
-252 -1378 0
-253 -1379 0
-249 -1392 0
-250 -1393 0
-251 -1397 0
-252 -1399 0
-253 -1400 0
-250 -1402 0
-251 -1405 0
-252 -1406 0
-253 -1407 0
-250 -1422 0
-252 -1426 0
-253 -1427 0
-249 -1437 0
-251 -1438 0
-252 -1440 0
-253 -1441 0
-249 -1451 0
-251 -1453 0
-252 -1455 0
-253 -1456 0
-251 -1474 0
-252 -1476 0
-253 -1477 0
-249 -1485 0
-252 -1489 0
-253 -1490 0
-252 -1497 0
-253 -1498 0
-251 -1516 0
-252 -1517 0
-253 -1518 0
-248 -1543 0
-249 -1544 0
-250 -1545 0
-251 -1546 0
-252 -1547 0
-253 -1548 0
-248 -1549 0
-250 -1550 0
-252 -1554 0
-253 -1555 0
-249 -1563 0
-250 -1564 0
-251 -1567 0
-252 -1568 0
-253 -1569 0
-248 -1598 0
-249 -1599 0
-252 -1603 0
-253 -1604 0
-249 -1606 0
-250 -1607 0
-252 -1610 0
-253 -1611 0
-249 -1628 0
-250 -1629 0
-251 -1632 0
-252 -1634 0
-253 -1635 0
-250 -1656 0
-252 -1660 0
-253 -1661 0
-248 -1662 0
-251 -1666 0
-252 -1668 0
-253 -1669 0
-248 -1684 0
-249 -1685 0
-251 -1689 0
-252 -1690 0
-253 -1691 0
-248 -1692 0
-251 -1695 0
-252 -1697 0
-253 -1698 0
-249 -1700 0
-250 -1701 0
-251 -1703 0
-252 -1705 0
-253 -1706 0
-248 -1707 0
-252 -1712 0
-253 -1713 0
-249 -1729 0
-250 -1730 0
-251 -1733 0
-252 -1734 0
-253 -1735 0
-250 -1737 0
-251 -1740 0
-252 -1742 0
-253 -1743 0
-250 -1757 0
-251 -1760 0
-252 -1762 0
-253 -1763 0
-249 -1765 0
-251 -1768 0
-252 -1770 0
-253 -1771 0
-249 -1790 0
-251 -1792 0
-252 -1793 0
-253 -1794 0
-249 -1796 0
-252 -1800 0
-253 -1801 0
-252 -1808 0
-253 -1809 0
-249 -1825 0
-251 -1828 0
-252 -1830 0
-253 -1831 0
-251 -1836 0
-252 -1837 0
-253 -1838 0
-251 -1848 0
-252 -1850 0
-253 -1851 0
-250 -1878 0
-252 -1882 0
-253 -1883 0
-249 -1897 0
-252 -1901 0
-253 -1902 0
-251 -1906 0
-252 -1908 0
-253 -1909 0
-249 -1924 0
-250 -1925 0
-251 -1927 0
-252 -1929 0
-253 -1930 0
-249 -1938 0
-251 -1941 0
-252 -1942 0
-253 -1943 0
-249 -1950 0
-251 -1953 0
-252 -1955 0
-253 -1956 0
-249 -1958 0
-251 -1961 0
-252 -1963 0
-253 -1964 0
-254 -318 0
-257 -320 0
-260 -321 0
-261 -322 0
-262 -323 0
-254 -331 0
-256 -333 0
-260 -335 0
-261 -336 0
-262 -337 0
-254 -354 0
-256 -357 0
-257 -358 0
-259 -359 0
-260 -361 0
-261 -362 0
-262 -363 0
-254 -372 0
-256 -374 0
-257 -375 0
-259 -376 0
-261 -377 0
-262 -378 0
-254 -379 0
-256 -381 0
-257 -382 0
-261 -383 0
-262 -384 0
-256 -397 0
-257 -398 0
-261 -400 0
-262 -401 0
-254 -435 0
-258 -438 0
-260 -439 0
-261 -440 0
-262 -441 0
-254 -480 0
-257 -483 0
-258 -484 0
-259 -485 0
-261 -487 0
-262 -488 0
-256 -498 0
-258 -499 0
-259 -500 0
-261 -501 0
-262 -502 0
-256 -521 0
-257 -522 0
-258 -523 0
-261 -524 0
-262 -525 0
-254 -610 0
-256 -612 0
-257 -613 0
-259 -614 0
-261 -615 0
-262 -616 0
-254 -626 0
-256 -627 0
-257 -628 0
-259 -629 0
-260 -631 0
-261 -632 0
-262 -633 0
-256 -642 0
-257 -643 0
-259 -644 0
-260 -645 0
-261 -646 0
-262 -647 0
-254 -671 0
-257 -673 0
-258 -674 0
-260 -676 0
-261 -677 0
-262 -678 0
-256 -687 0
-258 -688 0
-260 -690 0
-261 -691 0
-262 -692 0
-256 -710 0
-257 -711 0
-258 -712 0
-259 -713 0
-260 -715 0
-261 -716 0
-262 -717 0
-254 -756 0
-257 -758 0
-258 -759 0
-259 -760 0
-261 -761 0
-262 -762 0
-256 -772 0
-257 -773 0
-258 -774 0
-259 -775 0
-261 -777 0
-262 -778 0
-256 -780 0
-257 -781 0
-258 -782 0
-260 -783 0
-261 -784 0
-262 -785 0
-257 -796 0
-259 -797 0
-261 -798 0
-262 -799 0
-257 -808 0
-259 -809 0
-260 -811 0
-261 -812 0
-262 -813 0
-257 -816 0
-260 -818 0
-261 -819 0
-262 -820 0
-254 -841 0
-255 -842 0
-259 -843 0
-260 -845 0
-261 -846 0
-262 -847 0
-254 -854 0
-255 -856 0
-256 -857 0
-257 -858 0
-259 -859 0
-260 -860 0
-261 -861 0
-262 -862 0
-254 -870 0
-255 -872 0
-256 -873 0
-259 -874 0
-260 -875 0
-261 -876 0
-262 -877 0
-254 -888 0
-255 -889 0
-256 -890 0
-261 -892 0
-262 -893 0
-254 -903 0
-256 -905 0
-257 -906 0
-261 -907 0
-262 -908 0
-255 -910 0
-256 -911 0
-259 -912 0
-261 -913 0
-262 -914 0
-254 -915 0
-256 -916 0
-257 -917 0
-259 -918 0
-260 -920 0
-261 -921 0
-262 -922 0
-256 -938 0
-257 -939 0
-260 -941 0
-261 -942 0
-262 -943 0
-254 -974 0
-255 -976 0
-258 -977 0
-261 -979 0
-262 -980 0
-255 -992 0
-256 -993 0
-257 -994 0
-258 -995 0
-261 -997 0
-262 -998 0
-255 -1007 0
-256 -1008 0
-258 -1009 0
-259 -1010 0
-261 -1012 0
-262 -1013 0
-256 -1075 0
-257 -1076 0
-258 -1077 0
-260 -1079 0
-261 -1080 0
-262 -1081 0
-254 -1089 0
-255 -1091 0
-258 -1092 0
-260 -1093 0
-261 -1094 0
-262 -1095 0
-254 -1103 0
-257 -1106 0
-258 -1107 0
-260 -1109 0
-261 -1110 0
-262 -1111 0
-254 -1112 0
-255 -1114 0
-257 -1115 0
-258 -1116 0
-259 -1117 0
-260 -1118 0
-261 -1119 0
-262 -1120 0
-254 -1128 0
-258 -1130 0
-259 -1131 0
-260 -1133 0
-261 -1134 0
-262 -1135 0
-255 -1138 0
-256 -1139 0
-258 -1140 0
-259 -1141 0
-260 -1143 0
-261 -1144 0
-262 -1145 0
-254 -1153 0
-258 -1155 0
-259 -1156 0
-261 -1157 0
-262 -1158 0
-255 -1166 0
-256 -1167 0
-257 -1168 0
-258 -1169 0
-261 -1170 0
-262 -1171 0
-256 -1180 0
-258 -1181 0
-261 -1183 0
-262 -1184 0
-254 -1185 0
-258 -1186 0
-260 -1188 0
-261 -1189 0
-262 -1190 0
-256 -1199 0
-257 -1200 0
-258 -1201 0
-260 -1202 0
-261 -1203 0
-262 -1204 0
-256 -1212 0
-258 -1213 0
-259 -1214 0
-260 -1215 0
-261 -1216 0
-262 -1217 0
-256 -1226 0
-258 -1227 0
-259 -1228 0
-260 -1230 0
-261 -1231 0
-262 -1232 0
-255 -1235 0
-257 -1236 0
-260 -1237 0
-261 -1238 0
-262 -1239 0
-255 -1248 0
-259 -1249 0
-260 -1250 0
-261 -1251 0
-262 -1252 0
-255 -1263 0
-259 -1264 0
-261 -1266 0
-262 -1267 0
-257 -1277 0
-259 -1278 0
-261 -1279 0
-262 -1280 0
-255 -1282 0
-257 -1283 0
-261 -1285 0
-262 -1286 0
-257 -1306 0
-260 -1308 0
-261 -1309 0
-262 -1310 0
-259 -1340 0
-260 -1342 0
-261 -1343 0
-262 -1344 0
-254 -1352 0
-255 -1353 0
-257 -1354 0
-258 -1355 0
-259 -1356 0
-261 -1358 0
-262 -1359 0
-255 -1368 0
-256 -1369 0
-258 -1370 0
-259 -1371 0
-261 -1372 0
-262 -1373 0
-254 -1380 0
-258 -1381 0
-260 -1383 0
-261 -1384 0
-262 -1385 0
-255 -1392 0
-256 -1393 0
-257 -1394 0
-258 -1395 0
-259 -1396 0
-260 -1398 0
-261 -1399 0
-262 -1400 0
-256 -1409 0
-258 -1410 0
-259 -1411 0
-260 -1412 0
-261 -1413 0
-262 -1414 0
-256 -1415 0
-258 -1416 0
-259 -1417 0
-260 -1419 0
-261 -1420 0
-262 -1421 0
-255 -1437 0
-260 -1439 0
-261 -1440 0
-262 -1441 0
-255 -1443 0
-257 -1444 0
-259 -1445 0
-260 -1447 0
-261 -1448 0
-262 -1449 0
-255 -1485 0
-257 -1486 0
-258 -1487 0
-259 -1488 0
-261 -1489 0
-262 -1490 0
-258 -1501 0
-259 -1502 0
-261 -1504 0
-262 -1505 0
-257 -1520 0
-258 -1521 0
-260 -1522 0
-261 -1523 0
-262 -1524 0
-257 -1525 0
-258 -1526 0
-259 -1527 0
-260 -1529 0
-261 -1530 0
-262 -1531 0
-254 -1533 0
-255 -1534 0
-256 -1535 0
-257 -1536 0
-258 -1537 0
-259 -1538 0
-260 -1540 0
-261 -1541 0
-262 -1542 0
-254 -1556 0
-256 -1557 0
-258 -1558 0
-259 -1559 0
-261 -1561 0
-262 -1562 0
-255 -1563 0
-256 -1564 0
-257 -1565 0
-258 -1566 0
-261 -1568 0
-262 -1569 0
-254 -1590 0
-255 -1591 0
-257 -1592 0
-258 -1593 0
-259 -1594 0
-261 -1596 0
-262 -1597 0
-255 -1606 0
-256 -1607 0
-258 -1608 0
-259 -1609 0
-261 -1610 0
-262 -1611 0
-255 -1621 0
-256 -1622 0
-257 -1623 0
-258 -1624 0
-261 -1625 0
-262 -1626 0
-256 -1649 0
-258 -1650 0
-259 -1651 0
-260 -1653 0
-261 -1654 0
-262 -1655 0
-254 -1670 0
-259 -1672 0
-260 -1674 0
-261 -1675 0
-262 -1676 0
-254 -1677 0
-255 -1678 0
-257 -1679 0
-260 -1681 0
-261 -1682 0
-262 -1683 0
-254 -1692 0
-257 -1694 0
-260 -1696 0
-261 -1697 0
-262 -1698 0
-255 -1700 0
-256 -1701 0
-257 -1702 0
-260 -1704 0
-261 -1705 0
-262 -1706 0
-254 -1714 0
-257 -1715 0
-259 -1716 0
-261 -1718 0
-262 -1719 0
-255 -1729 0
-256 -1730 0
-257 -1731 0
-259 -1732 0
-261 -1734 0
-262 -1735 0
-256 -1745 0
-257 -1746 0
-259 -1747 0
-261 -1749 0
-262 -1750 0
-256 -1751 0
-257 -1752 0
-260 -1754 0
-261 -1755 0
-262 -1756 0
-255 -1765 0
-258 -1766 0
-259 -1767 0
-260 -1769 0
-261 -1770 0
-262 -1771 0
-255 -1781 0
-257 -1782 0
-258 -1783 0
-260 -1785 0
-261 -1786 0
-262 -1787 0
-255 -1796 0
-257 -1797 0
-258 -1798 0
-259 -1799 0
-261 -1800 0
-262 -1801 0
-258 -1812 0
-259 -1813 0
-261 -1815 0
-262 -1816 0
-255 -1818 0
-257 -1819 0
-258 -1820 0
-259 -1821 0
-261 -1822 0
-262 -1823 0
-257 -1833 0
-258 -1834 0
-259 -1835 0
-261 -1837 0
-262 -1838 0
-258 -1840 0
-259 -1841 0
-260 -1842 0
-261 -1843 0
-262 -1844 0
-257 -1870 0
-258 -1871 0
-259 -1872 0
-260 -1874 0
-261 -1875 0
-262 -1876 0
-256 -1884 0
-257 -1885 0
-260 -1887 0
-261 -1888 0
-262 -1889 0
-255 -1890 0
-257 -1891 0
-258 -1892 0
-260 -1894 0
-261 -1895 0
-262 -1896 0
-257 -1911 0
-258 -1912 0
-261 -1914 0
-262 -1915 0
-257 -1917 0
-258 -1918 0
-259 -1919 0
-260 -1921 0
-261 -1922 0
-262 -1923 0
-255 -1924 0
-256 -1925 0
-259 -1926 0
-260 -1928 0
-261 -1929 0
-262 -1930 0
-255 -1938 0
-258 -1939 0
-259 -1940 0
-261 -1942 0
-262 -1943 0
-255 -1950 0
-257 -1951 0
-258 -1952 0
-260 -1954 0
-261 -1955 0
-262 -1956 0
-255 -1966 0
-258 -1967 0
-260 -1969 0
-261 -1970 0
-262 -1971 0
-257 -1991 0
-258 -1992 0
-259 -1993 0
-260 -1995 0
-261 -1996 0
-262 -1997 0
-263 -318 0
-266 -320 0
-267 -322 0
-268 -323 0
-263 -324 0
-267 -329 0
-268 -330 0
-263 -331 0
-265 -333 0
-267 -336 0
-268 -337 0
-263 -345 0
-265 -348 0
-266 -349 0
-267 -352 0
-268 -353 0
-263 -379 0
-264 -380 0
-265 -381 0
-266 -382 0
-267 -383 0
-268 -384 0
-263 -385 0
-264 -386 0
-265 -387 0
-266 -388 0
-267 -393 0
-268 -394 0
-264 -395 0
-265 -397 0
-266 -398 0
-267 -400 0
-268 -401 0
-265 -423 0
-266 -424 0
-267 -427 0
-268 -428 0
-263 -429 0
-267 -433 0
-268 -434 0
-263 -480 0
-264 -481 0
-266 -483 0
-267 -487 0
-268 -488 0
-263 -489 0
-264 -490 0
-267 -494 0
-268 -495 0
-264 -496 0
-265 -498 0
-267 -501 0
-268 -502 0
-264 -510 0
-265 -513 0
-266 -514 0
-267 -517 0
-268 -518 0
-265 -584 0
-267 -587 0
-268 -588 0
-263 -626 0
-265 -627 0
-266 -628 0
-267 -632 0
-268 -633 0
-263 -634 0
-265 -635 0
-266 -636 0
-267 -639 0
-268 -640 0
-265 -642 0
-266 -643 0
-267 -646 0
-268 -647 0
-263 -671 0
-266 -673 0
-267 -677 0
-268 -678 0
-263 -679 0
-267 -684 0
-268 -685 0
-265 -687 0
-267 -691 0
-268 -692 0
-265 -702 0
-266 -703 0
-267 -706 0
-268 -707 0
-263 -756 0
-266 -758 0
-267 -761 0
-268 -762 0
-263 -763 0
-266 -765 0
-267 -769 0
-268 -770 0
-265 -772 0
-266 -773 0
-267 -777 0
-268 -778 0
-266 -789 0
-267 -792 0
-268 -793 0
-264 -814 0
-266 -816 0
-267 -819 0
-268 -820 0
-264 -821 0
-266 -823 0
-267 -827 0
-268 -828 0
-263 -841 0
-267 -846 0
-268 -847 0
-263 -848 0
-266 -850 0
-267 -852 0
-268 -853 0
-263 -854 0
-265 -857 0
-266 -858 0
-267 -861 0
-268 -862 0
-263 -863 0
-265 -865 0
-267 -868 0
-268 -869 0
-263 -894 0
-264 -895 0
-265 -896 0
-267 -901 0
-268 -902 0
-263 -903 0
-264 -904 0
-265 -905 0
-266 -906 0
-267 -907 0
-268 -908 0
-264 -909 0
-265 -911 0
-267 -913 0
-268 -914 0
-265 -938 0
-266 -939 0
-267 -942 0
-268 -943 0
-263 -944 0
-266 -947 0
-267 -949 0
-268 -950 0
-263 -974 0
-264 -975 0
-267 -979 0
-268 -980 0
-263 -981 0
-264 -982 0
-266 -984 0
-267 -988 0
-268 -989 0
-264 -990 0
-265 -993 0
-266 -994 0
-267 -997 0
-268 -998 0
-264 -999 0
-265 -1001 0
-267 -1004 0
-268 -1005 0
-265 -1068 0
-266 -1069 0
-267 -1072 0
-268 -1073 0
-263 -1096 0
-264 -1097 0
-267 -1101 0
-268 -1102 0
-263 -1103 0
-264 -1104 0
-266 -1106 0
-267 -1110 0
-268 -1111 0
-263 -1112 0
-264 -1113 0
-266 -1115 0
-267 -1119 0
-268 -1120 0
-263 -1121 0
-264 -1122 0
-267 -1126 0
-268 -1127 0
-264 -1136 0
-265 -1139 0
-267 -1144 0
-268 -1145 0
-264 -1172 0
-265 -1173 0
-266 -1174 0
-267 -1177 0
-268 -1178 0
-264 -1179 0
-265 -1180 0
-267 -1183 0
-268 -1184 0
-263 -1185 0
-267 -1189 0
-268 -1190 0
-263 -1191 0
-266 -1192 0
-267 -1196 0
-268 -1197 0
-265 -1199 0
-266 -1200 0
-267 -1203 0
-268 -1204 0
-265 -1206 0
-267 -1209 0
-268 -1210 0
-264 -1233 0
-266 -1236 0
-267 -1238 0
-268 -1239 0
-264 -1240 0
-267 -1244 0
-268 -1245 0
-264 -1268 0
-267 -1273 0
-268 -1274 0
-264 -1275 0
-266 -1277 0
-267 -1279 0
-268 -1280 0
-264 -1281 0
-266 -1283 0
-267 -1285 0
-268 -1286 0
-264 -1287 0
-267 -1292 0
-268 -1293 0
-266 -1297 0
-267 -1302 0
-268 -1303 0
-264 -1339 0
-267 -1343 0
-268 -1344 0
-264 -1345 0
-266 -1346 0
-267 -1350 0
-268 -1351 0
-263 -1352 0
-266 -1354 0
-267 -1358 0
-268 -1359 0
-263 -1360 0
-267 -1365 0
-268 -1366 0
-265 -1369 0
-267 -1372 0
-268 -1373 0
-264 -1401 0
-265 -1402 0
-266 -1403 0
-267 -1406 0
-268 -1407 0
-264 -1408 0
-265 -1409 0
-267 -1413 0
-268 -1414 0
-267 -1434 0
-268 -1435 0
-264 -1442 0
-266 -1444 0
-267 -1448 0
-268 -1449 0
-264 -1450 0
-267 -1455 0
-268 -1456 0
-266 -1471 0
-267 -1476 0
-268 -1477 0
-264 -1491 0
-266 -1493 0
-267 -1497 0
-268 -1498 0
-264 -1499 0
-267 -1504 0
-268 -1505 0
-266 -1525 0
-267 -1530 0
-268 -1531 0
-263 -1549 0
-265 -1550 0
-266 -1551 0
-267 -1554 0
-268 -1555 0
-263 -1556 0
-265 -1557 0
-267 -1561 0
-268 -1562 0
-265 -1564 0
-266 -1565 0
-267 -1568 0
-268 -1569 0
-263 -1590 0
-266 -1592 0
-267 -1596 0
-268 -1597 0
-263 -1598 0
-267 -1603 0
-268 -1604 0
-265 -1607 0
-267 -1610 0
-268 -1611 0
-265 -1613 0
-266 -1614 0
-267 -1618 0
-268 -1619 0
-263 -1662 0
-266 -1664 0
-267 -1668 0
-268 -1669 0
-263 -1670 0
-267 -1675 0
-268 -1676 0
-263 -1677 0
-266 -1679 0
-267 -1682 0
-268 -1683 0
-263 -1684 0
-266 -1686 0
-267 -1690 0
-268 -1691 0
-265 -1701 0
-266 -1702 0
-267 -1705 0
-268 -1706 0
-264 -1736 0
-265 -1737 0
-266 -1738 0
-267 -1742 0
-268 -1743 0
-264 -1744 0
-265 -1745 0
-266 -1746 0
-267 -1749 0
-268 -1750 0
-267 -1770 0
-268 -1771 0
-266 -1774 0
-267 -1777 0
-268 -1778 0
-264 -1802 0
-266 -1804 0
-267 -1808 0
-268 -1809 0
-264 -1810 0
-267 -1815 0
-268 -1816 0
-264 -1817 0
-266 -1819 0
-267 -1822 0
-268 -1823 0
-264 -1824 0
-266 -1826 0
-267 -1830 0
-268 -1831 0
-266 -1870 0
-267 -1875 0
-268 -1876 0
-265 -1878 0
-266 -1879 0
-267 -1882 0
-268 -1883 0
-265 -1884 0
-266 -1885 0
-267 -1888 0
-268 -1889 0
-266 -1891 0
-267 -1895 0
-268 -1896 0
-266 -1898 0
-267 -1901 0
-268 -1902 0
-266 -1904 0
-267 -1908 0
-268 -1909 0
-266 -1911 0
-267 -1914 0
-268 -1915 0
-265 -1925 0
-267 -1929 0
-268 -1930 0
-264 -1957 0
-266 -1959 0
-267 -1963 0
-268 -1964 0
-264 -1965 0
-267 -1970 0
-268 -1971 0
-266 -1991 0
-267 -1996 0
-268 -1997 0
-269 -319 0
-272 -320 0
-273 -322 0
-274 -323 0
-269 -325 0
-273 -329 0
-274 -330 0
-272 -340 0
-273 -343 0
-274 -344 0
-269 -373 0
-271 -374 0
-272 -375 0
-273 -377 0
-274 -378 0
-271 -381 0
-272 -382 0
-273 -383 0
-274 -384 0
-271 -387 0
-272 -388 0
-273 -393 0
-274 -394 0
-269 -482 0
-272 -483 0
-273 -487 0
-274 -488 0
-269 -491 0
-273 -494 0
-274 -495 0
-272 -505 0
-273 -508 0
-274 -509 0
-272 -604 0
-273 -608 0
-274 -609 0
-271 -627 0
-272 -628 0
-273 -632 0
-274 -633 0
-271 -635 0
-272 -636 0
-273 -639 0
-274 -640 0
-269 -672 0
-272 -673 0
-273 -677 0
-274 -678 0
-269 -680 0
-273 -684 0
-274 -685 0
-272 -695 0
-273 -698 0
-274 -699 0
-269 -757 0
-272 -758 0
-273 -761 0
-274 -762 0
-269 -764 0
-272 -765 0
-273 -769 0
-274 -770 0
-269 -779 0
-271 -780 0
-272 -781 0
-273 -784 0
-274 -785 0
-269 -807 0
-272 -808 0
-273 -812 0
-274 -813 0
-269 -815 0
-272 -816 0
-273 -819 0
-274 -820 0
-269 -822 0
-272 -823 0
-273 -827 0
-274 -828 0
-270 -842 0
-273 -846 0
-274 -847 0
-270 -849 0
-272 -850 0
-273 -852 0
-274 -853 0
-270 -889 0
-271 -890 0
-273 -892 0
-274 -893 0
-271 -896 0
-273 -901 0
-274 -902 0
-271 -905 0
-272 -906 0
-273 -907 0
-274 -908 0
-270 -976 0
-273 -979 0
-274 -980 0
-270 -983 0
-272 -984 0
-273 -988 0
-274 -989 0
-269 -1090 0
-270 -1091 0
-273 -1094 0
-274 -1095 0
-269 -1098 0
-273 -1101 0
-274 -1102 0
-269 -1105 0
-272 -1106 0
-273 -1110 0
-274 -1111 0
-270 -1114 0
-272 -1115 0
-273 -1119 0
-274 -1120 0
-270 -1123 0
-273 -1126 0
-274 -1127 0
-273 -1134 0
-274 -1135 0
-269 -1160 0
-271 -1161 0
-273 -1163 0
-274 -1164 0
-270 -1166 0
-271 -1167 0
-272 -1168 0
-273 -1170 0
-274 -1171 0
-271 -1173 0
-272 -1174 0
-273 -1177 0
-274 -1178 0
-271 -1180 0
-273 -1183 0
-274 -1184 0
-273 -1189 0
-274 -1190 0
-272 -1192 0
-273 -1196 0
-274 -1197 0
-271 -1226 0
-273 -1231 0
-274 -1232 0
-269 -1262 0
-270 -1263 0
-273 -1266 0
-274 -1267 0
-269 -1269 0
-273 -1273 0
-274 -1274 0
-269 -1276 0
-272 -1277 0
-273 -1279 0
-274 -1280 0
-270 -1282 0
-272 -1283 0
-273 -1285 0
-274 -1286 0
-270 -1288 0
-273 -1292 0
-274 -1293 0
-273 -1343 0
-274 -1344 0
-272 -1346 0
-273 -1350 0
-274 -1351 0
-270 -1353 0
-272 -1354 0
-273 -1358 0
-274 -1359 0
-270 -1361 0
-273 -1365 0
-274 -1366 0
-269 -1386 0
-271 -1387 0
-273 -1390 0
-274 -1391 0
-270 -1392 0
-271 -1393 0
-272 -1394 0
-273 -1399 0
-274 -1400 0
-271 -1402 0
-272 -1403 0
-273 -1406 0
-274 -1407 0
-271 -1409 0
-273 -1413 0
-274 -1414 0
-269 -1436 0
-270 -1437 0
-273 -1440 0
-274 -1441 0
-270 -1443 0
-272 -1444 0
-273 -1448 0
-274 -1449 0
-270 -1451 0
-273 -1455 0
-274 -1456 0
-272 -1471 0
-273 -1476 0
-274 -1477 0
-269 -1478 0
-273 -1482 0
-274 -1483 0
-269 -1484 0
-270 -1485 0
-272 -1486 0
-273 -1489 0
-274 -1490 0
-269 -1492 0
-272 -1493 0
-273 -1497 0
-274 -1498 0
-269 -1500 0
-273 -1504 0
-274 -1505 0
-272 -1525 0
-273 -1530 0
-274 -1531 0
-271 -1550 0
-272 -1551 0
-273 -1554 0
-274 -1555 0
-271 -1557 0
-273 -1561 0
-274 -1562 0
-270 -1591 0
-272 -1592 0
-273 -1596 0
-274 -1597 0
-270 -1599 0
-273 -1603 0
-274 -1604 0
-269 -1663 0
-272 -1664 0
-273 -1668 0
-274 -1669 0
-269 -1671 0
-273 -1675 0
-274 -1676 0
-270 -1678 0
-272 -1679 0
-273 -1682 0
-274 -1683 0
-270 -1685 0
-272 -1686 0
-273 -1690 0
-274 -1691 0
-272 -1694 0
-273 -1697 0
-274 -1698 0
-269 -1720 0
-271 -1721 0
-272 -1722 0
-273 -1727 0
-274 -1728 0
-270 -1729 0
-271 -1730 0
-272 -1731 0
-273 -1734 0
-274 -1735 0
-271 -1737 0
-272 -1738 0
-273 -1742 0
-274 -1743 0
-271 -1745 0
-272 -1746 0
-273 -1749 0
-274 -1750 0
-269 -1795 0
-270 -1796 0
-272 -1797 0
-273 -1800 0
-274 -1801 0
-269 -1803 0
-272 -1804 0
-273 -1808 0
-274 -1809 0
-269 -1811 0
-273 -1815 0
-274 -1816 0
-270 -1818 0
-272 -1819 0
-273 -1822 0
-274 -1823 0
-270 -1825 0
-272 -1826 0
-273 -1830 0
-274 -1831 0
-272 -1833 0
-273 -1837 0
-274 -1838 0
-272 -1870 0
-273 -1875 0
-274 -1876 0
-271 -1878 0
-272 -1879 0
-273 -1882 0
-274 -1883 0
-271 -1884 0
-272 -1885 0
-273 -1888 0
-274 -1889 0
-270 -1890 0
-272 -1891 0
-273 -1895 0
-274 -1896 0
-270 -1897 0
-272 -1898 0
-273 -1901 0
-274 -1902 0
-269 -1903 0
-272 -1904 0
-273 -1908 0
-274 -1909 0
-269 -1910 0
-272 -1911 0
-273 -1914 0
-274 -1915 0
-270 -1931 0
-271 -1932 0
-273 -1935 0
-274 -1936 0
-270 -1938 0
-273 -1942 0
-274 -1943 0
-269 -1944 0
-270 -1945 0
-273 -1948 0
-274 -1949 0
-270 -1950 0
-272 -1951 0
-273 -1955 0
-274 -1956 0
-270 -1958 0
-272 -1959 0
-273 -1963 0
-274 -1964 0
-270 -1966 0
-273 -1970 0
-274 -1971 0
-272 -1991 0
-273 -1996 0
-274 -1997 0
-275 -324 0
-277 -326 0
-278 -327 0
-279 -328 0
-280 -329 0
-281 -330 0
-275 -331 0
-276 -333 0
-279 -334 0
-280 -336 0
-281 -337 0
-275 -338 0
-277 -341 0
-279 -342 0
-280 -343 0
-281 -344 0
-275 -345 0
-276 -348 0
-277 -350 0
-279 -351 0
-280 -352 0
-281 -353 0
-275 -354 0
-276 -357 0
-278 -359 0
-279 -360 0
-280 -362 0
-281 -363 0
-275 -385 0
-276 -387 0
-277 -389 0
-278 -390 0
-279 -391 0
-280 -393 0
-281 -394 0
-276 -397 0
-279 -399 0
-280 -400 0
-281 -401 0
-275 -409 0
-276 -410 0
-277 -411 0
-278 -412 0
-279 -413 0
-280 -414 0
-281 -415 0
-276 -417 0
-277 -418 0
-279 -419 0
-280 -421 0
-281 -422 0
-275 -442 0
-278 -446 0
-279 -447 0
-280 -448 0
-281 -449 0
-275 -457 0
-277 -461 0
-278 -462 0
-279 -463 0
-280 -465 0
-281 -466 0
-275 -467 0
-279 -470 0
-280 -471 0
-281 -472 0
-276 -476 0
-279 -477 0
-280 -478 0
-281 -479 0
-276 -528 0
-278 -529 0
-279 -530 0
-280 -532 0
-281 -533 0
-276 -576 0
-277 -578 0
-278 -579 0
-279 -580 0
-280 -581 0
-281 -582 0
-275 -603 0
-277 -605 0
-278 -606 0
-280 -608 0
-281 -609 0
-275 -610 0
-276 -612 0
-278 -614 0
-280 -615 0
-281 -616 0
-275 -634 0
-276 -635 0
-277 -637 0
-280 -639 0
-281 -640 0
-276 -642 0
-278 -644 0
-280 -646 0
-281 -647 0
-275 -657 0
-277 -660 0
-280 -662 0
-281 -663 0
-276 -666 0
-278 -667 0
-280 -669 0
-281 -670 0
-276 -720 0
-280 -722 0
-281 -723 0
-276 -737 0
-277 -739 0
-280 -741 0
-281 -742 0
-275 -756 0
-277 -759 0
-278 -760 0
-280 -761 0
-281 -762 0
-276 -780 0
-277 -782 0
-280 -784 0
-281 -785 0
-277 -790 0
-280 -792 0
-281 -793 0
-278 -797 0
-280 -798 0
-281 -799 0
-277 -824 0
-278 -825 0
-280 -827 0
-281 -828 0
-277 -836 0
-278 -837 0
-280 -839 0
-281 -840 0
-275 -848 0
-277 -851 0
-280 -852 0
-281 -853 0
-275 -854 0
-276 -857 0
-278 -859 0
-280 -861 0
-281 -862 0
-275 -863 0
-276 -865 0
-277 -866 0
-278 -867 0
-280 -868 0
-281 -869 0
-275 -870 0
-276 -873 0
-278 -874 0
-280 -876 0
-281 -877 0
-275 -903 0
-276 -905 0
-280 -907 0
-281 -908 0
-276 -911 0
-278 -912 0
-280 -913 0
-281 -914 0
-275 -923 0
-276 -924 0
-277 -926 0
-280 -928 0
-281 -929 0
-276 -931 0
-277 -933 0
-278 -934 0
-280 -936 0
-281 -937 0
-275 -958 0
-277 -962 0
-280 -964 0
-281 -965 0
-276 -969 0
-278 -971 0
-280 -972 0
-281 -973 0
-276 -1016 0
-280 -1019 0
-281 -1020 0
-276 -1062 0
-277 -1064 0
-280 -1065 0
-281 -1066 0
-275 -1089 0
-277 -1092 0
-280 -1094 0
-281 -1095 0
-275 -1096 0
-278 -1099 0
-280 -1101 0
-281 -1102 0
-275 -1112 0
-277 -1116 0
-278 -1117 0
-280 -1119 0
-281 -1120 0
-275 -1153 0
-277 -1155 0
-278 -1156 0
-280 -1157 0
-281 -1158 0
-276 -1161 0
-280 -1163 0
-281 -1164 0
-276 -1167 0
-277 -1169 0
-280 -1170 0
-281 -1171 0
-276 -1173 0
-278 -1175 0
-280 -1177 0
-281 -1178 0
-275 -1191 0
-277 -1193 0
-278 -1194 0
-280 -1196 0
-281 -1197 0
-276 -1199 0
-277 -1201 0
-280 -1203 0
-281 -1204 0
-276 -1206 0
-277 -1207 0
-280 -1209 0
-281 -1210 0
-276 -1212 0
-277 -1213 0
-278 -1214 0
-280 -1216 0
-281 -1217 0
-280 -1238 0
-281 -1239 0
-277 -1243 0
-280 -1244 0
-281 -1245 0
-278 -1249 0
-280 -1251 0
-281 -1252 0
-278 -1278 0
-280 -1279 0
-281 -1280 0
-277 -1289 0
-278 -1290 0
-280 -1292 0
-281 -1293 0
-277 -1314 0
-278 -1315 0
-280 -1317 0
-281 -1318 0
-277 -1329 0
-278 -1330 0
-280 -1331 0
-281 -1332 0
-277 -1335 0
-280 -1337 0
-281 -1338 0
-275 -1352 0
-277 -1355 0
-278 -1356 0
-279 -1357 0
-280 -1358 0
-281 -1359 0
-275 -1380 0
-277 -1381 0
-279 -1382 0
-280 -1384 0
-281 -1385 0
-276 -1387 0
-278 -1388 0
-279 -1389 0
-280 -1390 0
-281 -1391 0
-276 -1393 0
-277 -1395 0
-278 -1396 0
-279 -1397 0
-280 -1399 0
-281 -1400 0
-276 -1402 0
-278 -1404 0
-279 -1405 0
-280 -1406 0
-281 -1407 0
-276 -1415 0
-277 -1416 0
-278 -1417 0
-279 -1418 0
-280 -1420 0
-281 -1421 0
-277 -1430 0
-278 -1431 0
-279 -1432 0
-280 -1434 0
-281 -1435 0
-277 -1452 0
-279 -1453 0
-280 -1455 0
-281 -1456 0
-277 -1465 0
-279 -1466 0
-280 -1468 0
-281 -1469 0
-277 -1508 0
-279 -1509 0
-280 -1510 0
-281 -1511 0
-277 -1514 0
-278 -1515 0
-279 -1516 0
-280 -1517 0
-281 -1518 0
-277 -1526 0
-278 -1527 0
-279 -1528 0
-280 -1530 0
-281 -1531 0
-275 -1533 0
-276 -1535 0
-277 -1537 0
-278 -1538 0
-279 -1539 0
-280 -1541 0
-281 -1542 0
-275 -1556 0
-276 -1557 0
-277 -1558 0
-278 -1559 0
-279 -1560 0
-280 -1561 0
-281 -1562 0
-276 -1564 0
-277 -1566 0
-279 -1567 0
-280 -1568 0
-281 -1569 0
-275 -1576 0
-278 -1578 0
-279 -1579 0
-280 -1581 0
-281 -1582 0
-276 -1585 0
-277 -1586 0
-279 -1587 0
-280 -1588 0
-281 -1589 0
-276 -1629 0
-277 -1630 0
-278 -1631 0
-279 -1632 0
-280 -1634 0
-281 -1635 0
-276 -1643 0
-278 -1645 0
-279 -1646 0
-280 -1647 0
-281 -1648 0
-275 -1662 0
-277 -1665 0
-279 -1666 0
-280 -1668 0
-281 -1669 0
-275 -1677 0
-279 -1680 0
-280 -1682 0
-281 -1683 0
-275 -1714 0
-278 -1716 0
-279 -1717 0
-280 -1718 0
-281 -1719 0
-276 -1721 0
-277 -1723 0
-278 -1724 0
-279 -1725 0
-280 -1727 0
-281 -1728 0
-276 -1730 0
-278 -1732 0
-279 -1733 0
-280 -1734 0
-281 -1735 0
-276 -1737 0
-277 -1739 0
-279 -1740 0
-280 -1742 0
-281 -1743 0
-276 -1751 0
-279 -1753 0
-280 -1755 0
-281 -1756 0
-277 -1766 0
-278 -1767 0
-279 -1768 0
-280 -1770 0
-281 -1771 0
-278 -1775 0
-279 -1776 0
-280 -1777 0
-281 -1778 0
-277 -1783 0
-279 -1784 0
-280 -1786 0
-281 -1787 0
-277 -1812 0
-278 -1813 0
-279 -1814 0
-280 -1815 0
-281 -1816 0
-278 -1827 0
-279 -1828 0
-280 -1830 0
-281 -1831 0
-277 -1834 0
-278 -1835 0
-279 -1836 0
-280 -1837 0
-281 -1838 0
-278 -1847 0
-279 -1848 0
-280 -1850 0
-281 -1851 0
-277 -1859 0
-278 -1860 0
-279 -1861 0
-280 -1862 0
-281 -1863 0
-278 -1865 0
-279 -1866 0
-280 -1868 0
-281 -1869 0
-276 -1878 0
-277 -1880 0
-278 -1881 0
-280 -1882 0
-281 -1883 0
-278 -1899 0
-280 -1901 0
-281 -1902 0
-276 -1932 0
-277 -1933 0
-280 -1935 0
-281 -1936 0
-278 -1974 0
-280 -1976 0
-281 -1977 0
-277 -1980 0
-280 -1982 0
-281 -1983 0
-282 -318 0
-284 -320 0
-287 -321 0
-288 -322 0
-289 -323 0
-282 -331 0
-283 -333 0
-286 -334 0
-287 -335 0
-288 -336 0
-289 -337 0
-282 -338 0
-284 -340 0
-286 -342 0
-288 -343 0
-289 -344 0
-282 -345 0
-283 -348 0
-284 -349 0
-286 -351 0
-288 -352 0
-289 -353 0
-282 -364 0
-283 -367 0
-286 -369 0
-288 -370 0
-289 -371 0
-282 -379 0
-283 -381 0
-284 -382 0
-288 -383 0
-289 -384 0
-283 -397 0
-284 -398 0
-286 -399 0
-288 -400 0
-289 -401 0
-282 -402 0
-283 -403 0
-284 -404 0
-287 -406 0
-288 -407 0
-289 -408 0
-283 -417 0
-286 -419 0
-287 -420 0
-288 -421 0
-289 -422 0
-282 -435 0
-287 -439 0
-288 -440 0
-289 -441 0
-282 -450 0
-284 -454 0
-288 -455 0
-289 -456 0
-282 -467 0
-286 -470 0
-288 -471 0
-289 -472 0
-283 -476 0
-286 -477 0
-288 -478 0
-289 -479 0
-283 -521 0
-284 -522 0
-288 -524 0
-289 -525 0
-283 -570 0
-287 -571 0
-288 -572 0
-289 -573 0
-282 -603 0
-284 -604 0
-285 -606 0
-287 -607 0
-288 -608 0
-289 -609 0
-282 -617 0
-283 -619 0
-285 -621 0
-286 -622 0
-287 -623 0
-288 -624 0
-289 -625 0
-282 -626 0
-283 -627 0
-284 -628 0
-285 -629 0
-286 -630 0
-287 -631 0
-288 -632 0
-289 -633 0
-283 -642 0
-284 -643 0
-285 -644 0
-287 -645 0
-288 -646 0
-289 -647 0
-282 -648 0
-284 -651 0
-285 -652 0
-286 -653 0
-287 -654 0
-288 -655 0
-289 -656 0
-283 -666 0
-285 -667 0
-287 -668 0
-288 -669 0
-289 -670 0
-283 -710 0
-284 -711 0
-285 -713 0
-286 -714 0
-287 -715 0
-288 -716 0
-289 -717 0
-283 -731 0
-285 -732 0
-286 -733 0
-288 -734 0
-289 -735 0
-282 -763 0
-284 -765 0
-286 -767 0
-287 -768 0
-288 -769 0
-289 -770 0
-283 -780 0
-284 -781 0
-287 -783 0
-288 -784 0
-289 -785 0
-284 -789 0
-287 -791 0
-288 -792 0
-289 -793 0
-286 -803 0
-287 -804 0
-288 -805 0
-289 -806 0
-284 -816 0
-286 -817 0
-287 -818 0
-288 -819 0
-289 -820 0
-284 -830 0
-286 -832 0
-288 -833 0
-289 -834 0
-282 -841 0
-285 -843 0
-286 -844 0
-287 -845 0
-288 -846 0
-289 -847 0
-282 -854 0
-283 -857 0
-284 -858 0
-285 -859 0
-287 -860 0
-288 -861 0
-289 -862 0
-282 -863 0
-283 -865 0
-285 -867 0
-288 -868 0
-289 -869 0
-282 -878 0
-283 -881 0
-284 -882 0
-285 -884 0
-286 -885 0
-288 -886 0
-289 -887 0
-282 -894 0
-283 -896 0
-285 -898 0
-286 -899 0
-287 -900 0
-288 -901 0
-289 -902 0
-283 -911 0
-285 -912 0
-288 -913 0
-289 -914 0
-282 -915 0
-283 -916 0
-284 -917 0
-285 -918 0
-286 -919 0
-287 -920 0
-288 -921 0
-289 -922 0
-283 -931 0
-284 -932 0
-285 -934 0
-287 -935 0
-288 -936 0
-289 -937 0
-282 -951 0
-285 -954 0
-286 -955 0
-288 -956 0
-289 -957 0
-283 -969 0
-284 -970 0
-285 -971 0
-288 -972 0
-289 -973 0
-283 -1008 0
-285 -1010 0
-286 -1011 0
-288 -1012 0
-289 -1013 0
-283 -1053 0
-284 -1054 0
-285 -1055 0
-286 -1056 0
-287 -1057 0
-288 -1058 0
-289 -1059 0
-282 -1089 0
-287 -1093 0
-288 -1094 0
-289 -1095 0
-282 -1103 0
-284 -1106 0
-286 -1108 0
-287 -1109 0
-288 -1110 0
-289 -1111 0
-282 -1121 0
-286 -1125 0
-288 -1126 0
-289 -1127 0
-282 -1146 0
-284 -1148 0
-286 -1149 0
-287 -1150 0
-288 -1151 0
-289 -1152 0
-283 -1161 0
-287 -1162 0
-288 -1163 0
-289 -1164 0
-283 -1167 0
-284 -1168 0
-288 -1170 0
-289 -1171 0
-283 -1180 0
-286 -1182 0
-288 -1183 0
-289 -1184 0
-282 -1185 0
-286 -1187 0
-287 -1188 0
-288 -1189 0
-289 -1190 0
-283 -1199 0
-284 -1200 0
-287 -1202 0
-288 -1203 0
-289 -1204 0
-283 -1206 0
-287 -1208 0
-288 -1209 0
-289 -1210 0
-283 -1219 0
-284 -1220 0
-286 -1222 0
-287 -1223 0
-288 -1224 0
-289 -1225 0
-284 -1236 0
-287 -1237 0
-288 -1238 0
-289 -1239 0
-288 -1244 0
-289 -1245 0
-284 -1256 0
-286 -1258 0
-288 -1259 0
-289 -1260 0
-286 -1271 0
-287 -1272 0
-288 -1273 0
-289 -1274 0
-284 -1283 0
-286 -1284 0
-288 -1285 0
-289 -1286 0
-284 -1306 0
-286 -1307 0
-287 -1308 0
-288 -1309 0
-289 -1310 0
-286 -1322 0
-287 -1323 0
-288 -1324 0
-289 -1325 0
-284 -1334 0
-287 -1336 0
-288 -1337 0
-289 -1338 0
-282 -1360 0
-285 -1363 0
-287 -1364 0
-288 -1365 0
-289 -1366 0
-282 -1374 0
-284 -1375 0
-285 -1376 0
-286 -1377 0
-288 -1378 0
-289 -1379 0
-283 -1387 0
-285 -1388 0
-286 -1389 0
-288 -1390 0
-289 -1391 0
-283 -1393 0
-284 -1394 0
-285 -1396 0
-286 -1397 0
-287 -1398 0
-288 -1399 0
-289 -1400 0
-283 -1409 0
-285 -1411 0
-287 -1412 0
-288 -1413 0
-289 -1414 0
-283 -1422 0
-284 -1423 0
-285 -1425 0
-288 -1426 0
-289 -1427 0
-285 -1431 0
-286 -1432 0
-287 -1433 0
-288 -1434 0
-289 -1435 0
-284 -1444 0
-285 -1445 0
-286 -1446 0
-287 -1447 0
-288 -1448 0
-289 -1449 0
-285 -1459 0
-286 -1460 0
-288 -1461 0
-289 -1462 0
-284 -1507 0
-286 -1509 0
-288 -1510 0
-289 -1511 0
-284 -1520 0
-287 -1522 0
-288 -1523 0
-289 -1524 0
-282 -1543 0
-283 -1545 0
-286 -1546 0
-288 -1547 0
-289 -1548 0
-282 -1549 0
-283 -1550 0
-284 -1551 0
-287 -1553 0
-288 -1554 0
-289 -1555 0
-283 -1564 0
-284 -1565 0
-286 -1567 0
-288 -1568 0
-289 -1569 0
-282 -1570 0
-284 -1572 0
-288 -1574 0
-289 -1575 0
-283 -1585 0
-286 -1587 0
-288 -1588 0
-289 -1589 0
-283 -1622 0
-284 -1623 0
-288 -1625 0
-289 -1626 0
-283 -1637 0
-287 -1639 0
-288 -1640 0
-289 -1641 0
-282 -1670 0
-285 -1672 0
-286 -1673 0
-287 -1674 0
-288 -1675 0
-289 -1676 0
-282 -1684 0
-284 -1686 0
-285 -1688 0
-286 -1689 0
-288 -1690 0
-289 -1691 0
-282 -1707 0
-284 -1708 0
-285 -1710 0
-287 -1711 0
-288 -1712 0
-289 -1713 0
-283 -1721 0
-284 -1722 0
-285 -1724 0
-286 -1725 0
-287 -1726 0
-288 -1727 0
-289 -1728 0
-283 -1730 0
-284 -1731 0
-285 -1732 0
-286 -1733 0
-288 -1734 0
-289 -1735 0
-283 -1745 0
-284 -1746 0
-285 -1747 0
-286 -1748 0
-288 -1749 0
-289 -1750 0
-283 -1757 0
-285 -1759 0
-286 -1760 0
-287 -1761 0
-288 -1762 0
-289 -1763 0
-285 -1767 0
-286 -1768 0
-287 -1769 0
-288 -1770 0
-289 -1771 0
-284 -1774 0
-285 -1775 0
-286 -1776 0
-288 -1777 0
-289 -1778 0
-285 -1791 0
-286 -1792 0
-288 -1793 0
-289 -1794 0
-284 -1804 0
-285 -1806 0
-287 -1807 0
-288 -1808 0
-289 -1809 0
-284 -1819 0
-285 -1821 0
-288 -1822 0
-289 -1823 0
-284 -1833 0
-285 -1835 0
-286 -1836 0
-288 -1837 0
-289 -1838 0
-285 -1841 0
-287 -1842 0
-288 -1843 0
-289 -1844 0
-284 -1853 0
-285 -1854 0
-287 -1855 0
-288 -1856 0
-289 -1857 0
-285 -1865 0
-286 -1866 0
-287 -1867 0
-288 -1868 0
-289 -1869 0
-283 -1884 0
-284 -1885 0
-286 -1886 0
-287 -1887 0
-288 -1888 0
-289 -1889 0
-284 -1891 0
-286 -1893 0
-287 -1894 0
-288 -1895 0
-289 -1896 0
-284 -1917 0
-285 -1919 0
-286 -1920 0
-287 -1921 0
-288 -1922 0
-289 -1923 0
-283 -1932 0
-287 -1934 0
-288 -1935 0
-289 -1936 0
-284 -1973 0
-285 -1974 0
-287 -1975 0
-288 -1976 0
-289 -1977 0
-285 -1985 0
-286 -1986 0
-287 -1987 0
-288 -1988 0
-289 -1989 0
-284 -1991 0
-285 -1993 0
-286 -1994 0
-287 -1995 0
-288 -1996 0
-289 -1997 0
-290 -319 0
-292 -320 0
-296 -322 0
-297 -323 0
-290 -325 0
-293 -326 0
-294 -327 0
-295 -328 0
-296 -329 0
-297 -330 0
-290 -346 0
-291 -348 0
-292 -349 0
-293 -350 0
-295 -351 0
-296 -352 0
-297 -353 0
-290 -356 0
-291 -357 0
-292 -358 0
-294 -359 0
-295 -360 0
-296 -362 0
-297 -363 0
-290 -366 0
-291 -367 0
-293 -368 0
-295 -369 0
-296 -370 0
-297 -371 0
-291 -381 0
-292 -382 0
-296 -383 0
-297 -384 0
-291 -387 0
-292 -388 0
-293 -389 0
-294 -390 0
-295 -391 0
-296 -393 0
-297 -394 0
-291 -403 0
-292 -404 0
-293 -405 0
-296 -407 0
-297 -408 0
-291 -410 0
-293 -411 0
-294 -412 0
-295 -413 0
-296 -414 0
-297 -415 0
-290 -452 0
-292 -454 0
-296 -455 0
-297 -456 0
-290 -459 0
-293 -461 0
-294 -462 0
-295 -463 0
-296 -465 0
-297 -466 0
-290 -469 0
-295 -470 0
-296 -471 0
-297 -472 0
-292 -505 0
-294 -506 0
-296 -508 0
-297 -509 0
-293 -557 0
-294 -558 0
-296 -559 0
-297 -560 0
-290 -611 0
-291 -612 0
-292 -613 0
-294 -614 0
-296 -615 0
-297 -616 0
-290 -618 0
-291 -619 0
-293 -620 0
-294 -621 0
-295 -622 0
-296 -624 0
-297 -625 0
-291 -627 0
-292 -628 0
-294 -629 0
-295 -630 0
-296 -632 0
-297 -633 0
-291 -635 0
-292 -636 0
-293 -637 0
-296 -639 0
-297 -640 0
-290 -649 0
-292 -651 0
-294 -652 0
-295 -653 0
-296 -655 0
-297 -656 0
-290 -658 0
-293 -660 0
-296 -662 0
-297 -663 0
-292 -695 0
-295 -696 0
-296 -698 0
-297 -699 0
-293 -725 0
-295 -726 0
-296 -728 0
-297 -729 0
-290 -771 0
-291 -772 0
-292 -773 0
-293 -774 0
-294 -775 0
-295 -776 0
-296 -777 0
-297 -778 0
-290 -779 0
-291 -780 0
-292 -781 0
-293 -782 0
-296 -784 0
-297 -785 0
-290 -787 0
-292 -789 0
-293 -790 0
-296 -792 0
-297 -793 0
-290 -795 0
-292 -796 0
-294 -797 0
-296 -798 0
-297 -799 0
-290 -801 0
-293 -802 0
-295 -803 0
-296 -805 0
-297 -806 0
-290 -815 0
-292 -816 0
-295 -817 0
-296 -819 0
-297 -820 0
-290 -822 0
-292 -823 0
-293 -824 0
-294 -825 0
-296 -827 0
-297 -828 0
-290 -829 0
-292 -830 0
-293 -831 0
-295 -832 0
-296 -833 0
-297 -834 0
-290 -835 0
-293 -836 0
-294 -837 0
-296 -839 0
-297 -840 0
-294 -843 0
-295 -844 0
-296 -846 0
-297 -847 0
-292 -850 0
-293 -851 0
-296 -852 0
-297 -853 0
-291 -865 0
-293 -866 0
-294 -867 0
-296 -868 0
-297 -869 0
-291 -873 0
-294 -874 0
-296 -876 0
-297 -877 0
-291 -881 0
-292 -882 0
-293 -883 0
-294 -884 0
-295 -885 0
-296 -886 0
-297 -887 0
-294 -954 0
-295 -955 0
-296 -956 0
-297 -957 0
-292 -961 0
-293 -962 0
-296 -964 0
-297 -965 0
-290 -1090 0
-293 -1092 0
-296 -1094 0
-297 -1095 0
-290 -1098 0
-294 -1099 0
-296 -1101 0
-297 -1102 0
-290 -1105 0
-292 -1106 0
-293 -1107 0
-295 -1108 0
-296 -1110 0
-297 -1111 0
-290 -1137 0
-291 -1139 0
-293 -1140 0
-294 -1141 0
-295 -1142 0
-296 -1144 0
-297 -1145 0
-292 -1148 0
-295 -1149 0
-296 -1151 0
-297 -1152 0
-293 -1155 0
-294 -1156 0
-296 -1157 0
-297 -1158 0
-291 -1167 0
-292 -1168 0
-293 -1169 0
-296 -1170 0
-297 -1171 0
-291 -1173 0
-292 -1174 0
-294 -1175 0
-296 -1177 0
-297 -1178 0
-291 -1180 0
-293 -1181 0
-295 -1182 0
-296 -1183 0
-297 -1184 0
-293 -1186 0
-295 -1187 0
-296 -1189 0
-297 -1190 0
-292 -1192 0
-293 -1193 0
-294 -1194 0
-296 -1196 0
-297 -1197 0
-291 -1206 0
-293 -1207 0
-296 -1209 0
-297 -1210 0
-291 -1212 0
-293 -1213 0
-294 -1214 0
-296 -1216 0
-297 -1217 0
-291 -1219 0
-292 -1220 0
-293 -1221 0
-295 -1222 0
-296 -1224 0
-297 -1225 0
-290 -1241 0
-293 -1243 0
-296 -1244 0
-297 -1245 0
-290 -1247 0
-294 -1249 0
-296 -1251 0
-297 -1252 0
-290 -1254 0
-292 -1256 0
-293 -1257 0
-295 -1258 0
-296 -1259 0
-297 -1260 0
-292 -1283 0
-295 -1284 0
-296 -1285 0
-297 -1286 0
-293 -1289 0
-294 -1290 0
-296 -1292 0
-297 -1293 0
-293 -1321 0
-295 -1322 0
-296 -1324 0
-297 -1325 0
-292 -1328 0
-293 -1329 0
-294 -1330 0
-296 -1331 0
-297 -1332 0
-292 -1334 0
-293 -1335 0
-296 -1337 0
-297 -1338 0
-290 -1367 0
-291 -1369 0
-293 -1370 0
-294 -1371 0
-296 -1372 0
-297 -1373 0
-292 -1375 0
-294 -1376 0
-295 -1377 0
-296 -1378 0
-297 -1379 0
-293 -1381 0
-295 -1382 0
-296 -1384 0
-297 -1385 0
-291 -1393 0
-292 -1394 0
-293 -1395 0
-294 -1396 0
-295 -1397 0
-296 -1399 0
-297 -1400 0
-291 -1402 0
-292 -1403 0
-294 -1404 0
-295 -1405 0
-296 -1406 0
-297 -1407 0
-291 -1409 0
-293 -1410 0
-294 -1411 0
-296 -1413 0
-297 -1414 0
-291 -1415 0
-293 -1416 0
-294 -1417 0
-295 -1418 0
-296 -1420 0
-297 -1421 0
-291 -1422 0
-292 -1423 0
-293 -1424 0
-294 -1425 0
-296 -1426 0
-297 -1427 0
-290 -1428 0
-293 -1430 0
-294 -1431 0
-295 -1432 0
-296 -1434 0
-297 -1435 0
-292 -1444 0
-294 -1445 0
-295 -1446 0
-296 -1448 0
-297 -1449 0
-293 -1452 0
-295 -1453 0
-296 -1455 0
-297 -1456 0
-293 -1458 0
-294 -1459 0
-295 -1460 0
-296 -1461 0
-297 -1462 0
-292 -1464 0
-293 -1465 0
-295 -1466 0
-296 -1468 0
-297 -1469 0
-290 -1478 0
-293 -1479 0
-294 -1480 0
-296 -1482 0
-297 -1483 0
-290 -1506 0
-292 -1507 0
-293 -1508 0
-295 -1509 0
-296 -1510 0
-297 -1511 0
-291 -1535 0
-292 -1536 0
-293 -1537 0
-294 -1538 0
-295 -1539 0
-296 -1541 0
-297 -1542 0
-291 -1545 0
-295 -1546 0
-296 -1547 0
-297 -1548 0
-292 -1572 0
-293 -1573 0
-296 -1574 0
-297 -1575 0
-294 -1578 0
-295 -1579 0
-296 -1581 0
-297 -1582 0
-290 -1663 0
-292 -1664 0
-293 -1665 0
-295 -1666 0
-296 -1668 0
-297 -1669 0
-290 -1671 0
-294 -1672 0
-295 -1673 0
-296 -1675 0
-297 -1676 0
-290 -1699 0
-291 -1701 0
-292 -1702 0
-295 -1703 0
-296 -1705 0
-297 -1706 0
-292 -1708 0
-293 -1709 0
-294 -1710 0
-296 -1712 0
-297 -1713 0
-292 -1715 0
-294 -1716 0
-295 -1717 0
-296 -1718 0
-297 -1719 0
-291 -1730 0
-292 -1731 0
-294 -1732 0
-295 -1733 0
-296 -1734 0
-297 -1735 0
-291 -1737 0
-292 -1738 0
-293 -1739 0
-295 -1740 0
-296 -1742 0
-297 -1743 0
-291 -1745 0
-292 -1746 0
-294 -1747 0
-295 -1748 0
-296 -1749 0
-297 -1750 0
-291 -1751 0
-292 -1752 0
-295 -1753 0
-296 -1755 0
-297 -1756 0
-291 -1757 0
-293 -1758 0
-294 -1759 0
-295 -1760 0
-296 -1762 0
-297 -1763 0
-290 -1772 0
-292 -1774 0
-294 -1775 0
-295 -1776 0
-296 -1777 0
-297 -1778 0
-290 -1780 0
-292 -1782 0
-293 -1783 0
-295 -1784 0
-296 -1786 0
-297 -1787 0
-290 -1789 0
-294 -1791 0
-295 -1792 0
-296 -1793 0
-297 -1794 0
-292 -1819 0
-293 -1820 0
-294 -1821 0
-296 -1822 0
-297 -1823 0
-292 -1826 0
-294 -1827 0
-295 -1828 0
-296 -1830 0
-297 -1831 0
-292 -1833 0
-293 -1834 0
-294 -1835 0
-295 -1836 0
-296 -1837 0
-297 -1838 0
-292 -1853 0
-294 -1854 0
-296 -1856 0
-297 -1857 0
-293 -1859 0
-294 -1860 0
-295 -1861 0
-296 -1862 0
-297 -1863 0
-294 -1865 0
-295 -1866 0
-296 -1868 0
-297 -1869 0
-291 -1878 0
-292 -1879 0
-293 -1880 0
-294 -1881 0
-296 -1882 0
-297 -1883 0
-291 -1884 0
-292 -1885 0
-295 -1886 0
-296 -1888 0
-297 -1889 0
-292 -1891 0
-293 -1892 0
-295 -1893 0
-296 -1895 0
-297 -1896 0
-292 -1898 0
-294 -1899 0
-296 -1901 0
-297 -1902 0
-291 -1925 0
-294 -1926 0
-295 -1927 0
-296 -1929 0
-297 -1930 0
-290 -1944 0
-295 -1946 0
-296 -1948 0
-297 -1949 0
-292 -1973 0
-294 -1974 0
-296 -1976 0
-297 -1977 0
-292 -1979 0
-293 -1980 0
-296 -1982 0
-297 -1983 0
-294 -1985 0
-295 -1986 0
-296 -1988 0
-297 -1989 0
-292 -1991 0
-293 -1992 0
-294 -1993 0
-295 -1994 0
-296 -1996 0
-297 -1997 0
-302 -321 0
-303 -322 0
-304 -323 0
-300 -327 0
-301 -328 0
-303 -329 0
-304 -330 0
-299 -333 0
-301 -334 0
-302 -335 0
-303 -336 0
-304 -337 0
-301 -342 0
-303 -343 0
-304 -344 0
-299 -357 0
-300 -359 0
-301 -360 0
-302 -361 0
-303 -362 0
-304 -363 0
-299 -367 0
-301 -369 0
-303 -370 0
-304 -371 0
-302 -439 0
-303 -440 0
-304 -441 0
-300 -446 0
-301 -447 0
-303 -448 0
-304 -449 0
-301 -470 0
-303 -471 0
-304 -472 0
-300 -606 0
-302 -607 0
-303 -608 0
-304 -609 0
-299 -612 0
-300 -614 0
-303 -615 0
-304 -616 0
-299 -619 0
-300 -621 0
-301 -622 0
-302 -623 0
-303 -624 0
-304 -625 0
-300 -760 0
-303 -761 0
-304 -762 0
-301 -767 0
-302 -768 0
-303 -769 0
-304 -770 0
-299 -772 0
-300 -775 0
-301 -776 0
-303 -777 0
-304 -778 0
-300 -797 0
-303 -798 0
-304 -799 0
-301 -803 0
-302 -804 0
-303 -805 0
-304 -806 0
-298 -842 0
-300 -843 0
-301 -844 0
-302 -845 0
-303 -846 0
-304 -847 0
-298 -849 0
-303 -852 0
-304 -853 0
-298 -856 0
-299 -857 0
-300 -859 0
-302 -860 0
-303 -861 0
-304 -862 0
-298 -872 0
-299 -873 0
-300 -874 0
-302 -875 0
-303 -876 0
-304 -877 0
-298 -880 0
-299 -881 0
-300 -884 0
-301 -885 0
-303 -886 0
-304 -887 0
-299 -896 0
-300 -898 0
-301 -899 0
-302 -900 0
-303 -901 0
-304 -902 0
-299 -905 0
-303 -907 0
-304 -908 0
-299 -916 0
-300 -918 0
-301 -919 0
-302 -920 0
-303 -921 0
-304 -922 0
-299 -924 0
-302 -927 0
-303 -928 0
-304 -929 0
-298 -1091 0
-302 -1093 0
-303 -1094 0
-304 -1095 0
-298 -1114 0
-300 -1117 0
-302 -1118 0
-303 -1119 0
-304 -1120 0
-298 -1123 0
-301 -1125 0
-303 -1126 0
-304 -1127 0
-298 -1138 0
-299 -1139 0
-300 -1141 0
-301 -1142 0
-302 -1143 0
-303 -1144 0
-304 -1145 0
-301 -1149 0
-302 -1150 0
-303 -1151 0
-304 -1152 0
-300 -1156 0
-303 -1157 0
-304 -1158 0
-299 -1161 0
-302 -1162 0
-303 -1163 0
-304 -1164 0
-299 -1173 0
-300 -1175 0
-302 -1176 0
-303 -1177 0
-304 -1178 0
-299 -1180 0
-301 -1182 0
-303 -1183 0
-304 -1184 0
-301 -1187 0
-302 -1188 0
-303 -1189 0
-304 -1190 0
-300 -1194 0
-302 -1195 0
-303 -1196 0
-304 -1197 0
-299 -1199 0
-302 -1202 0
-303 -1203 0
-304 -1204 0
-299 -1212 0
-300 -1214 0
-302 -1215 0
-303 -1216 0
-304 -1217 0
-299 -1219 0
-301 -1222 0
-302 -1223 0
-303 -1224 0
-304 -1225 0
-298 -1235 0
-302 -1237 0
-303 -1238 0
-304 -1239 0
-298 -1248 0
-300 -1249 0
-302 -1250 0
-303 -1251 0
-304 -1252 0
-298 -1255 0
-301 -1258 0
-303 -1259 0
-304 -1260 0
-301 -1271 0
-302 -1272 0
-303 -1273 0
-304 -1274 0
-300 -1278 0
-303 -1279 0
-304 -1280 0
-301 -1307 0
-302 -1308 0
-303 -1309 0
-304 -1310 0
-300 -1315 0
-302 -1316 0
-303 -1317 0
-304 -1318 0
-302 -1336 0
-303 -1337 0
-304 -1338 0
-298 -1353 0
-300 -1356 0
-301 -1357 0
-303 -1358 0
-304 -1359 0
-298 -1361 0
-300 -1363 0
-302 -1364 0
-303 -1365 0
-304 -1366 0
-298 -1368 0
-299 -1369 0
-300 -1371 0
-303 -1372 0
-304 -1373 0
-300 -1376 0
-301 -1377 0
-303 -1378 0
-304 -1379 0
-301 -1382 0
-302 -1383 0
-303 -1384 0
-304 -1385 0
-299 -1387 0
-300 -1388 0
-301 -1389 0
-303 -1390 0
-304 -1391 0
-299 -1402 0
-300 -1404 0
-301 -1405 0
-303 -1406 0
-304 -1407 0
-299 -1409 0
-300 -1411 0
-302 -1412 0
-303 -1413 0
-304 -1414 0
-299 -1415 0
-300 -1417 0
-301 -1418 0
-302 -1419 0
-303 -1420 0
-304 -1421 0
-299 -1422 0
-300 -1425 0
-303 -1426 0
-304 -1427 0
-298 -1485 0
-300 -1488 0
-303 -1489 0
-304 -1490 0
-301 -1509 0
-303 -1510 0
-304 -1511 0
-300 -1515 0
-301 -1516 0
-303 -1517 0
-304 -1518 0
-302 -1522 0
-303 -1523 0
-304 -1524 0
-300 -1527 0
-301 -1528 0
-302 -1529 0
-303 -1530 0
-304 -1531 0
-298 -1534 0
-299 -1535 0
-300 -1538 0
-301 -1539 0
-302 -1540 0
-303 -1541 0
-304 -1542 0
-298 -1544 0
-299 -1545 0
-301 -1546 0
-303 -1547 0
-304 -1548 0
-299 -1550 0
-302 -1553 0
-303 -1554 0
-304 -1555 0
-299 -1557 0
-300 -1559 0
-301 -1560 0
-303 -1561 0
-304 -1562 0
-298 -1678 0
-301 -1680 0
-302 -1681 0
-303 -1682 0
-304 -1683 0
-298 -1685 0
-300 -1688 0
-301 -1689 0
-303 -1690 0
-304 -1691 0
-298 -1700 0
-299 -1701 0
-301 -1703 0
-302 -1704 0
-303 -1705 0
-304 -1706 0
-300 -1710 0
-302 -1711 0
-303 -1712 0
-304 -1713 0
-300 -1716 0
-301 -1717 0
-303 -1718 0
-304 -1719 0
-299 -1721 0
-300 -1724 0
-301 -1725 0
-302 -1726 0
-303 -1727 0
-304 -1728 0
-299 -1737 0
-301 -1740 0
-302 -1741 0
-303 -1742 0
-304 -1743 0
-299 -1745 0
-300 -1747 0
-301 -1748 0
-303 -1749 0
-304 -1750 0
-299 -1751 0
-301 -1753 0
-302 -1754 0
-303 -1755 0
-304 -1756 0
-299 -1757 0
-300 -1759 0
-301 -1760 0
-302 -1761 0
-303 -1762 0
-304 -1763 0
-298 -1765 0
-300 -1767 0
-301 -1768 0
-302 -1769 0
-303 -1770 0
-304 -1771 0
-298 -1781 0
-301 -1784 0
-302 -1785 0
-303 -1786 0
-304 -1787 0
-298 -1790 0
-300 -1791 0
-301 -1792 0
-303 -1793 0
-304 -1794 0
-300 -1806 0
-302 -1807 0
-303 -1808 0
-304 -1809 0
-300 -1813 0
-301 -1814 0
-303 -1815 0
-304 -1816 0
-300 -1835 0
-301 -1836 0
-303 -1837 0
-304 -1838 0
-300 -1841 0
-302 -1842 0
-303 -1843 0
-304 -1844 0
-300 -1847 0
-301 -1848 0
-302 -1849 0
-303 -1850 0
-304 -1851 0
-300 -1865 0
-301 -1866 0
-302 -1867 0
-303 -1868 0
-304 -1869 0
-299 -1878 0
-300 -1881 0
-303 -1882 0
-304 -1883 0
-299 -1884 0
-301 -1886 0
-302 -1887 0
-303 -1888 0
-304 -1889 0
-300 -1919 0
-301 -1920 0
-302 -1921 0
-303 -1922 0
-304 -1923 0
-298 -1924 0
-299 -1925 0
-300 -1926 0
-301 -1927 0
-302 -1928 0
-303 -1929 0
-304 -1930 0
-298 -1931 0
-299 -1932 0
-302 -1934 0
-303 -1935 0
-304 -1936 0
-298 -1950 0
-301 -1953 0
-302 -1954 0
-303 -1955 0
-304 -1956 0
-298 -1972 0
-300 -1974 0
-302 -1975 0
-303 -1976 0
-304 -1977 0
-309 -322 0
-310 -323 0
-306 -333 0
-308 -334 0
-309 -336 0
-310 -337 0
-305 -339 0
-307 -341 0
-308 -342 0
-309 -343 0
-310 -344 0
-306 -348 0
-307 -350 0
-308 -351 0
-309 -352 0
-310 -353 0
-305 -365 0
-306 -367 0
-307 -368 0
-308 -369 0
-309 -370 0
-310 -371 0
-306 -374 0
-309 -377 0
-310 -378 0
-305 -386 0
-306 -387 0
-307 -389 0
-308 -391 0
-309 -393 0
-310 -394 0
-306 -410 0
-307 -411 0
-308 -413 0
-309 -414 0
-310 -415 0
-309 -433 0
-310 -434 0
-305 -443 0
-308 -447 0
-309 -448 0
-310 -449 0
-305 -458 0
-307 -461 0
-308 -463 0
-309 -465 0
-310 -466 0
-305 -490 0
-309 -494 0
-310 -495 0
-307 -544 0
-309 -546 0
-310 -547 0
-307 -605 0
-309 -608 0
-310 -609 0
-306 -619 0
-307 -620 0
-308 -622 0
-309 -624 0
-310 -625 0
-306 -635 0
-307 -637 0
-309 -639 0
-310 -640 0
-307 -660 0
-309 -662 0
-310 -663 0
-308 -682 0
-309 -684 0
-310 -685 0
-307 -759 0
-309 -761 0
-310 -762 0
-306 -772 0
-307 -774 0
-308 -776 0
-309 -777 0
-310 -778 0
-306 -780 0
-307 -782 0
-309 -784 0
-310 -785 0
-307 -790 0
-309 -792 0
-310 -793 0
-305 -800 0
-307 -802 0
-308 -803 0
-309 -805 0
-310 -806 0
-308 -810 0
-309 -812 0
-310 -813 0
-305 -821 0
-307 -824 0
-309 -827 0
-310 -828 0
-307 -836 0
-309 -839 0
-310 -840 0
-308 -844 0
-309 -846 0
-310 -847 0
-306 -857 0
-309 -861 0
-310 -862 0
-306 -865 0
-307 -866 0
-309 -868 0
-310 -869 0
-305 -879 0
-306 -881 0
-307 -883 0
-308 -885 0
-309 -886 0
-310 -887 0
-306 -890 0
-308 -891 0
-309 -892 0
-310 -893 0
-305 -904 0
-306 -905 0
-309 -907 0
-310 -908 0
-306 -924 0
-307 -926 0
-309 -928 0
-310 -929 0
-308 -948 0
-309 -949 0
-310 -950 0
-305 -959 0
-307 -962 0
-309 -964 0
-310 -965 0
-305 -982 0
-308 -986 0
-309 -988 0
-310 -989 0
-307 -1031 0
-308 -1033 0
-309 -1034 0
-310 -1035 0
-305 -1097 0
-309 -1101 0
-310 -1102 0
-305 -1113 0
-307 -1116 0
-309 -1119 0
-310 -1120 0
-305 -1129 0
-307 -1130 0
-308 -1132 0
-309 -1134 0
-310 -1135 0
-305 -1136 0
-306 -1139 0
-307 -1140 0
-308 -1142 0
-309 -1144 0
-310 -1145 0
-305 -1147 0
-308 -1149 0
-309 -1151 0
-310 -1152 0
-305 -1159 0
-306 -1161 0
-309 -1163 0
-310 -1164 0
-305 -1165 0
-306 -1167 0
-307 -1169 0
-309 -1170 0
-310 -1171 0
-305 -1179 0
-306 -1180 0
-307 -1181 0
-308 -1182 0
-309 -1183 0
-310 -1184 0
-307 -1186 0
-308 -1187 0
-309 -1189 0
-310 -1190 0
-306 -1199 0
-307 -1201 0
-309 -1203 0
-310 -1204 0
-306 -1206 0
-307 -1207 0
-309 -1209 0
-310 -1210 0
-305 -1218 0
-306 -1219 0
-307 -1221 0
-308 -1222 0
-309 -1224 0
-310 -1225 0
-306 -1226 0
-307 -1227 0
-308 -1229 0
-309 -1231 0
-310 -1232 0
-305 -1233 0
-309 -1238 0
-310 -1239 0
-305 -1240 0
-307 -1243 0
-309 -1244 0
-310 -1245 0
-305 -1253 0
-307 -1257 0
-308 -1258 0
-309 -1259 0
-310 -1260 0
-305 -1261 0
-308 -1265 0
-309 -1266 0
-310 -1267 0
-305 -1275 0
-309 -1279 0
-310 -1280 0
-305 -1287 0
-307 -1289 0
-309 -1292 0
-310 -1293 0
-307 -1298 0
-308 -1300 0
-309 -1302 0
-310 -1303 0
-305 -1311 0
-307 -1314 0
-309 -1317 0
-310 -1318 0
-305 -1326 0
-307 -1329 0
-309 -1331 0
-310 -1332 0
-305 -1345 0
-307 -1347 0
-308 -1349 0
-309 -1350 0
-310 -1351 0
-307 -1355 0
-308 -1357 0
-309 -1358 0
-310 -1359 0
-306 -1369 0
-307 -1370 0
-309 -1372 0
-310 -1373 0
-308 -1377 0
-309 -1378 0
-310 -1379 0
-306 -1387 0
-308 -1389 0
-309 -1390 0
-310 -1391 0
-306 -1393 0
-307 -1395 0
-308 -1397 0
-309 -1399 0
-310 -1400 0
-305 -1408 0
-306 -1409 0
-307 -1410 0
-309 -1413 0
-310 -1414 0
-306 -1422 0
-307 -1424 0
-309 -1426 0
-310 -1427 0
-307 -1430 0
-308 -1432 0
-309 -1434 0
-310 -1435 0
-308 -1438 0
-309 -1440 0
-310 -1441 0
-305 -1450 0
-307 -1452 0
-308 -1453 0
-309 -1455 0
-310 -1456 0
-307 -1465 0
-308 -1466 0
-309 -1468 0
-310 -1469 0
-307 -1472 0
-308 -1474 0
-309 -1476 0
-310 -1477 0
-305 -1491 0
-307 -1494 0
-309 -1497 0
-310 -1498 0
-305 -1512 0
-307 -1514 0
-308 -1516 0
-309 -1517 0
-310 -1518 0
-307 -1526 0
-308 -1528 0
-309 -1530 0
-310 -1531 0
-306 -1545 0
-308 -1546 0
-309 -1547 0
-310 -1548 0
-306 -1557 0
-307 -1558 0
-308 -1560 0
-309 -1561 0
-310 -1562 0
-308 -1579 0
-309 -1581 0
-310 -1582 0
-307 -1600 0
-309 -1603 0
-310 -1604 0
-307 -1665 0
-308 -1666 0
-309 -1668 0
-310 -1669 0
-308 -1680 0
-309 -1682 0
-310 -1683 0
-305 -1693 0
-308 -1695 0
-309 -1697 0
-310 -1698 0
-306 -1701 0
-308 -1703 0
-309 -1705 0
-310 -1706 0
-307 -1709 0
-309 -1712 0
-310 -1713 0
-306 -1721 0
-307 -1723 0
-308 -1725 0
-309 -1727 0
-310 -1728 0
-306 -1730 0
-308 -1733 0
-309 -1734 0
-310 -1735 0
-305 -1744 0
-306 -1745 0
-308 -1748 0
-309 -1749 0
-310 -1750 0
-306 -1757 0
-307 -1758 0
-308 -1760 0
-309 -1762 0
-310 -1763 0
-307 -1766 0
-308 -1768 0
-309 -1770 0
-310 -1771 0
-308 -1776 0
-309 -1777 0
-310 -1778 0
-305 -1788 0
-308 -1792 0
-309 -1793 0
-310 -1794 0
-307 -1798 0
-309 -1800 0
-310 -1801 0
-305 -1810 0
-307 -1812 0
-308 -1814 0
-309 -1815 0
-310 -1816 0
-305 -1824 0
-308 -1828 0
-309 -1830 0
-310 -1831 0
-308 -1848 0
-309 -1850 0
-310 -1851 0
-307 -1859 0
-308 -1861 0
-309 -1862 0
-310 -1863 0
-306 -1884 0
-308 -1886 0
-309 -1888 0
-310 -1889 0
-309 -1901 0
-310 -1902 0
-308 -1906 0
-309 -1908 0
-310 -1909 0
-306 -1925 0
-308 -1927 0
-309 -1929 0
-310 -1930 0
-306 -1932 0
-307 -1933 0
-309 -1935 0
-310 -1936 0
-307 -1939 0
-308 -1941 0
-309 -1942 0
-310 -1943 0
-305 -1957 0
-308 -1961 0
-309 -1963 0
-310 -1964 0
-305 -1978 0
-307 -1980 0
-309 -1982 0
-310 -1983 0
-314 -327 0
-316 -329 0
-317 -330 0
-312 -333 0
-315 -335 0
-316 -336 0
-317 -337 0
-311 -339 0
-313 -340 0
-316 -343 0
-317 -344 0
-312 -348 0
-313 -349 0
-316 -352 0
-317 -353 0
-311 -355 0
-312 -357 0
-313 -358 0
-314 -359 0
-315 -361 0
-316 -362 0
-317 -363 0
-312 -374 0
-313 -375 0
-314 -376 0
-316 -377 0
-317 -378 0
-311 -380 0
-312 -381 0
-313 -382 0
-316 -383 0
-317 -384 0
-312 -403 0
-313 -404 0
-315 -406 0
-316 -407 0
-317 -408 0
-314 -432 0
-316 -433 0
-317 -434 0
-311 -436 0
-315 -439 0
-316 -440 0
-317 -441 0
-311 -451 0
-313 -454 0
-316 -455 0
-317 -456 0
-311 -481 0
-313 -483 0
-314 -485 0
-316 -487 0
-317 -488 0
-314 -536 0
-315 -538 0
-316 -539 0
-317 -540 0
-313 -604 0
-314 -606 0
-315 -607 0
-316 -608 0
-317 -609 0
-312 -612 0
-313 -613 0
-314 -614 0
-316 -615 0
-317 -616 0
-312 -627 0
-313 -628 0
-314 -629 0
-315 -631 0
-316 -632 0
-317 -633 0
-313 -651 0
-314 -652 0
-315 -654 0
-316 -655 0
-317 -656 0
-313 -673 0
-315 -676 0
-316 -677 0
-317 -678 0
-313 -765 0
-315 -768 0
-316 -769 0
-317 -770 0
-312 -772 0
-313 -773 0
-314 -775 0
-316 -777 0
-317 -778 0
-312 -780 0
-313 -781 0
-315 -783 0
-316 -784 0
-317 -785 0
-313 -789 0
-315 -791 0
-316 -792 0
-317 -793 0
-311 -794 0
-313 -796 0
-314 -797 0
-316 -798 0
-317 -799 0
-313 -808 0
-314 -809 0
-315 -811 0
-316 -812 0
-317 -813 0
-311 -814 0
-313 -816 0
-315 -818 0
-316 -819 0
-317 -820 0
-313 -830 0
-316 -833 0
-317 -834 0
-313 -850 0
-316 -852 0
-317 -853 0
-312 -857 0
-313 -858 0
-314 -859 0
-315 -860 0
-316 -861 0
-317 -862 0
-312 -865 0
-314 -867 0
-316 -868 0
-317 -869 0
-311 -871 0
-312 -873 0
-314 -874 0
-315 -875 0
-316 -876 0
-317 -877 0
-312 -890 0
-316 -892 0
-317 -893 0
-311 -895 0
-312 -896 0
-314 -898 0
-315 -900 0
-316 -901 0
-317 -902 0
-312 -916 0
-313 -917 0
-314 -918 0
-315 -920 0
-316 -921 0
-317 -922 0
-313 -947 0
-316 -949 0
-317 -950 0
-311 -952 0
-314 -954 0
-316 -956 0
-317 -957 0
-311 -975 0
-316 -979 0
-317 -980 0
-313 -1023 0
-315 -1025 0
-316 -1026 0
-317 -1027 0
-311 -1104 0
-313 -1106 0
-315 -1109 0
-316 -1110 0
-317 -1111 0
-311 -1122 0
-316 -1126 0
-317 -1127 0
-311 -1129 0
-314 -1131 0
-315 -1133 0
-316 -1134 0
-317 -1135 0
-311 -1136 0
-312 -1139 0
-314 -1141 0
-315 -1143 0
-316 -1144 0
-317 -1145 0
-311 -1154 0
-314 -1156 0
-316 -1157 0
-317 -1158 0
-311 -1159 0
-312 -1161 0
-315 -1162 0
-316 -1163 0
-317 -1164 0
-311 -1165 0
-312 -1167 0
-313 -1168 0
-316 -1170 0
-317 -1171 0
-311 -1172 0
-312 -1173 0
-313 -1174 0
-314 -1175 0
-315 -1176 0
-316 -1177 0
-317 -1178 0
-313 -1192 0
-314 -1194 0
-315 -1195 0
-316 -1196 0
-317 -1197 0
-312 -1199 0
-313 -1200 0
-315 -1202 0
-316 -1203 0
-317 -1204 0
-312 -1206 0
-315 -1208 0
-316 -1209 0
-317 -1210 0
-311 -1211 0
-312 -1212 0
-314 -1214 0
-315 -1215 0
-316 -1216 0
-317 -1217 0
-312 -1226 0
-314 -1228 0
-315 -1230 0
-316 -1231 0
-317 -1232 0
-311 -1233 0
-313 -1236 0
-315 -1237 0
-316 -1238 0
-317 -1239 0
-311 -1240 0
-316 -1244 0
-317 -1245 0
-311 -1246 0
-314 -1249 0
-315 -1250 0
-316 -1251 0
-317 -1252 0
-311 -1261 0
-314 -1264 0
-316 -1266 0
-317 -1267 0
-311 -1268 0
-315 -1272 0
-316 -1273 0
-317 -1274 0
-311 -1281 0
-313 -1283 0
-316 -1285 0
-317 -1286 0
-313 -1297 0
-314 -1299 0
-315 -1301 0
-316 -1302 0
-317 -1303 0
-311 -1304 0
-313 -1306 0
-315 -1308 0
-316 -1309 0
-317 -1310 0
-311 -1319 0
-315 -1323 0
-316 -1324 0
-317 -1325 0
-311 -1339 0
-314 -1340 0
-315 -1342 0
-316 -1343 0
-317 -1344 0
-314 -1363 0
-315 -1364 0
-316 -1365 0
-317 -1366 0
-312 -1369 0
-314 -1371 0
-316 -1372 0
-317 -1373 0
-315 -1383 0
-316 -1384 0
-317 -1385 0
-312 -1387 0
-314 -1388 0
-316 -1390 0
-317 -1391 0
-312 -1393 0
-313 -1394 0
-314 -1396 0
-315 -1398 0
-316 -1399 0
-317 -1400 0
-311 -1401 0
-312 -1402 0
-313 -1403 0
-314 -1404 0
-316 -1406 0
-317 -1407 0
-312 -1415 0
-314 -1417 0
-315 -1419 0
-316 -1420 0
-317 -1421 0
-314 -1431 0
-315 -1433 0
-316 -1434 0
-317 -1435 0
-315 -1439 0
-316 -1440 0
-317 -1441 0
-311 -1442 0
-313 -1444 0
-314 -1445 0
-315 -1447 0
-316 -1448 0
-317 -1449 0
-314 -1459 0
-316 -1461 0
-317 -1462 0
-311 -1499 0
-314 -1502 0
-316 -1504 0
-317 -1505 0
-311 -1519 0
-313 -1520 0
-315 -1522 0
-316 -1523 0
-317 -1524 0
-312 -1535 0
-313 -1536 0
-314 -1538 0
-315 -1540 0
-316 -1541 0
-317 -1542 0
-312 -1550 0
-313 -1551 0
-315 -1553 0
-316 -1554 0
-317 -1555 0
-313 -1572 0
-316 -1574 0
-317 -1575 0
-313 -1592 0
-314 -1594 0
-316 -1596 0
-317 -1597 0
-314 -1672 0
-315 -1674 0
-316 -1675 0
-317 -1676 0
-313 -1686 0
-314 -1688 0
-316 -1690 0
-317 -1691 0
-311 -1693 0
-313 -1694 0
-315 -1696 0
-316 -1697 0
-317 -1698 0
-312 -1701 0
-313 -1702 0
-315 -1704 0
-316 -1705 0
-317 -1706 0
-313 -1715 0
-314 -1716 0
-316 -1718 0
-317 -1719 0
-312 -1721 0
-313 -1722 0
-314 -1724 0
-315 -1726 0
-316 -1727 0
-317 -1728 0
-312 -1730 0
-313 -1731 0
-314 -1732 0
-316 -1734 0
-317 -1735 0
-311 -1736 0
-312 -1737 0
-313 -1738 0
-315 -1741 0
-316 -1742 0
-317 -1743 0
-312 -1751 0
-313 -1752 0
-315 -1754 0
-316 -1755 0
-317 -1756 0
-314 -1767 0
-315 -1769 0
-316 -1770 0
-317 -1771 0
-313 -1774 0
-314 -1775 0
-316 -1777 0
-317 -1778 0
-311 -1779 0
-313 -1782 0
-315 -1785 0
-316 -1786 0
-317 -1787 0
-313 -1797 0
-314 -1799 0
-316 -1800 0
-317 -1801 0
-311 -1802 0
-313 -1804 0
-314 -1806 0
-315 -1807 0
-316 -1808 0
-317 -1809 0
-311 -1817 0
-313 -1819 0
-314 -1821 0
-316 -1822 0
-317 -1823 0
-314 -1841 0
-315 -1842 0
-316 -1843 0
-317 -1844 0
-313 -1853 0
-314 -1854 0
-315 -1855 0
-316 -1856 0
-317 -1857 0
-313 -1870 0
-314 -1872 0
-315 -1874 0
-316 -1875 0
-317 -1876 0
-312 -1878 0
-313 -1879 0
-314 -1881 0
-316 -1882 0
-317 -1883 0
-313 -1891 0
-315 -1894 0
-316 -1895 0
-317 -1896 0
-313 -1911 0
-316 -1914 0
-317 -1915 0
-313 -1917 0
-314 -1919 0
-315 -1921 0
-316 -1922 0
-317 -1923 0
-312 -1925 0
-314 -1926 0
-315 -1928 0
-316 -1929 0
-317 -1930 0
-312 -1932 0
-315 -1934 0
-316 -1935 0
-317 -1936 0
-314 -1940 0
-316 -1942 0
-317 -1943 0
-311 -1965 0
-315 -1969 0
-316 -1970 0
-317 -1971 0
-311 -1984 0
-314 -1985 0
-315 -1987 0
-316 -1988 0
-317 -1989 0
-313 -1991 0
-314 -1993 0
-315 -1995 0
-316 -1996 0
-317 -1997 0
-319 -527 0
-321 -531 0
-322 -532 0
-323 -533 0
-319 -575 0
-320 -577 0
-322 -581 0
-323 -582 0
-321 -600 0
-322 -601 0
-323 -602 0
-318 -617 0
-319 -618 0
-321 -623 0
-322 -624 0
-323 -625 0
-318 -634 0
-320 -636 0
-321 -638 0
-322 -639 0
-323 -640 0
-319 -641 0
-320 -643 0
-321 -645 0
-322 -646 0
-323 -647 0
-318 -657 0
-319 -658 0
-321 -661 0
-322 -662 0
-323 -663 0
-319 -664 0
-321 -668 0
-322 -669 0
-323 -670 0
-318 -679 0
-319 -680 0
-321 -683 0
-322 -684 0
-323 -685 0
-319 -686 0
-321 -690 0
-322 -691 0
-323 -692 0
-318 -693 0
-320 -695 0
-321 -697 0
-322 -698 0
-323 -699 0
-319 -700 0
-320 -703 0
-321 -705 0
-322 -706 0
-323 -707 0
-319 -709 0
-320 -711 0
-321 -715 0
-322 -716 0
-323 -717 0
-318 -724 0
-321 -727 0
-322 -728 0
-323 -729 0
-319 -730 0
-322 -734 0
-323 -735 0
-320 -744 0
-321 -746 0
-322 -747 0
-323 -748 0
-319 -801 0
-321 -804 0
-322 -805 0
-323 -806 0
-319 -822 0
-320 -823 0
-321 -826 0
-322 -827 0
-323 -828 0
-319 -835 0
-321 -838 0
-322 -839 0
-323 -840 0
-318 -878 0
-320 -882 0
-322 -886 0
-323 -887 0
-318 -903 0
-320 -906 0
-322 -907 0
-323 -908 0
-322 -913 0
-323 -914 0
-318 -923 0
-320 -925 0
-321 -927 0
-322 -928 0
-323 -929 0
-320 -932 0
-321 -935 0
-322 -936 0
-323 -937 0
-320 -939 0
-321 -941 0
-322 -942 0
-323 -943 0
-318 -958 0
-320 -961 0
-321 -963 0
-322 -964 0
-323 -965 0
-319 -967 0
-320 -970 0
-322 -972 0
-323 -973 0
-318 -981 0
-320 -984 0
-321 -987 0
-322 -988 0
-323 -989 0
-319 -991 0
-320 -994 0
-322 -997 0
-323 -998 0
-321 -1003 0
-322 -1004 0
-323 -1005 0
-322 -1012 0
-323 -1013 0
-318 -1028 0
-320 -1030 0
-322 -1034 0
-323 -1035 0
-319 -1036 0
-320 -1039 0
-321 -1041 0
-322 -1042 0
-323 -1043 0
-320 -1046 0
-322 -1049 0
-323 -1050 0
-320 -1054 0
-321 -1057 0
-322 -1058 0
-323 -1059 0
-320 -1069 0
-322 -1072 0
-323 -1073 0
-320 -1076 0
-321 -1079 0
-322 -1080 0
-323 -1081 0
-322 -1183 0
-323 -1184 0
-320 -1220 0
-321 -1223 0
-322 -1224 0
-323 -1225 0
-319 -1254 0
-320 -1256 0
-322 -1259 0
-323 -1260 0
-319 -1276 0
-320 -1277 0
-322 -1279 0
-323 -1280 0
-321 -1291 0
-322 -1292 0
-323 -1293 0
-319 -1312 0
-320 -1313 0
-321 -1316 0
-322 -1317 0
-323 -1318 0
-320 -1328 0
-322 -1331 0
-323 -1332 0
-320 -1334 0
-321 -1336 0
-322 -1337 0
-323 -1338 0
-320 -1346 0
-322 -1350 0
-323 -1351 0
-318 -1360 0
-321 -1364 0
-322 -1365 0
-323 -1366 0
-319 -1367 0
-322 -1372 0
-323 -1373 0
-318 -1380 0
-321 -1383 0
-322 -1384 0
-323 -1385 0
-319 -1386 0
-322 -1390 0
-323 -1391 0
-320 -1394 0
-321 -1398 0
-322 -1399 0
-323 -1400 0
-320 -1403 0
-322 -1406 0
-323 -1407 0
-321 -1419 0
-322 -1420 0
-323 -1421 0
-319 -1428 0
-321 -1433 0
-322 -1434 0
-323 -1435 0
-319 -1436 0
-321 -1439 0
-322 -1440 0
-323 -1441 0
-320 -1444 0
-321 -1447 0
-322 -1448 0
-323 -1449 0
-322 -1461 0
-323 -1462 0
-319 -1500 0
-322 -1504 0
-323 -1505 0
-320 -1520 0
-321 -1522 0
-322 -1523 0
-323 -1524 0
-318 -1543 0
-322 -1547 0
-323 -1548 0
-318 -1556 0
-322 -1561 0
-323 -1562 0
-320 -1565 0
-322 -1568 0
-323 -1569 0
-318 -1576 0
-321 -1580 0
-322 -1581 0
-323 -1582 0
-319 -1583 0
-322 -1588 0
-323 -1589 0
-318 -1598 0
-321 -1602 0
-322 -1603 0
-323 -1604 0
-319 -1605 0
-322 -1610 0
-323 -1611 0
-320 -1614 0
-321 -1617 0
-322 -1618 0
-323 -1619 0
-320 -1623 0
-322 -1625 0
-323 -1626 0
-321 -1639 0
-322 -1640 0
-323 -1641 0
-321 -1653 0
-322 -1654 0
-323 -1655 0
-320 -1746 0
-322 -1749 0
-323 -1750 0
-321 -1761 0
-322 -1762 0
-323 -1763 0
-319 -1789 0
-322 -1793 0
-323 -1794 0
-319 -1811 0
-322 -1815 0
-323 -1816 0
-320 -1826 0
-321 -1829 0
-322 -1830 0
-323 -1831 0
-320 -1833 0
-322 -1837 0
-323 -1838 0
-319 -1845 0
-320 -1846 0
-321 -1849 0
-322 -1850 0
-323 -1851 0
-322 -1862 0
-323 -1863 0
-321 -1867 0
-322 -1868 0
-323 -1869 0
-320 -1879 0
-322 -1882 0
-323 -1883 0
-320 -1891 0
-321 -1894 0
-322 -1895 0
-323 -1896 0
-319 -1910 0
-320 -1911 0
-322 -1914 0
-323 -1915 0
-320 -1917 0
-321 -1921 0
-322 -1922 0
-323 -1923 0
-321 -1928 0
-322 -1929 0
-323 -1930 0
-321 -1934 0
-322 -1935 0
-323 -1936 0
-322 -1942 0
-323 -1943 0
-321 -1969 0
-322 -1970 0
-323 -1971 0
-321 -1987 0
-322 -1988 0
-323 -1989 0
-320 -1991 0
-321 -1995 0
-322 -1996 0
-323 -1997 0
-325 -520 0
-326 -523 0
-329 -524 0
-330 -525 0
-325 -569 0
-329 -572 0
-330 -573 0
-327 -592 0
-328 -593 0
-329 -594 0
-330 -595 0
-324 -610 0
-325 -611 0
-327 -614 0
-329 -615 0
-330 -616 0
-324 -626 0
-327 -629 0
-328 -630 0
-329 -632 0
-330 -633 0
-325 -641 0
-327 -644 0
-329 -646 0
-330 -647 0
-324 -648 0
-325 -649 0
-327 -652 0
-328 -653 0
-329 -655 0
-330 -656 0
-325 -664 0
-327 -667 0
-329 -669 0
-330 -670 0
-324 -671 0
-325 -672 0
-326 -674 0
-328 -675 0
-329 -677 0
-330 -678 0
-325 -686 0
-326 -688 0
-328 -689 0
-329 -691 0
-330 -692 0
-324 -693 0
-328 -696 0
-329 -698 0
-330 -699 0
-325 -700 0
-328 -704 0
-329 -706 0
-330 -707 0
-325 -719 0
-329 -722 0
-330 -723 0
-324 -724 0
-326 -725 0
-328 -726 0
-329 -728 0
-330 -729 0
-325 -736 0
-326 -739 0
-329 -741 0
-330 -742 0
-326 -750 0
-327 -751 0
-328 -752 0
-329 -754 0
-330 -755 0
-325 -795 0
-327 -797 0
-329 -798 0
-330 -799 0
-325 -815 0
-328 -817 0
-329 -819 0
-330 -820 0
-325 -829 0
-326 -831 0
-328 -832 0
-329 -833 0
-330 -834 0
-324 -870 0
-327 -874 0
-329 -876 0
-330 -877 0
-324 -894 0
-326 -897 0
-327 -898 0
-328 -899 0
-329 -901 0
-330 -902 0
-327 -912 0
-329 -913 0
-330 -914 0
-324 -915 0
-327 -918 0
-328 -919 0
-329 -921 0
-330 -922 0
-326 -933 0
-327 -934 0
-329 -936 0
-330 -937 0
-328 -940 0
-329 -942 0
-330 -943 0
-324 -951 0
-327 -954 0
-328 -955 0
-329 -956 0
-330 -957 0
-325 -967 0
-327 -971 0
-329 -972 0
-330 -973 0
-324 -974 0
-326 -977 0
-328 -978 0
-329 -979 0
-330 -980 0
-325 -991 0
-326 -995 0
-328 -996 0
-329 -997 0
-330 -998 0
-328 -1002 0
-329 -1004 0
-330 -1005 0
-329 -1019 0
-330 -1020 0
-324 -1021 0
-328 -1024 0
-329 -1026 0
-330 -1027 0
-325 -1036 0
-328 -1040 0
-329 -1042 0
-330 -1043 0
-326 -1047 0
-328 -1048 0
-329 -1049 0
-330 -1050 0
-326 -1064 0
-329 -1065 0
-330 -1066 0
-327 -1070 0
-328 -1071 0
-329 -1072 0
-330 -1073 0
-327 -1085 0
-328 -1086 0
-329 -1087 0
-330 -1088 0
-327 -1175 0
-329 -1177 0
-330 -1178 0
-326 -1213 0
-327 -1214 0
-329 -1216 0
-330 -1217 0
-325 -1247 0
-327 -1249 0
-329 -1251 0
-330 -1252 0
-325 -1269 0
-326 -1270 0
-328 -1271 0
-329 -1273 0
-330 -1274 0
-328 -1284 0
-329 -1285 0
-330 -1286 0
-325 -1305 0
-328 -1307 0
-329 -1309 0
-330 -1310 0
-326 -1321 0
-328 -1322 0
-329 -1324 0
-330 -1325 0
-326 -1335 0
-329 -1337 0
-330 -1338 0
-327 -1340 0
-328 -1341 0
-329 -1343 0
-330 -1344 0
-324 -1352 0
-326 -1355 0
-327 -1356 0
-328 -1357 0
-329 -1358 0
-330 -1359 0
-325 -1367 0
-326 -1370 0
-327 -1371 0
-329 -1372 0
-330 -1373 0
-324 -1374 0
-327 -1376 0
-328 -1377 0
-329 -1378 0
-330 -1379 0
-325 -1386 0
-327 -1388 0
-328 -1389 0
-329 -1390 0
-330 -1391 0
-326 -1395 0
-327 -1396 0
-328 -1397 0
-329 -1399 0
-330 -1400 0
-326 -1410 0
-327 -1411 0
-329 -1413 0
-330 -1414 0
-326 -1424 0
-327 -1425 0
-329 -1426 0
-330 -1427 0
-325 -1428 0
-326 -1430 0
-327 -1431 0
-328 -1432 0
-329 -1434 0
-330 -1435 0
-325 -1436 0
-328 -1438 0
-329 -1440 0
-330 -1441 0
-326 -1452 0
-328 -1453 0
-329 -1455 0
-330 -1456 0
-326 -1465 0
-328 -1466 0
-329 -1468 0
-330 -1469 0
-326 -1472 0
-327 -1473 0
-328 -1474 0
-329 -1476 0
-330 -1477 0
-325 -1492 0
-326 -1494 0
-327 -1495 0
-329 -1497 0
-330 -1498 0
-326 -1514 0
-327 -1515 0
-328 -1516 0
-329 -1517 0
-330 -1518 0
-326 -1526 0
-327 -1527 0
-328 -1528 0
-329 -1530 0
-330 -1531 0
-324 -1533 0
-326 -1537 0
-327 -1538 0
-328 -1539 0
-329 -1541 0
-330 -1542 0
-324 -1549 0
-326 -1552 0
-329 -1554 0
-330 -1555 0
-326 -1566 0
-328 -1567 0
-329 -1568 0
-330 -1569 0
-324 -1570 0
-326 -1573 0
-329 -1574 0
-330 -1575 0
-325 -1583 0
-326 -1586 0
-328 -1587 0
-329 -1588 0
-330 -1589 0
-324 -1590 0
-326 -1593 0
-327 -1594 0
-328 -1595 0
-329 -1596 0
-330 -1597 0
-325 -1605 0
-326 -1608 0
-327 -1609 0
-329 -1610 0
-330 -1611 0
-326 -1615 0
-327 -1616 0
-329 -1618 0
-330 -1619 0
-326 -1630 0
-327 -1631 0
-328 -1632 0
-329 -1634 0
-330 -1635 0
-327 -1645 0
-328 -1646 0
-329 -1647 0
-330 -1648 0
-326 -1658 0
-327 -1659 0
-329 -1660 0
-330 -1661 0
-326 -1739 0
-328 -1740 0
-329 -1742 0
-330 -1743 0
-328 -1753 0
-329 -1755 0
-330 -1756 0
-325 -1780 0
-326 -1783 0
-328 -1784 0
-329 -1786 0
-330 -1787 0
-325 -1803 0
-326 -1805 0
-327 -1806 0
-329 -1808 0
-330 -1809 0
-326 -1820 0
-327 -1821 0
-329 -1822 0
-330 -1823 0
-326 -1834 0
-327 -1835 0
-328 -1836 0
-329 -1837 0
-330 -1838 0
-325 -1839 0
-326 -1840 0
-327 -1841 0
-329 -1843 0
-330 -1844 0
-327 -1854 0
-329 -1856 0
-330 -1857 0
-327 -1865 0
-328 -1866 0
-329 -1868 0
-330 -1869 0
-326 -1871 0
-327 -1872 0
-328 -1873 0
-329 -1875 0
-330 -1876 0
-328 -1886 0
-329 -1888 0
-330 -1889 0
-327 -1899 0
-329 -1901 0
-330 -1902 0
-325 -1903 0
-327 -1905 0
-328 -1906 0
-329 -1908 0
-330 -1909 0
-327 -1926 0
-328 -1927 0
-329 -1929 0
-330 -1930 0
-326 -1933 0
-329 -1935 0
-330 -1936 0
-326 -1939 0
-327 -1940 0
-328 -1941 0
-329 -1942 0
-330 -1943 0
-327 -1960 0
-328 -1961 0
-329 -1963 0
-330 -1964 0
-326 -1980 0
-329 -1982 0
-330 -1983 0
-331 -503 0
-335 -507 0
-336 -508 0
-337 -509 0
-331 -555 0
-336 -559 0
-337 -560 0
-333 -590 0
-334 -593 0
-336 -594 0
-337 -595 0
-333 -597 0
-335 -600 0
-336 -601 0
-337 -602 0
-331 -603 0
-335 -607 0
-336 -608 0
-337 -609 0
-331 -626 0
-333 -627 0
-334 -630 0
-335 -631 0
-336 -632 0
-337 -633 0
-331 -634 0
-333 -635 0
-335 -638 0
-336 -639 0
-337 -640 0
-331 -648 0
-332 -649 0
-334 -653 0
-335 -654 0
-336 -655 0
-337 -656 0
-331 -657 0
-332 -658 0
-335 -661 0
-336 -662 0
-337 -663 0
-331 -671 0
-332 -672 0
-334 -675 0
-335 -676 0
-336 -677 0
-337 -678 0
-331 -679 0
-332 -680 0
-334 -682 0
-335 -683 0
-336 -684 0
-337 -685 0
-332 -700 0
-333 -702 0
-334 -704 0
-335 -705 0
-336 -706 0
-337 -707 0
-332 -709 0
-333 -710 0
-334 -714 0
-335 -715 0
-336 -716 0
-337 -717 0
-332 -719 0
-333 -720 0
-335 -721 0
-336 -722 0
-337 -723 0
-332 -730 0
-333 -731 0
-334 -733 0
-336 -734 0
-337 -735 0
-332 -736 0
-333 -737 0
-335 -740 0
-336 -741 0
-337 -742 0
-332 -815 0
-334 -817 0
-335 -818 0
-336 -819 0
-337 -820 0
-332 -822 0
-335 -826 0
-336 -827 0
-337 -828 0
-332 -829 0
-334 -832 0
-336 -833 0
-337 -834 0
-332 -835 0
-335 -838 0
-336 -839 0
-337 -840 0
-331 -951 0
-334 -955 0
-336 -956 0
-337 -957 0
-331 -958 0
-335 -963 0
-336 -964 0
-337 -965 0
-331 -974 0
-334 -978 0
-336 -979 0
-337 -980 0
-331 -981 0
-334 -986 0
-335 -987 0
-336 -988 0
-337 -989 0
-333 -1001 0
-334 -1002 0
-335 -1003 0
-336 -1004 0
-337 -1005 0
-333 -1008 0
-334 -1011 0
-336 -1012 0
-337 -1013 0
-333 -1016 0
-335 -1018 0
-336 -1019 0
-337 -1020 0
-331 -1021 0
-334 -1024 0
-335 -1025 0
-336 -1026 0
-337 -1027 0
-331 -1028 0
-334 -1033 0
-336 -1034 0
-337 -1035 0
-333 -1045 0
-334 -1048 0
-336 -1049 0
-337 -1050 0
-333 -1053 0
-334 -1056 0
-335 -1057 0
-336 -1058 0
-337 -1059 0
-333 -1062 0
-336 -1065 0
-337 -1066 0
-333 -1068 0
-334 -1071 0
-336 -1072 0
-337 -1073 0
-333 -1075 0
-334 -1078 0
-335 -1079 0
-336 -1080 0
-337 -1081 0
-333 -1083 0
-334 -1086 0
-336 -1087 0
-337 -1088 0
-334 -1284 0
-336 -1285 0
-337 -1286 0
-335 -1291 0
-336 -1292 0
-337 -1293 0
-334 -1322 0
-335 -1323 0
-336 -1324 0
-337 -1325 0
-336 -1331 0
-337 -1332 0
-335 -1336 0
-336 -1337 0
-337 -1338 0
-334 -1341 0
-335 -1342 0
-336 -1343 0
-337 -1344 0
-334 -1349 0
-336 -1350 0
-337 -1351 0
-331 -1352 0
-334 -1357 0
-336 -1358 0
-337 -1359 0
-331 -1360 0
-335 -1364 0
-336 -1365 0
-337 -1366 0
-331 -1374 0
-334 -1377 0
-336 -1378 0
-337 -1379 0
-331 -1380 0
-334 -1382 0
-335 -1383 0
-336 -1384 0
-337 -1385 0
-333 -1393 0
-334 -1397 0
-335 -1398 0
-336 -1399 0
-337 -1400 0
-333 -1402 0
-334 -1405 0
-336 -1406 0
-337 -1407 0
-333 -1409 0
-335 -1412 0
-336 -1413 0
-337 -1414 0
-333 -1415 0
-334 -1418 0
-335 -1419 0
-336 -1420 0
-337 -1421 0
-333 -1422 0
-336 -1426 0
-337 -1427 0
-332 -1428 0
-334 -1432 0
-335 -1433 0
-336 -1434 0
-337 -1435 0
-332 -1436 0
-334 -1438 0
-335 -1439 0
-336 -1440 0
-337 -1441 0
-334 -1516 0
-336 -1517 0
-337 -1518 0
-335 -1522 0
-336 -1523 0
-337 -1524 0
-334 -1528 0
-335 -1529 0
-336 -1530 0
-337 -1531 0
-331 -1570 0
-336 -1574 0
-337 -1575 0
-331 -1576 0
-334 -1579 0
-335 -1580 0
-336 -1581 0
-337 -1582 0
-331 -1590 0
-334 -1595 0
-336 -1596 0
-337 -1597 0
-331 -1598 0
-335 -1602 0
-336 -1603 0
-337 -1604 0
-333 -1613 0
-335 -1617 0
-336 -1618 0
-337 -1619 0
-333 -1622 0
-336 -1625 0
-337 -1626 0
-333 -1629 0
-334 -1632 0
-335 -1633 0
-336 -1634 0
-337 -1635 0
-333 -1637 0
-335 -1639 0
-336 -1640 0
-337 -1641 0
-333 -1643 0
-334 -1646 0
-336 -1647 0
-337 -1648 0
-333 -1649 0
-334 -1652 0
-335 -1653 0
-336 -1654 0
-337 -1655 0
-333 -1656 0
-336 -1660 0
-337 -1661 0
-336 -1822 0
-337 -1823 0
-334 -1828 0
-335 -1829 0
-336 -1830 0
-337 -1831 0
-334 -1836 0
-336 -1837 0
-337 -1838 0
-335 -1855 0
-336 -1856 0
-337 -1857 0
-334 -1861 0
-336 -1862 0
-337 -1863 0
-334 -1866 0
-335 -1867 0
-336 -1868 0
-337 -1869 0
-334 -1873 0
-335 -1874 0
-336 -1875 0
-337 -1876 0
-333 -1878 0
-336 -1882 0
-337 -1883 0
-333 -1884 0
-334 -1886 0
-335 -1887 0
-336 -1888 0
-337 -1889 0
-334 -1920 0
-335 -1921 0
-336 -1922 0
-337 -1923 0
-334 -1941 0
-336 -1942 0
-337 -1943 0
-339 -496 0
-341 -499 0
-343 -501 0
-344 -502 0
-340 -550 0
-343 -553 0
-344 -554 0
-342 -586 0
-343 -587 0
-344 -588 0
-340 -643 0
-343 -646 0
-344 -647 0
-343 -669 0
-344 -670 0
-338 -671 0
-340 -673 0
-341 -674 0
-342 -675 0
-343 -677 0
-344 -678 0
-338 -679 0
-342 -682 0
-343 -684 0
-344 -685 0
-340 -703 0
-342 -704 0
-343 -706 0
-344 -707 0
-339 -708 0
-340 -711 0
-341 -712 0
-342 -714 0
-343 -716 0
-344 -717 0
-339 -718 0
-343 -722 0
-344 -723 0
-342 -733 0
-343 -734 0
-344 -735 0
-340 -738 0
-341 -739 0
-343 -741 0
-344 -742 0
-340 -744 0
-342 -745 0
-343 -747 0
-344 -748 0
-341 -750 0
-342 -752 0
-343 -754 0
-344 -755 0
-340 -808 0
-342 -810 0
-343 -812 0
-344 -813 0
-338 -854 0
-340 -858 0
-343 -861 0
-344 -862 0
-338 -888 0
-342 -891 0
-343 -892 0
-344 -893 0
-338 -894 0
-339 -895 0
-341 -897 0
-342 -899 0
-343 -901 0
-344 -902 0
-338 -903 0
-339 -904 0
-340 -906 0
-343 -907 0
-344 -908 0
-339 -909 0
-343 -913 0
-344 -914 0
-338 -915 0
-340 -917 0
-342 -919 0
-343 -921 0
-344 -922 0
-338 -923 0
-340 -925 0
-341 -926 0
-343 -928 0
-344 -929 0
-340 -932 0
-341 -933 0
-343 -936 0
-344 -937 0
-338 -944 0
-340 -947 0
-342 -948 0
-343 -949 0
-344 -950 0
-339 -966 0
-340 -970 0
-343 -972 0
-344 -973 0
-338 -974 0
-339 -975 0
-341 -977 0
-342 -978 0
-343 -979 0
-344 -980 0
-338 -981 0
-339 -982 0
-340 -984 0
-342 -986 0
-343 -988 0
-344 -989 0
-339 -999 0
-342 -1002 0
-343 -1004 0
-344 -1005 0
-339 -1006 0
-341 -1009 0
-342 -1011 0
-343 -1012 0
-344 -1013 0
-339 -1014 0
-340 -1017 0
-343 -1019 0
-344 -1020 0
-338 -1021 0
-340 -1023 0
-342 -1024 0
-343 -1026 0
-344 -1027 0
-338 -1028 0
-340 -1030 0
-341 -1031 0
-342 -1033 0
-343 -1034 0
-344 -1035 0
-340 -1046 0
-341 -1047 0
-342 -1048 0
-343 -1049 0
-344 -1050 0
-339 -1051 0
-340 -1054 0
-342 -1056 0
-343 -1058 0
-344 -1059 0
-339 -1060 0
-340 -1063 0
-341 -1064 0
-343 -1065 0
-344 -1066 0
-339 -1159 0
-343 -1163 0
-344 -1164 0
-340 -1200 0
-341 -1201 0
-343 -1203 0
-344 -1204 0
-341 -1227 0
-342 -1229 0
-343 -1231 0
-344 -1232 0
-339 -1233 0
-340 -1236 0
-343 -1238 0
-344 -1239 0
-339 -1261 0
-342 -1265 0
-343 -1266 0
-344 -1267 0
-339 -1268 0
-341 -1270 0
-342 -1271 0
-343 -1273 0
-344 -1274 0
-339 -1275 0
-340 -1277 0
-343 -1279 0
-344 -1280 0
-340 -1297 0
-341 -1298 0
-342 -1300 0
-343 -1302 0
-344 -1303 0
-339 -1304 0
-340 -1306 0
-342 -1307 0
-343 -1309 0
-344 -1310 0
-339 -1311 0
-340 -1313 0
-341 -1314 0
-343 -1317 0
-344 -1318 0
-339 -1339 0
-342 -1341 0
-343 -1343 0
-344 -1344 0
-339 -1345 0
-340 -1346 0
-341 -1347 0
-342 -1349 0
-343 -1350 0
-344 -1351 0
-341 -1370 0
-343 -1372 0
-344 -1373 0
-338 -1374 0
-340 -1375 0
-342 -1377 0
-343 -1378 0
-344 -1379 0
-338 -1380 0
-341 -1381 0
-342 -1382 0
-343 -1384 0
-344 -1385 0
-340 -1394 0
-341 -1395 0
-342 -1397 0
-343 -1399 0
-344 -1400 0
-339 -1401 0
-340 -1403 0
-342 -1405 0
-343 -1406 0
-344 -1407 0
-339 -1408 0
-341 -1410 0
-343 -1413 0
-344 -1414 0
-341 -1416 0
-342 -1418 0
-343 -1420 0
-344 -1421 0
-340 -1423 0
-341 -1424 0
-343 -1426 0
-344 -1427 0
-341 -1430 0
-342 -1432 0
-343 -1434 0
-344 -1435 0
-339 -1442 0
-340 -1444 0
-342 -1446 0
-343 -1448 0
-344 -1449 0
-339 -1450 0
-341 -1452 0
-342 -1453 0
-343 -1455 0
-344 -1456 0
-341 -1458 0
-342 -1460 0
-343 -1461 0
-344 -1462 0
-340 -1464 0
-341 -1465 0
-342 -1466 0
-343 -1468 0
-344 -1469 0
-341 -1479 0
-343 -1482 0
-344 -1483 0
-340 -1507 0
-341 -1508 0
-342 -1509 0
-343 -1510 0
-344 -1511 0
-338 -1549 0
-340 -1551 0
-341 -1552 0
-343 -1554 0
-344 -1555 0
-338 -1556 0
-341 -1558 0
-342 -1560 0
-343 -1561 0
-344 -1562 0
-340 -1565 0
-341 -1566 0
-342 -1567 0
-343 -1568 0
-344 -1569 0
-341 -1586 0
-342 -1587 0
-343 -1588 0
-344 -1589 0
-338 -1590 0
-340 -1592 0
-341 -1593 0
-342 -1595 0
-343 -1596 0
-344 -1597 0
-338 -1598 0
-341 -1600 0
-343 -1603 0
-344 -1604 0
-340 -1614 0
-341 -1615 0
-343 -1618 0
-344 -1619 0
-339 -1620 0
-340 -1623 0
-341 -1624 0
-343 -1625 0
-344 -1626 0
-339 -1627 0
-341 -1630 0
-342 -1632 0
-343 -1634 0
-344 -1635 0
-341 -1638 0
-343 -1640 0
-344 -1641 0
-340 -1644 0
-342 -1646 0
-343 -1647 0
-344 -1648 0
-340 -1722 0
-341 -1723 0
-342 -1725 0
-343 -1727 0
-344 -1728 0
-341 -1766 0
-342 -1768 0
-343 -1770 0
-344 -1771 0
-340 -1797 0
-341 -1798 0
-343 -1800 0
-344 -1801 0
-339 -1802 0
-340 -1804 0
-341 -1805 0
-343 -1808 0
-344 -1809 0
-339 -1810 0
-341 -1812 0
-342 -1814 0
-343 -1815 0
-344 -1816 0
-341 -1840 0
-343 -1843 0
-344 -1844 0
-340 -1846 0
-342 -1848 0
-343 -1850 0
-344 -1851 0
-340 -1870 0
-341 -1871 0
-342 -1873 0
-343 -1875 0
-344 -1876 0
-340 -1879 0
-341 -1880 0
-343 -1882 0
-344 -1883 0
-340 -1885 0
-342 -1886 0
-343 -1888 0
-344 -1889 0
-340 -1891 0
-341 -1892 0
-342 -1893 0
-343 -1895 0
-344 -1896 0
-340 -1898 0
-343 -1901 0
-344 -1902 0
-342 -1927 0
-343 -1929 0
-344 -1930 0
-342 -1946 0
-343 -1948 0
-344 -1949 0
-340 -1973 0
-343 -1976 0
-344 -1977 0
-339 -1978 0
-340 -1979 0
-341 -1980 0
-343 -1982 0
-344 -1983 0
-339 -1984 0
-342 -1986 0
-343 -1988 0
-344 -1989 0
-340 -1991 0
-341 -1992 0
-342 -1994 0
-343 -1996 0
-344 -1997 0
-345 -671 0
-346 -672 0
-349 -673 0
-350 -674 0
-351 -675 0
-352 -677 0
-353 -678 0
-345 -679 0
-346 -680 0
-351 -682 0
-352 -684 0
-353 -685 0
-346 -686 0
-348 -687 0
-350 -688 0
-351 -689 0
-352 -691 0
-353 -692 0
-345 -693 0
-349 -695 0
-351 -696 0
-352 -698 0
-353 -699 0
-346 -709 0
-348 -710 0
-349 -711 0
-350 -712 0
-351 -714 0
-352 -716 0
-353 -717 0
-346 -719 0
-348 -720 0
-352 -722 0
-353 -723 0
-345 -724 0
-350 -725 0
-351 -726 0
-352 -728 0
-353 -729 0
-346 -730 0
-348 -731 0
-351 -733 0
-352 -734 0
-353 -735 0
-346 -736 0
-348 -737 0
-349 -738 0
-350 -739 0
-352 -741 0
-353 -742 0
-348 -743 0
-349 -744 0
-351 -745 0
-352 -747 0
-353 -748 0
-348 -749 0
-350 -750 0
-351 -752 0
-352 -754 0
-353 -755 0
-345 -894 0
-348 -896 0
-350 -897 0
-351 -899 0
-352 -901 0
-353 -902 0
-345 -903 0
-348 -905 0
-349 -906 0
-352 -907 0
-353 -908 0
-345 -915 0
-348 -916 0
-349 -917 0
-351 -919 0
-352 -921 0
-353 -922 0
-345 -923 0
-348 -924 0
-349 -925 0
-350 -926 0
-352 -928 0
-353 -929 0
-348 -938 0
-349 -939 0
-351 -940 0
-352 -942 0
-353 -943 0
-345 -974 0
-347 -976 0
-350 -977 0
-351 -978 0
-352 -979 0
-353 -980 0
-345 -981 0
-347 -983 0
-349 -984 0
-351 -986 0
-352 -988 0
-353 -989 0
-346 -991 0
-347 -992 0
-348 -993 0
-349 -994 0
-350 -995 0
-351 -996 0
-352 -997 0
-353 -998 0
-347 -1007 0
-348 -1008 0
-350 -1009 0
-351 -1011 0
-352 -1012 0
-353 -1013 0
-347 -1015 0
-348 -1016 0
-349 -1017 0
-352 -1019 0
-353 -1020 0
-345 -1021 0
-347 -1022 0
-349 -1023 0
-351 -1024 0
-352 -1026 0
-353 -1027 0
-345 -1028 0
-347 -1029 0
-349 -1030 0
-350 -1031 0
-351 -1033 0
-352 -1034 0
-353 -1035 0
-346 -1036 0
-347 -1037 0
-348 -1038 0
-349 -1039 0
-351 -1040 0
-352 -1042 0
-353 -1043 0
-347 -1052 0
-348 -1053 0
-349 -1054 0
-351 -1056 0
-352 -1058 0
-353 -1059 0
-347 -1061 0
-348 -1062 0
-349 -1063 0
-350 -1064 0
-352 -1065 0
-353 -1066 0
-347 -1067 0
-348 -1068 0
-349 -1069 0
-351 -1071 0
-352 -1072 0
-353 -1073 0
-346 -1269 0
-350 -1270 0
-351 -1271 0
-352 -1273 0
-353 -1274 0
-346 -1276 0
-349 -1277 0
-352 -1279 0
-353 -1280 0
-346 -1305 0
-349 -1306 0
-351 -1307 0
-352 -1309 0
-353 -1310 0
-346 -1312 0
-349 -1313 0
-350 -1314 0
-352 -1317 0
-353 -1318 0
-349 -1334 0
-350 -1335 0
-352 -1337 0
-353 -1338 0
-351 -1341 0
-352 -1343 0
-353 -1344 0
-349 -1346 0
-350 -1347 0
-351 -1349 0
-352 -1350 0
-353 -1351 0
-345 -1374 0
-349 -1375 0
-351 -1377 0
-352 -1378 0
-353 -1379 0
-345 -1380 0
-350 -1381 0
-351 -1382 0
-352 -1384 0
-353 -1385 0
-346 -1386 0
-348 -1387 0
-351 -1389 0
-352 -1390 0
-353 -1391 0
-348 -1402 0
-349 -1403 0
-351 -1405 0
-352 -1406 0
-353 -1407 0
-348 -1409 0
-350 -1410 0
-352 -1413 0
-353 -1414 0
-348 -1415 0
-350 -1416 0
-351 -1418 0
-352 -1420 0
-353 -1421 0
-348 -1422 0
-349 -1423 0
-350 -1424 0
-352 -1426 0
-353 -1427 0
-346 -1436 0
-347 -1437 0
-351 -1438 0
-352 -1440 0
-353 -1441 0
-347 -1443 0
-349 -1444 0
-351 -1446 0
-352 -1448 0
-353 -1449 0
-347 -1451 0
-350 -1452 0
-351 -1453 0
-352 -1455 0
-353 -1456 0
-347 -1457 0
-350 -1458 0
-351 -1460 0
-352 -1461 0
-353 -1462 0
-347 -1463 0
-349 -1464 0
-350 -1465 0
-351 -1466 0
-352 -1468 0
-353 -1469 0
-345 -1549 0
-348 -1550 0
-349 -1551 0
-350 -1552 0
-352 -1554 0
-353 -1555 0
-345 -1556 0
-348 -1557 0
-350 -1558 0
-351 -1560 0
-352 -1561 0
-353 -1562 0
-345 -1590 0
-347 -1591 0
-349 -1592 0
-350 -1593 0
-351 -1595 0
-352 -1596 0
-353 -1597 0
-345 -1598 0
-347 -1599 0
-350 -1600 0
-352 -1603 0
-353 -1604 0
-346 -1605 0
-347 -1606 0
-348 -1607 0
-350 -1608 0
-352 -1610 0
-353 -1611 0
-347 -1621 0
-348 -1622 0
-349 -1623 0
-350 -1624 0
-352 -1625 0
-353 -1626 0
-347 -1628 0
-348 -1629 0
-350 -1630 0
-351 -1632 0
-352 -1634 0
-353 -1635 0
-347 -1636 0
-348 -1637 0
-350 -1638 0
-352 -1640 0
-353 -1641 0
-347 -1642 0
-348 -1643 0
-349 -1644 0
-351 -1646 0
-352 -1647 0
-353 -1648 0
-346 -1803 0
-349 -1804 0
-350 -1805 0
-352 -1808 0
-353 -1809 0
-346 -1811 0
-350 -1812 0
-351 -1814 0
-352 -1815 0
-353 -1816 0
-349 -1833 0
-350 -1834 0
-351 -1836 0
-352 -1837 0
-353 -1838 0
-346 -1839 0
-350 -1840 0
-352 -1843 0
-353 -1844 0
-346 -1845 0
-349 -1846 0
-351 -1848 0
-352 -1850 0
-353 -1851 0
-351 -1866 0
-352 -1868 0
-353 -1869 0
-349 -1870 0
-350 -1871 0
-351 -1873 0
-352 -1875 0
-353 -1876 0
-348 -1878 0
-349 -1879 0
-350 -1880 0
-352 -1882 0
-353 -1883 0
-348 -1884 0
-349 -1885 0
-351 -1886 0
-352 -1888 0
-353 -1889 0
-347 -1890 0
-349 -1891 0
-350 -1892 0
-351 -1893 0
-352 -1895 0
-353 -1896 0
-347 -1897 0
-349 -1898 0
-352 -1901 0
-353 -1902 0
-347 -1931 0
-348 -1932 0
-350 -1933 0
-352 -1935 0
-353 -1936 0
-347 -1938 0
-350 -1939 0
-351 -1941 0
-352 -1942 0
-353 -1943 0
-349 -1979 0
-350 -1980 0
-352 -1982 0
-353 -1983 0
-351 -1986 0
-352 -1988 0
-353 -1989 0
-349 -1991 0
-350 -1992 0
-351 -1994 0
-352 -1996 0
-353 -1997 0
-354 -489 0
-355 -490 0
-356 -491 0
-359 -492 0
-361 -493 0
-362 -494 0
-363 -495 0
-354 -541 0
-356 -542 0
-358 -543 0
-359 -545 0
-362 -546 0
-363 -547 0
-356 -583 0
-357 -584 0
-359 -585 0
-360 -586 0
-362 -587 0
-363 -588 0
-355 -596 0
-357 -597 0
-359 -599 0
-361 -600 0
-362 -601 0
-363 -602 0
-354 -634 0
-357 -635 0
-358 -636 0
-361 -638 0
-362 -639 0
-363 -640 0
-354 -657 0
-356 -658 0
-361 -661 0
-362 -662 0
-363 -663 0
-354 -671 0
-356 -672 0
-358 -673 0
-360 -675 0
-361 -676 0
-362 -677 0
-363 -678 0
-356 -686 0
-357 -687 0
-360 -689 0
-361 -690 0
-362 -691 0
-363 -692 0
-354 -693 0
-355 -694 0
-358 -695 0
-360 -696 0
-361 -697 0
-362 -698 0
-363 -699 0
-356 -700 0
-357 -702 0
-358 -703 0
-360 -704 0
-361 -705 0
-362 -706 0
-363 -707 0
-355 -718 0
-356 -719 0
-357 -720 0
-361 -721 0
-362 -722 0
-363 -723 0
-354 -724 0
-360 -726 0
-361 -727 0
-362 -728 0
-363 -729 0
-356 -736 0
-357 -737 0
-358 -738 0
-361 -740 0
-362 -741 0
-363 -742 0
-357 -743 0
-358 -744 0
-360 -745 0
-361 -746 0
-362 -747 0
-363 -748 0
-356 -807 0
-358 -808 0
-359 -809 0
-360 -810 0
-361 -811 0
-362 -812 0
-363 -813 0
-355 -821 0
-356 -822 0
-358 -823 0
-359 -825 0
-361 -826 0
-362 -827 0
-363 -828 0
-356 -835 0
-359 -837 0
-361 -838 0
-362 -839 0
-363 -840 0
-354 -848 0
-358 -850 0
-362 -852 0
-363 -853 0
-354 -888 0
-357 -890 0
-360 -891 0
-362 -892 0
-363 -893 0
-354 -903 0
-355 -904 0
-357 -905 0
-358 -906 0
-362 -907 0
-363 -908 0
-354 -923 0
-357 -924 0
-358 -925 0
-361 -927 0
-362 -928 0
-363 -929 0
-357 -938 0
-358 -939 0
-360 -940 0
-361 -941 0
-362 -942 0
-363 -943 0
-354 -944 0
-356 -945 0
-358 -947 0
-360 -948 0
-362 -949 0
-363 -950 0
-354 -958 0
-355 -959 0
-358 -961 0
-361 -963 0
-362 -964 0
-363 -965 0
-354 -974 0
-355 -975 0
-360 -978 0
-362 -979 0
-363 -980 0
-355 -990 0
-356 -991 0
-357 -993 0
-358 -994 0
-360 -996 0
-362 -997 0
-363 -998 0
-355 -999 0
-357 -1001 0
-360 -1002 0
-361 -1003 0
-362 -1004 0
-363 -1005 0
-355 -1014 0
-357 -1016 0
-358 -1017 0
-361 -1018 0
-362 -1019 0
-363 -1020 0
-354 -1021 0
-358 -1023 0
-360 -1024 0
-361 -1025 0
-362 -1026 0
-363 -1027 0
-356 -1036 0
-357 -1038 0
-358 -1039 0
-360 -1040 0
-361 -1041 0
-362 -1042 0
-363 -1043 0
-357 -1045 0
-358 -1046 0
-360 -1048 0
-362 -1049 0
-363 -1050 0
-355 -1060 0
-357 -1062 0
-358 -1063 0
-362 -1065 0
-363 -1066 0
-355 -1074 0
-357 -1075 0
-358 -1076 0
-360 -1078 0
-361 -1079 0
-362 -1080 0
-363 -1081 0
-354 -1153 0
-355 -1154 0
-359 -1156 0
-362 -1157 0
-363 -1158 0
-354 -1191 0
-358 -1192 0
-359 -1194 0
-361 -1195 0
-362 -1196 0
-363 -1197 0
-357 -1226 0
-359 -1228 0
-360 -1229 0
-361 -1230 0
-362 -1231 0
-363 -1232 0
-355 -1261 0
-356 -1262 0
-359 -1264 0
-360 -1265 0
-362 -1266 0
-363 -1267 0
-355 -1275 0
-356 -1276 0
-358 -1277 0
-359 -1278 0
-362 -1279 0
-363 -1280 0
-355 -1287 0
-359 -1290 0
-361 -1291 0
-362 -1292 0
-363 -1293 0
-356 -1295 0
-358 -1297 0
-359 -1299 0
-360 -1300 0
-361 -1301 0
-362 -1302 0
-363 -1303 0
-355 -1311 0
-356 -1312 0
-358 -1313 0
-359 -1315 0
-361 -1316 0
-362 -1317 0
-363 -1318 0
-355 -1326 0
-358 -1328 0
-359 -1330 0
-362 -1331 0
-363 -1332 0
-355 -1339 0
-359 -1340 0
-360 -1341 0
-361 -1342 0
-362 -1343 0
-363 -1344 0
-354 -1360 0
-359 -1363 0
-361 -1364 0
-362 -1365 0
-363 -1366 0
-354 -1374 0
-358 -1375 0
-359 -1376 0
-360 -1377 0
-362 -1378 0
-363 -1379 0
-356 -1386 0
-357 -1387 0
-359 -1388 0
-360 -1389 0
-362 -1390 0
-363 -1391 0
-357 -1393 0
-358 -1394 0
-359 -1396 0
-360 -1397 0
-361 -1398 0
-362 -1399 0
-363 -1400 0
-355 -1408 0
-357 -1409 0
-359 -1411 0
-361 -1412 0
-362 -1413 0
-363 -1414 0
-357 -1422 0
-358 -1423 0
-359 -1425 0
-362 -1426 0
-363 -1427 0
-356 -1428 0
-359 -1431 0
-360 -1432 0
-361 -1433 0
-362 -1434 0
-363 -1435 0
-355 -1442 0
-358 -1444 0
-359 -1445 0
-360 -1446 0
-361 -1447 0
-362 -1448 0
-363 -1449 0
-359 -1459 0
-360 -1460 0
-362 -1461 0
-363 -1462 0
-356 -1506 0
-358 -1507 0
-360 -1509 0
-362 -1510 0
-363 -1511 0
-355 -1519 0
-358 -1520 0
-361 -1522 0
-362 -1523 0
-363 -1524 0
-354 -1556 0
-357 -1557 0
-359 -1559 0
-360 -1560 0
-362 -1561 0
-363 -1562 0
-354 -1576 0
-359 -1578 0
-360 -1579 0
-361 -1580 0
-362 -1581 0
-363 -1582 0
-354 -1590 0
-358 -1592 0
-359 -1594 0
-360 -1595 0
-362 -1596 0
-363 -1597 0
-356 -1605 0
-357 -1607 0
-359 -1609 0
-362 -1610 0
-363 -1611 0
-357 -1613 0
-358 -1614 0
-359 -1616 0
-361 -1617 0
-362 -1618 0
-363 -1619 0
-355 -1627 0
-357 -1629 0
-359 -1631 0
-360 -1632 0
-361 -1633 0
-362 -1634 0
-363 -1635 0
-357 -1643 0
-358 -1644 0
-359 -1645 0
-360 -1646 0
-362 -1647 0
-363 -1648 0
-357 -1649 0
-359 -1651 0
-360 -1652 0
-361 -1653 0
-362 -1654 0
-363 -1655 0
-354 -1714 0
-358 -1715 0
-359 -1716 0
-360 -1717 0
-362 -1718 0
-363 -1719 0
-356 -1795 0
-358 -1797 0
-359 -1799 0
-362 -1800 0
-363 -1801 0
-355 -1810 0
-356 -1811 0
-359 -1813 0
-360 -1814 0
-362 -1815 0
-363 -1816 0
-355 -1824 0
-358 -1826 0
-359 -1827 0
-360 -1828 0
-361 -1829 0
-362 -1830 0
-363 -1831 0
-356 -1845 0
-358 -1846 0
-359 -1847 0
-360 -1848 0
-361 -1849 0
-362 -1850 0
-363 -1851 0
-359 -1860 0
-360 -1861 0
-362 -1862 0
-363 -1863 0
-358 -1870 0
-359 -1872 0
-360 -1873 0
-361 -1874 0
-362 -1875 0
-363 -1876 0
-357 -1884 0
-358 -1885 0
-360 -1886 0
-361 -1887 0
-362 -1888 0
-363 -1889 0
-358 -1891 0
-360 -1893 0
-361 -1894 0
-362 -1895 0
-363 -1896 0
-358 -1917 0
-359 -1919 0
-360 -1920 0
-361 -1921 0
-362 -1922 0
-363 -1923 0
-357 -1932 0
-361 -1934 0
-362 -1935 0
-363 -1936 0
-358 -1973 0
-359 -1974 0
-361 -1975 0
-362 -1976 0
-363 -1977 0
-355 -1984 0
-359 -1985 0
-360 -1986 0
-361 -1987 0
-362 -1988 0
-363 -1989 0
-358 -1991 0
-359 -1993 0
-360 -1994 0
-361 -1995 0
-362 -1996 0
-363 -1997 0
-364 -480 0
-365 -481 0
-366 -482 0
-368 -484 0
-369 -486 0
-370 -487 0
-371 -488 0
-364 -534 0
-366 -535 0
-369 -537 0
-370 -539 0
-371 -540 0
-366 -583 0
-367 -584 0
-369 -586 0
-370 -587 0
-371 -588 0
-365 -589 0
-367 -590 0
-369 -593 0
-370 -594 0
-371 -595 0
-364 -626 0
-367 -627 0
-369 -630 0
-370 -632 0
-371 -633 0
-364 -648 0
-366 -649 0
-369 -653 0
-370 -655 0
-371 -656 0
-364 -679 0
-366 -680 0
-369 -682 0
-370 -684 0
-371 -685 0
-366 -686 0
-367 -687 0
-368 -688 0
-369 -689 0
-370 -691 0
-371 -692 0
-364 -693 0
-365 -694 0
-369 -696 0
-370 -698 0
-371 -699 0
-366 -700 0
-367 -702 0
-369 -704 0
-370 -706 0
-371 -707 0
-365 -708 0
-366 -709 0
-367 -710 0
-368 -712 0
-369 -714 0
-370 -716 0
-371 -717 0
-364 -724 0
-368 -725 0
-369 -726 0
-370 -728 0
-371 -729 0
-366 -730 0
-367 -731 0
-369 -733 0
-370 -734 0
-371 -735 0
-367 -749 0
-368 -750 0
-369 -752 0
-370 -754 0
-371 -755 0
-366 -807 0
-369 -810 0
-370 -812 0
-371 -813 0
-365 -814 0
-366 -815 0
-369 -817 0
-370 -819 0
-371 -820 0
-366 -829 0
-368 -831 0
-369 -832 0
-370 -833 0
-371 -834 0
-364 -841 0
-369 -844 0
-370 -846 0
-371 -847 0
-364 -888 0
-367 -890 0
-369 -891 0
-370 -892 0
-371 -893 0
-364 -894 0
-365 -895 0
-367 -896 0
-368 -897 0
-369 -899 0
-370 -901 0
-371 -902 0
-364 -915 0
-367 -916 0
-369 -919 0
-370 -921 0
-371 -922 0
-367 -938 0
-369 -940 0
-370 -942 0
-371 -943 0
-364 -944 0
-366 -945 0
-369 -948 0
-370 -949 0
-371 -950 0
-364 -951 0
-365 -952 0
-369 -955 0
-370 -956 0
-371 -957 0
-364 -981 0
-365 -982 0
-369 -986 0
-370 -988 0
-371 -989 0
-365 -990 0
-366 -991 0
-367 -993 0
-368 -995 0
-369 -996 0
-370 -997 0
-371 -998 0
-365 -999 0
-367 -1001 0
-369 -1002 0
-370 -1004 0
-371 -1005 0
-365 -1006 0
-367 -1008 0
-368 -1009 0
-369 -1011 0
-370 -1012 0
-371 -1013 0
-364 -1028 0
-368 -1031 0
-369 -1033 0
-370 -1034 0
-371 -1035 0
-366 -1036 0
-367 -1038 0
-369 -1040 0
-370 -1042 0
-371 -1043 0
-367 -1045 0
-368 -1047 0
-369 -1048 0
-370 -1049 0
-371 -1050 0
-365 -1051 0
-367 -1053 0
-369 -1056 0
-370 -1058 0
-371 -1059 0
-365 -1082 0
-367 -1083 0
-369 -1086 0
-370 -1087 0
-371 -1088 0
-364 -1146 0
-365 -1147 0
-369 -1149 0
-370 -1151 0
-371 -1152 0
-364 -1185 0
-368 -1186 0
-369 -1187 0
-370 -1189 0
-371 -1190 0
-367 -1226 0
-368 -1227 0
-369 -1229 0
-370 -1231 0
-371 -1232 0
-365 -1261 0
-366 -1262 0
-369 -1265 0
-370 -1266 0
-371 -1267 0
-365 -1268 0
-366 -1269 0
-368 -1270 0
-369 -1271 0
-370 -1273 0
-371 -1274 0
-365 -1281 0
-369 -1284 0
-370 -1285 0
-371 -1286 0
-366 -1295 0
-368 -1298 0
-369 -1300 0
-370 -1302 0
-371 -1303 0
-365 -1304 0
-366 -1305 0
-369 -1307 0
-370 -1309 0
-371 -1310 0
-365 -1319 0
-368 -1321 0
-369 -1322 0
-370 -1324 0
-371 -1325 0
-365 -1345 0
-368 -1347 0
-369 -1349 0
-370 -1350 0
-371 -1351 0
-364 -1352 0
-368 -1355 0
-369 -1357 0
-370 -1358 0
-371 -1359 0
-364 -1380 0
-368 -1381 0
-369 -1382 0
-370 -1384 0
-371 -1385 0
-366 -1386 0
-367 -1387 0
-369 -1389 0
-370 -1390 0
-371 -1391 0
-367 -1393 0
-368 -1395 0
-369 -1397 0
-370 -1399 0
-371 -1400 0
-365 -1401 0
-367 -1402 0
-369 -1405 0
-370 -1406 0
-371 -1407 0
-367 -1415 0
-368 -1416 0
-369 -1418 0
-370 -1420 0
-371 -1421 0
-366 -1428 0
-368 -1430 0
-369 -1432 0
-370 -1434 0
-371 -1435 0
-365 -1450 0
-368 -1452 0
-369 -1453 0
-370 -1455 0
-371 -1456 0
-368 -1465 0
-369 -1466 0
-370 -1468 0
-371 -1469 0
-366 -1506 0
-368 -1508 0
-369 -1509 0
-370 -1510 0
-371 -1511 0
-365 -1512 0
-368 -1514 0
-369 -1516 0
-370 -1517 0
-371 -1518 0
-368 -1526 0
-369 -1528 0
-370 -1530 0
-371 -1531 0
-364 -1549 0
-367 -1550 0
-368 -1552 0
-370 -1554 0
-371 -1555 0
-364 -1570 0
-368 -1573 0
-370 -1574 0
-371 -1575 0
-364 -1598 0
-368 -1600 0
-370 -1603 0
-371 -1604 0
-366 -1605 0
-367 -1607 0
-368 -1608 0
-370 -1610 0
-371 -1611 0
-367 -1613 0
-368 -1615 0
-370 -1618 0
-371 -1619 0
-365 -1620 0
-367 -1622 0
-368 -1624 0
-370 -1625 0
-371 -1626 0
-367 -1637 0
-368 -1638 0
-370 -1640 0
-371 -1641 0
-367 -1656 0
-368 -1658 0
-370 -1660 0
-371 -1661 0
-364 -1707 0
-368 -1709 0
-370 -1712 0
-371 -1713 0
-366 -1795 0
-368 -1798 0
-370 -1800 0
-371 -1801 0
-365 -1802 0
-366 -1803 0
-368 -1805 0
-370 -1808 0
-371 -1809 0
-365 -1817 0
-368 -1820 0
-370 -1822 0
-371 -1823 0
-366 -1839 0
-368 -1840 0
-370 -1843 0
-371 -1844 0
-370 -1856 0
-371 -1857 0
-367 -1878 0
-368 -1880 0
-370 -1882 0
-371 -1883 0
-370 -1901 0
-371 -1902 0
-367 -1932 0
-368 -1933 0
-370 -1935 0
-371 -1936 0
-370 -1976 0
-371 -1977 0
-365 -1978 0
-368 -1980 0
-370 -1982 0
-371 -1983 0
-372 -467 0
-373 -469 0
-377 -471 0
-378 -472 0
-372 -555 0
-376 -558 0
-377 -559 0
-378 -560 0
-373 -569 0
-374 -570 0
-377 -572 0
-378 -573 0
-373 -575 0
-374 -576 0
-375 -577 0
-376 -579 0
-377 -581 0
-378 -582 0
-372 -603 0
-375 -604 0
-376 -606 0
-377 -608 0
-378 -609 0
-372 -610 0
-373 -611 0
-374 -612 0
-375 -613 0
-376 -614 0
-377 -615 0
-378 -616 0
-372 -617 0
-373 -618 0
-374 -619 0
-376 -621 0
-377 -624 0
-378 -625 0
-372 -648 0
-373 -649 0
-375 -651 0
-376 -652 0
-377 -655 0
-378 -656 0
-372 -657 0
-373 -658 0
-377 -662 0
-378 -663 0
-373 -664 0
-374 -666 0
-376 -667 0
-377 -669 0
-378 -670 0
-372 -693 0
-375 -695 0
-377 -698 0
-378 -699 0
-373 -709 0
-374 -710 0
-375 -711 0
-376 -713 0
-377 -716 0
-378 -717 0
-373 -719 0
-374 -720 0
-377 -722 0
-378 -723 0
-374 -743 0
-375 -744 0
-377 -747 0
-378 -748 0
-374 -749 0
-376 -751 0
-377 -754 0
-378 -755 0
-373 -795 0
-375 -796 0
-376 -797 0
-377 -798 0
-378 -799 0
-373 -801 0
-377 -805 0
-378 -806 0
-373 -829 0
-375 -830 0
-377 -833 0
-378 -834 0
-373 -835 0
-376 -837 0
-377 -839 0
-378 -840 0
-372 -870 0
-374 -873 0
-376 -874 0
-377 -876 0
-378 -877 0
-372 -878 0
-374 -881 0
-375 -882 0
-376 -884 0
-377 -886 0
-378 -887 0
-372 -915 0
-374 -916 0
-375 -917 0
-376 -918 0
-377 -921 0
-378 -922 0
-372 -923 0
-374 -924 0
-375 -925 0
-377 -928 0
-378 -929 0
-374 -931 0
-375 -932 0
-376 -934 0
-377 -936 0
-378 -937 0
-372 -951 0
-376 -954 0
-377 -956 0
-378 -957 0
-372 -958 0
-375 -961 0
-377 -964 0
-378 -965 0
-373 -967 0
-374 -969 0
-375 -970 0
-376 -971 0
-377 -972 0
-378 -973 0
-374 -1008 0
-376 -1010 0
-377 -1012 0
-378 -1013 0
-374 -1016 0
-375 -1017 0
-377 -1019 0
-378 -1020 0
-372 -1021 0
-375 -1023 0
-377 -1026 0
-378 -1027 0
-372 -1028 0
-375 -1030 0
-376 -1032 0
-377 -1034 0
-378 -1035 0
-373 -1036 0
-374 -1038 0
-375 -1039 0
-377 -1042 0
-378 -1043 0
-374 -1045 0
-375 -1046 0
-377 -1049 0
-378 -1050 0
-374 -1075 0
-375 -1076 0
-377 -1080 0
-378 -1081 0
-374 -1083 0
-375 -1084 0
-376 -1085 0
-377 -1087 0
-378 -1088 0
-372 -1128 0
-376 -1131 0
-377 -1134 0
-378 -1135 0
-374 -1212 0
-376 -1214 0
-377 -1216 0
-378 -1217 0
-374 -1219 0
-375 -1220 0
-377 -1224 0
-378 -1225 0
-373 -1247 0
-376 -1249 0
-377 -1251 0
-378 -1252 0
-373 -1254 0
-375 -1256 0
-377 -1259 0
-378 -1260 0
-373 -1305 0
-375 -1306 0
-377 -1309 0
-378 -1310 0
-373 -1312 0
-375 -1313 0
-376 -1315 0
-377 -1317 0
-378 -1318 0
-377 -1324 0
-378 -1325 0
-375 -1328 0
-376 -1330 0
-377 -1331 0
-378 -1332 0
-372 -1352 0
-375 -1354 0
-376 -1356 0
-377 -1358 0
-378 -1359 0
-372 -1360 0
-376 -1363 0
-377 -1365 0
-378 -1366 0
-373 -1367 0
-374 -1369 0
-376 -1371 0
-377 -1372 0
-378 -1373 0
-374 -1402 0
-375 -1403 0
-376 -1404 0
-377 -1406 0
-378 -1407 0
-374 -1409 0
-376 -1411 0
-377 -1413 0
-378 -1414 0
-373 -1428 0
-376 -1431 0
-377 -1434 0
-378 -1435 0
-375 -1444 0
-376 -1445 0
-377 -1448 0
-378 -1449 0
-377 -1455 0
-378 -1456 0
-375 -1471 0
-376 -1473 0
-377 -1476 0
-378 -1477 0
-373 -1492 0
-375 -1493 0
-376 -1495 0
-377 -1497 0
-378 -1498 0
-373 -1500 0
-376 -1502 0
-377 -1504 0
-378 -1505 0
-375 -1525 0
-376 -1527 0
-377 -1530 0
-378 -1531 0
-372 -1533 0
-374 -1535 0
-375 -1536 0
-376 -1538 0
-377 -1541 0
-378 -1542 0
-372 -1543 0
-374 -1545 0
-377 -1547 0
-378 -1548 0
-372 -1570 0
-375 -1572 0
-377 -1574 0
-378 -1575 0
-372 -1576 0
-376 -1578 0
-377 -1581 0
-378 -1582 0
-373 -1583 0
-374 -1585 0
-377 -1588 0
-378 -1589 0
-374 -1622 0
-375 -1623 0
-377 -1625 0
-378 -1626 0
-374 -1629 0
-376 -1631 0
-377 -1634 0
-378 -1635 0
-374 -1649 0
-376 -1651 0
-377 -1654 0
-378 -1655 0
-374 -1656 0
-375 -1657 0
-376 -1659 0
-377 -1660 0
-378 -1661 0
-372 -1692 0
-375 -1694 0
-377 -1697 0
-378 -1698 0
-374 -1751 0
-375 -1752 0
-377 -1755 0
-378 -1756 0
-374 -1757 0
-376 -1759 0
-377 -1762 0
-378 -1763 0
-373 -1780 0
-375 -1782 0
-377 -1786 0
-378 -1787 0
-373 -1789 0
-376 -1791 0
-377 -1793 0
-378 -1794 0
-375 -1833 0
-376 -1835 0
-377 -1837 0
-378 -1838 0
-373 -1839 0
-376 -1841 0
-377 -1843 0
-378 -1844 0
-373 -1845 0
-375 -1846 0
-376 -1847 0
-377 -1850 0
-378 -1851 0
-375 -1853 0
-376 -1854 0
-377 -1856 0
-378 -1857 0
-376 -1860 0
-377 -1862 0
-378 -1863 0
-374 -1878 0
-375 -1879 0
-376 -1881 0
-377 -1882 0
-378 -1883 0
-374 -1884 0
-375 -1885 0
-377 -1888 0
-378 -1889 0
-375 -1891 0
-377 -1895 0
-378 -1896 0
-375 -1898 0
-376 -1899 0
-377 -1901 0
-378 -1902 0
-373 -1903 0
-375 -1904 0
-376 -1905 0
-377 -1908 0
-378 -1909 0
-373 -1910 0
-375 -1911 0
-377 -1914 0
-378 -1915 0
-374 -1925 0
-376 -1926 0
-377 -1929 0
-378 -1930 0
-375 -1959 0
-376 -1960 0
-377 -1963 0
-378 -1964 0
-377 -1970 0
-378 -1971 0
-375 -1991 0
-376 -1993 0
-377 -1996 0
-378 -1997 0
-379 -442 0
-380 -443 0
-382 -445 0
-383 -448 0
-384 -449 0
-379 -541 0
-382 -543 0
-383 -546 0
-384 -547 0
-381 -549 0
-382 -550 0
-383 -553 0
-384 -554 0
-380 -574 0
-381 -576 0
-382 -577 0
-383 -581 0
-384 -582 0
-379 -617 0
-381 -619 0
-383 -624 0
-384 -625 0
-379 -657 0
-383 -662 0
-384 -663 0
-381 -666 0
-383 -669 0
-384 -670 0
-379 -679 0
-383 -684 0
-384 -685 0
-381 -687 0
-383 -691 0
-384 -692 0
-380 -718 0
-381 -720 0
-383 -722 0
-384 -723 0
-379 -724 0
-383 -728 0
-384 -729 0
-381 -731 0
-383 -734 0
-384 -735 0
-381 -749 0
-383 -754 0
-384 -755 0
-380 -800 0
-383 -805 0
-384 -806 0
-383 -839 0
-384 -840 0
-379 -848 0
-382 -850 0
-383 -852 0
-384 -853 0
-379 -854 0
-381 -857 0
-382 -858 0
-383 -861 0
-384 -862 0
-379 -878 0
-380 -879 0
-381 -881 0
-382 -882 0
-383 -886 0
-384 -887 0
-379 -903 0
-380 -904 0
-381 -905 0
-382 -906 0
-383 -907 0
-384 -908 0
-379 -915 0
-381 -916 0
-382 -917 0
-383 -921 0
-384 -922 0
-381 -931 0
-382 -932 0
-383 -936 0
-384 -937 0
-381 -938 0
-382 -939 0
-383 -942 0
-384 -943 0
-379 -944 0
-382 -947 0
-383 -949 0
-384 -950 0
-379 -958 0
-380 -959 0
-382 -961 0
-383 -964 0
-384 -965 0
-380 -966 0
-381 -969 0
-382 -970 0
-383 -972 0
-384 -973 0
-379 -981 0
-380 -982 0
-382 -984 0
-383 -988 0
-384 -989 0
-380 -990 0
-381 -993 0
-382 -994 0
-383 -997 0
-384 -998 0
-380 -1014 0
-381 -1016 0
-382 -1017 0
-383 -1019 0
-384 -1020 0
-379 -1021 0
-382 -1023 0
-383 -1026 0
-384 -1027 0
-381 -1045 0
-382 -1046 0
-383 -1049 0
-384 -1050 0
-380 -1051 0
-381 -1053 0
-382 -1054 0
-383 -1058 0
-384 -1059 0
-381 -1068 0
-382 -1069 0
-383 -1072 0
-384 -1073 0
-380 -1074 0
-381 -1075 0
-382 -1076 0
-383 -1080 0
-384 -1081 0
-379 -1103 0
-380 -1104 0
-382 -1106 0
-383 -1110 0
-384 -1111 0
-379 -1191 0
-382 -1192 0
-383 -1196 0
-384 -1197 0
-381 -1199 0
-382 -1200 0
-383 -1203 0
-384 -1204 0
-380 -1218 0
-381 -1219 0
-382 -1220 0
-383 -1224 0
-384 -1225 0
-380 -1233 0
-382 -1236 0
-383 -1238 0
-384 -1239 0
-380 -1253 0
-382 -1256 0
-383 -1259 0
-384 -1260 0
-380 -1275 0
-382 -1277 0
-383 -1279 0
-384 -1280 0
-382 -1297 0
-383 -1302 0
-384 -1303 0
-380 -1304 0
-382 -1306 0
-383 -1309 0
-384 -1310 0
-380 -1326 0
-382 -1328 0
-383 -1331 0
-384 -1332 0
-380 -1333 0
-382 -1334 0
-383 -1337 0
-384 -1338 0
-380 -1345 0
-382 -1346 0
-383 -1350 0
-384 -1351 0
-379 -1360 0
-383 -1365 0
-384 -1366 0
-381 -1369 0
-383 -1372 0
-384 -1373 0
-379 -1380 0
-383 -1384 0
-384 -1385 0
-381 -1387 0
-383 -1390 0
-384 -1391 0
-380 -1408 0
-381 -1409 0
-383 -1413 0
-384 -1414 0
-381 -1415 0
-383 -1420 0
-384 -1421 0
-383 -1434 0
-384 -1435 0
-383 -1440 0
-384 -1441 0
-380 -1450 0
-383 -1455 0
-384 -1456 0
-383 -1461 0
-384 -1462 0
-383 -1482 0
-384 -1483 0
-380 -1499 0
-383 -1504 0
-384 -1505 0
-379 -1543 0
-381 -1545 0
-383 -1547 0
-384 -1548 0
-379 -1556 0
-381 -1557 0
-383 -1561 0
-384 -1562 0
-379 -1576 0
-383 -1581 0
-384 -1582 0
-381 -1585 0
-383 -1588 0
-384 -1589 0
-379 -1598 0
-383 -1603 0
-384 -1604 0
-381 -1607 0
-383 -1610 0
-384 -1611 0
-380 -1627 0
-381 -1629 0
-383 -1634 0
-384 -1635 0
-381 -1637 0
-383 -1640 0
-384 -1641 0
-381 -1649 0
-383 -1654 0
-384 -1655 0
-379 -1670 0
-383 -1675 0
-384 -1676 0
-381 -1757 0
-383 -1762 0
-384 -1763 0
-383 -1770 0
-384 -1771 0
-380 -1788 0
-383 -1793 0
-384 -1794 0
-380 -1810 0
-383 -1815 0
-384 -1816 0
-383 -1843 0
-384 -1844 0
-383 -1862 0
-384 -1863 0
-380 -1864 0
-383 -1868 0
-384 -1869 0
-381 -1884 0
-382 -1885 0
-383 -1888 0
-384 -1889 0
-382 -1898 0
-383 -1901 0
-384 -1902 0
-382 -1911 0
-383 -1914 0
-384 -1915 0
-381 -1925 0
-383 -1929 0
-384 -1930 0
-381 -1932 0
-383 -1935 0
-384 -1936 0
-383 -1942 0
-384 -1943 0
-383 -1948 0
-384 -1949 0
-380 -1965 0
-383 -1970 0
-384 -1971 0
-380 -1984 0
-383 -1988 0
-384 -1989 0
-385 -435 0
-386 -436 0
-389 -438 0
-392 -439 0
-393 -440 0
-394 -441 0
-385 -534 0
-390 -536 0
-391 -537 0
-392 -538 0
-393 -539 0
-394 -540 0
-387 -549 0
-388 -550 0
-390 -551 0
-392 -552 0
-393 -553 0
-394 -554 0
-386 -568 0
-387 -570 0
-392 -571 0
-393 -572 0
-394 -573 0
-385 -610 0
-387 -612 0
-388 -613 0
-390 -614 0
-393 -615 0
-394 -616 0
-385 -648 0
-388 -651 0
-390 -652 0
-391 -653 0
-392 -654 0
-393 -655 0
-394 -656 0
-387 -666 0
-390 -667 0
-392 -668 0
-393 -669 0
-394 -670 0
-385 -671 0
-388 -673 0
-389 -674 0
-391 -675 0
-392 -676 0
-393 -677 0
-394 -678 0
-387 -687 0
-389 -688 0
-391 -689 0
-392 -690 0
-393 -691 0
-394 -692 0
-386 -708 0
-387 -710 0
-388 -711 0
-389 -712 0
-390 -713 0
-391 -714 0
-392 -715 0
-393 -716 0
-394 -717 0
-385 -724 0
-389 -725 0
-391 -726 0
-392 -727 0
-393 -728 0
-394 -729 0
-387 -737 0
-388 -738 0
-389 -739 0
-392 -740 0
-393 -741 0
-394 -742 0
-387 -743 0
-388 -744 0
-391 -745 0
-392 -746 0
-393 -747 0
-394 -748 0
-386 -794 0
-388 -796 0
-390 -797 0
-393 -798 0
-394 -799 0
-388 -830 0
-389 -831 0
-391 -832 0
-393 -833 0
-394 -834 0
-385 -841 0
-390 -843 0
-391 -844 0
-392 -845 0
-393 -846 0
-394 -847 0
-385 -854 0
-387 -857 0
-388 -858 0
-390 -859 0
-392 -860 0
-393 -861 0
-394 -862 0
-385 -870 0
-386 -871 0
-387 -873 0
-390 -874 0
-392 -875 0
-393 -876 0
-394 -877 0
-385 -894 0
-386 -895 0
-387 -896 0
-389 -897 0
-390 -898 0
-391 -899 0
-392 -900 0
-393 -901 0
-394 -902 0
-385 -923 0
-387 -924 0
-388 -925 0
-389 -926 0
-392 -927 0
-393 -928 0
-394 -929 0
-387 -931 0
-388 -932 0
-389 -933 0
-390 -934 0
-392 -935 0
-393 -936 0
-394 -937 0
-387 -938 0
-388 -939 0
-391 -940 0
-392 -941 0
-393 -942 0
-394 -943 0
-385 -944 0
-388 -947 0
-391 -948 0
-393 -949 0
-394 -950 0
-385 -951 0
-386 -952 0
-390 -954 0
-391 -955 0
-393 -956 0
-394 -957 0
-386 -966 0
-387 -969 0
-388 -970 0
-390 -971 0
-393 -972 0
-394 -973 0
-385 -974 0
-386 -975 0
-389 -977 0
-391 -978 0
-393 -979 0
-394 -980 0
-386 -990 0
-387 -993 0
-388 -994 0
-389 -995 0
-391 -996 0
-393 -997 0
-394 -998 0
-386 -1006 0
-387 -1008 0
-389 -1009 0
-390 -1010 0
-391 -1011 0
-393 -1012 0
-394 -1013 0
-385 -1028 0
-388 -1030 0
-389 -1031 0
-390 -1032 0
-391 -1033 0
-393 -1034 0
-394 -1035 0
-387 -1045 0
-388 -1046 0
-389 -1047 0
-391 -1048 0
-393 -1049 0
-394 -1050 0
-386 -1060 0
-387 -1062 0
-388 -1063 0
-389 -1064 0
-393 -1065 0
-394 -1066 0
-387 -1068 0
-388 -1069 0
-390 -1070 0
-391 -1071 0
-393 -1072 0
-394 -1073 0
-386 -1082 0
-387 -1083 0
-388 -1084 0
-390 -1085 0
-391 -1086 0
-393 -1087 0
-394 -1088 0
-385 -1096 0
-386 -1097 0
-390 -1099 0
-392 -1100 0
-393 -1101 0
-394 -1102 0
-385 -1185 0
-389 -1186 0
-391 -1187 0
-392 -1188 0
-393 -1189 0
-394 -1190 0
-387 -1199 0
-388 -1200 0
-389 -1201 0
-392 -1202 0
-393 -1203 0
-394 -1204 0
-386 -1211 0
-387 -1212 0
-389 -1213 0
-390 -1214 0
-392 -1215 0
-393 -1216 0
-394 -1217 0
-386 -1233 0
-388 -1236 0
-392 -1237 0
-393 -1238 0
-394 -1239 0
-386 -1246 0
-390 -1249 0
-392 -1250 0
-393 -1251 0
-394 -1252 0
-386 -1268 0
-389 -1270 0
-391 -1271 0
-392 -1272 0
-393 -1273 0
-394 -1274 0
-388 -1297 0
-389 -1298 0
-390 -1299 0
-391 -1300 0
-392 -1301 0
-393 -1302 0
-394 -1303 0
-386 -1311 0
-388 -1313 0
-389 -1314 0
-390 -1315 0
-392 -1316 0
-393 -1317 0
-394 -1318 0
-386 -1319 0
-389 -1321 0
-391 -1322 0
-392 -1323 0
-393 -1324 0
-394 -1325 0
-386 -1333 0
-388 -1334 0
-389 -1335 0
-392 -1336 0
-393 -1337 0
-394 -1338 0
-386 -1339 0
-390 -1340 0
-391 -1341 0
-392 -1342 0
-393 -1343 0
-394 -1344 0
-385 -1352 0
-388 -1354 0
-389 -1355 0
-390 -1356 0
-391 -1357 0
-393 -1358 0
-394 -1359 0
-387 -1369 0
-389 -1370 0
-390 -1371 0
-393 -1372 0
-394 -1373 0
-385 -1374 0
-388 -1375 0
-390 -1376 0
-391 -1377 0
-393 -1378 0
-394 -1379 0
-387 -1387 0
-390 -1388 0
-391 -1389 0
-393 -1390 0
-394 -1391 0
-386 -1401 0
-387 -1402 0
-388 -1403 0
-390 -1404 0
-391 -1405 0
-393 -1406 0
-394 -1407 0
-387 -1422 0
-388 -1423 0
-389 -1424 0
-390 -1425 0
-393 -1426 0
-394 -1427 0
-389 -1430 0
-390 -1431 0
-391 -1432 0
-392 -1433 0
-393 -1434 0
-394 -1435 0
-391 -1438 0
-392 -1439 0
-393 -1440 0
-394 -1441 0
-386 -1442 0
-388 -1444 0
-390 -1445 0
-391 -1446 0
-392 -1447 0
-393 -1448 0
-394 -1449 0
-388 -1464 0
-389 -1465 0
-391 -1466 0
-392 -1467 0
-393 -1468 0
-394 -1469 0
-388 -1471 0
-389 -1472 0
-390 -1473 0
-391 -1474 0
-392 -1475 0
-393 -1476 0
-394 -1477 0
-389 -1479 0
-390 -1480 0
-392 -1481 0
-393 -1482 0
-394 -1483 0
-386 -1491 0
-388 -1493 0
-389 -1494 0
-390 -1495 0
-392 -1496 0
-393 -1497 0
-394 -1498 0
-388 -1525 0
-389 -1526 0
-390 -1527 0
-391 -1528 0
-392 -1529 0
-393 -1530 0
-394 -1531 0
-385 -1533 0
-387 -1535 0
-388 -1536 0
-389 -1537 0
-390 -1538 0
-391 -1539 0
-392 -1540 0
-393 -1541 0
-394 -1542 0
-385 -1549 0
-387 -1550 0
-388 -1551 0
-389 -1552 0
-392 -1553 0
-393 -1554 0
-394 -1555 0
-385 -1570 0
-388 -1572 0
-389 -1573 0
-393 -1574 0
-394 -1575 0
-387 -1585 0
-389 -1586 0
-391 -1587 0
-393 -1588 0
-394 -1589 0
-385 -1590 0
-388 -1592 0
-389 -1593 0
-390 -1594 0
-391 -1595 0
-393 -1596 0
-394 -1597 0
-387 -1607 0
-389 -1608 0
-390 -1609 0
-393 -1610 0
-394 -1611 0
-386 -1620 0
-387 -1622 0
-388 -1623 0
-389 -1624 0
-393 -1625 0
-394 -1626 0
-387 -1643 0
-388 -1644 0
-390 -1645 0
-391 -1646 0
-393 -1647 0
-394 -1648 0
-387 -1656 0
-388 -1657 0
-389 -1658 0
-390 -1659 0
-393 -1660 0
-394 -1661 0
-385 -1662 0
-388 -1664 0
-389 -1665 0
-391 -1666 0
-392 -1667 0
-393 -1668 0
-394 -1669 0
-387 -1751 0
-388 -1752 0
-391 -1753 0
-392 -1754 0
-393 -1755 0
-394 -1756 0
-389 -1766 0
-390 -1767 0
-391 -1768 0
-392 -1769 0
-393 -1770 0
-394 -1771 0
-386 -1779 0
-388 -1782 0
-389 -1783 0
-391 -1784 0
-392 -1785 0
-393 -1786 0
-394 -1787 0
-386 -1802 0
-388 -1804 0
-389 -1805 0
-390 -1806 0
-392 -1807 0
-393 -1808 0
-394 -1809 0
-388 -1846 0
-390 -1847 0
-391 -1848 0
-392 -1849 0
-393 -1850 0
-394 -1851 0
-388 -1853 0
-390 -1854 0
-392 -1855 0
-393 -1856 0
-394 -1857 0
-386 -1864 0
-390 -1865 0
-391 -1866 0
-392 -1867 0
-393 -1868 0
-394 -1869 0
-388 -1870 0
-389 -1871 0
-390 -1872 0
-391 -1873 0
-392 -1874 0
-393 -1875 0
-394 -1876 0
-387 -1878 0
-388 -1879 0
-389 -1880 0
-390 -1881 0
-393 -1882 0
-394 -1883 0
-388 -1891 0
-389 -1892 0
-391 -1893 0
-392 -1894 0
-393 -1895 0
-394 -1896 0
-388 -1904 0
-390 -1905 0
-391 -1906 0
-392 -1907 0
-393 -1908 0
-394 -1909 0
-387 -1925 0
-390 -1926 0
-391 -1927 0
-392 -1928 0
-393 -1929 0
-394 -1930 0
-387 -1932 0
-389 -1933 0
-392 -1934 0
-393 -1935 0
-394 -1936 0
-389 -1939 0
-390 -1940 0
-391 -1941 0
-393 -1942 0
-394 -1943 0
-391 -1946 0
-392 -1947 0
-393 -1948 0
-394 -1949 0
-386 -1957 0
-388 -1959 0
-390 -1960 0
-391 -1961 0
-392 -1962 0
-393 -1963 0
-394 -1964 0
-386 -1978 0
-388 -1979 0
-389 -1980 0
-392 -1981 0
-393 -1982 0
-394 -1983 0
-388 -1991 0
-389 -1992 0
-390 -1993 0
-391 -1994 0
-392 -1995 0
-393 -1996 0
-394 -1997 0
-396 -535 0
-399 -537 0
-400 -539 0
-401 -540 0
-396 -542 0
-398 -543 0
-400 -546 0
-401 -547 0
-395 -556 0
-400 -559 0
-401 -560 0
-398 -604 0
-400 -608 0
-401 -609 0
-396 -649 0
-398 -651 0
-399 -653 0
-400 -655 0
-401 -656 0
-396 -658 0
-400 -662 0
-401 -663 0
-396 -672 0
-398 -673 0
-399 -675 0
-400 -677 0
-401 -678 0
-396 -680 0
-399 -682 0
-400 -684 0
-401 -685 0
-395 -694 0
-398 -695 0
-399 -696 0
-400 -698 0
-401 -699 0
-396 -730 0
-397 -731 0
-399 -733 0
-400 -734 0
-401 -735 0
-396 -736 0
-397 -737 0
-398 -738 0
-400 -741 0
-401 -742 0
-397 -743 0
-398 -744 0
-399 -745 0
-400 -747 0
-401 -748 0
-397 -749 0
-399 -752 0
-400 -754 0
-401 -755 0
-396 -829 0
-398 -830 0
-399 -832 0
-400 -833 0
-401 -834 0
-396 -835 0
-400 -839 0
-401 -840 0
-399 -844 0
-400 -846 0
-401 -847 0
-398 -850 0
-400 -852 0
-401 -853 0
-397 -916 0
-398 -917 0
-399 -919 0
-400 -921 0
-401 -922 0
-397 -924 0
-398 -925 0
-400 -928 0
-401 -929 0
-396 -945 0
-398 -947 0
-399 -948 0
-400 -949 0
-401 -950 0
-395 -952 0
-399 -955 0
-400 -956 0
-401 -957 0
-395 -959 0
-398 -961 0
-400 -964 0
-401 -965 0
-395 -975 0
-399 -978 0
-400 -979 0
-401 -980 0
-395 -982 0
-398 -984 0
-399 -986 0
-400 -988 0
-401 -989 0
-396 -1036 0
-397 -1038 0
-398 -1039 0
-399 -1040 0
-400 -1042 0
-401 -1043 0
-397 -1045 0
-398 -1046 0
-399 -1048 0
-400 -1049 0
-401 -1050 0
-395 -1051 0
-397 -1053 0
-398 -1054 0
-399 -1056 0
-400 -1058 0
-401 -1059 0
-395 -1060 0
-397 -1062 0
-398 -1063 0
-400 -1065 0
-401 -1066 0
-397 -1068 0
-398 -1069 0
-399 -1071 0
-400 -1072 0
-401 -1073 0
-395 -1074 0
-397 -1075 0
-398 -1076 0
-399 -1078 0
-400 -1080 0
-401 -1081 0
-395 -1082 0
-397 -1083 0
-398 -1084 0
-399 -1086 0
-400 -1087 0
-401 -1088 0
-399 -1187 0
-400 -1189 0
-401 -1190 0
-398 -1192 0
-400 -1196 0
-401 -1197 0
-396 -1295 0
-398 -1297 0
-399 -1300 0
-400 -1302 0
-401 -1303 0
-395 -1304 0
-396 -1305 0
-398 -1306 0
-399 -1307 0
-400 -1309 0
-401 -1310 0
-395 -1311 0
-396 -1312 0
-398 -1313 0
-400 -1317 0
-401 -1318 0
-395 -1319 0
-399 -1322 0
-400 -1324 0
-401 -1325 0
-395 -1326 0
-398 -1328 0
-400 -1331 0
-401 -1332 0
-395 -1333 0
-398 -1334 0
-400 -1337 0
-401 -1338 0
-395 -1339 0
-399 -1341 0
-400 -1343 0
-401 -1344 0
-395 -1345 0
-398 -1346 0
-399 -1349 0
-400 -1350 0
-401 -1351 0
-398 -1354 0
-399 -1357 0
-400 -1358 0
-401 -1359 0
-400 -1365 0
-401 -1366 0
-398 -1375 0
-399 -1377 0
-400 -1378 0
-401 -1379 0
-399 -1382 0
-400 -1384 0
-401 -1385 0
-397 -1415 0
-399 -1418 0
-400 -1420 0
-401 -1421 0
-397 -1422 0
-398 -1423 0
-400 -1426 0
-401 -1427 0
-396 -1428 0
-399 -1432 0
-400 -1434 0
-401 -1435 0
-396 -1436 0
-399 -1438 0
-400 -1440 0
-401 -1441 0
-395 -1442 0
-398 -1444 0
-399 -1446 0
-400 -1448 0
-401 -1449 0
-395 -1450 0
-399 -1453 0
-400 -1455 0
-401 -1456 0
-398 -1525 0
-399 -1528 0
-400 -1530 0
-401 -1531 0
-398 -1572 0
-400 -1574 0
-401 -1575 0
-399 -1579 0
-400 -1581 0
-401 -1582 0
-398 -1592 0
-399 -1595 0
-400 -1596 0
-401 -1597 0
-400 -1603 0
-401 -1604 0
-397 -1637 0
-400 -1640 0
-401 -1641 0
-397 -1643 0
-398 -1644 0
-399 -1646 0
-400 -1647 0
-401 -1648 0
-397 -1649 0
-399 -1652 0
-400 -1654 0
-401 -1655 0
-397 -1656 0
-398 -1657 0
-400 -1660 0
-401 -1661 0
-396 -1839 0
-400 -1843 0
-401 -1844 0
-396 -1845 0
-398 -1846 0
-399 -1848 0
-400 -1850 0
-401 -1851 0
-398 -1853 0
-400 -1856 0
-401 -1857 0
-399 -1861 0
-400 -1862 0
-401 -1863 0
-395 -1864 0
-399 -1866 0
-400 -1868 0
-401 -1869 0
-398 -1870 0
-399 -1873 0
-400 -1875 0
-401 -1876 0
-398 -1891 0
-399 -1893 0
-400 -1895 0
-401 -1896 0
-398 -1898 0
-400 -1901 0
-401 -1902 0
-399 -1941 0
-400 -1942 0
-401 -1943 0
-398 -1991 0
-399 -1994 0
-400 -1996 0
-401 -1997 0
-402 -442 0
-404 -445 0
-407 -448 0
-408 -449 0
-402 -489 0
-406 -493 0
-407 -494 0
-408 -495 0
-403 -498 0
-405 -499 0
-407 -501 0
-408 -502 0
-403 -528 0
-406 -531 0
-407 -532 0
-408 -533 0
-402 -617 0
-403 -619 0
-405 -620 0
-406 -623 0
-407 -624 0
-408 -625 0
-402 -634 0
-403 -635 0
-404 -636 0
-405 -637 0
-406 -638 0
-407 -639 0
-408 -640 0
-403 -642 0
-404 -643 0
-406 -645 0
-407 -646 0
-408 -647 0
-402 -657 0
-405 -660 0
-406 -661 0
-407 -662 0
-408 -663 0
-403 -666 0
-406 -668 0
-407 -669 0
-408 -670 0
-402 -671 0
-404 -673 0
-405 -674 0
-406 -676 0
-407 -677 0
-408 -678 0
-402 -693 0
-404 -695 0
-406 -697 0
-407 -698 0
-408 -699 0
-403 -702 0
-404 -703 0
-406 -705 0
-407 -706 0
-408 -707 0
-403 -710 0
-404 -711 0
-405 -712 0
-406 -715 0
-407 -716 0
-408 -717 0
-403 -737 0
-404 -738 0
-405 -739 0
-406 -740 0
-407 -741 0
-408 -742 0
-403 -749 0
-405 -750 0
-406 -753 0
-407 -754 0
-408 -755 0
-405 -802 0
-406 -804 0
-407 -805 0
-408 -806 0
-404 -808 0
-406 -811 0
-407 -812 0
-408 -813 0
-404 -823 0
-405 -824 0
-406 -826 0
-407 -827 0
-408 -828 0
-402 -848 0
-404 -850 0
-405 -851 0
-407 -852 0
-408 -853 0
-402 -854 0
-403 -857 0
-404 -858 0
-406 -860 0
-407 -861 0
-408 -862 0
-402 -878 0
-403 -881 0
-404 -882 0
-405 -883 0
-407 -886 0
-408 -887 0
-402 -888 0
-403 -890 0
-407 -892 0
-408 -893 0
-402 -894 0
-403 -896 0
-405 -897 0
-406 -900 0
-407 -901 0
-408 -902 0
-403 -911 0
-407 -913 0
-408 -914 0
-402 -923 0
-403 -924 0
-404 -925 0
-405 -926 0
-406 -927 0
-407 -928 0
-408 -929 0
-403 -938 0
-404 -939 0
-406 -941 0
-407 -942 0
-408 -943 0
-402 -944 0
-404 -947 0
-407 -949 0
-408 -950 0
-402 -958 0
-404 -961 0
-405 -962 0
-406 -963 0
-407 -964 0
-408 -965 0
-403 -969 0
-404 -970 0
-407 -972 0
-408 -973 0
-402 -974 0
-405 -977 0
-407 -979 0
-408 -980 0
-403 -1001 0
-406 -1003 0
-407 -1004 0
-408 -1005 0
-403 -1008 0
-405 -1009 0
-407 -1012 0
-408 -1013 0
-402 -1028 0
-404 -1030 0
-405 -1031 0
-407 -1034 0
-408 -1035 0
-403 -1038 0
-404 -1039 0
-406 -1041 0
-407 -1042 0
-408 -1043 0
-403 -1062 0
-404 -1063 0
-405 -1064 0
-407 -1065 0
-408 -1066 0
-403 -1068 0
-404 -1069 0
-407 -1072 0
-408 -1073 0
-403 -1075 0
-404 -1076 0
-405 -1077 0
-406 -1079 0
-407 -1080 0
-408 -1081 0
-402 -1103 0
-404 -1106 0
-405 -1107 0
-406 -1109 0
-407 -1110 0
-408 -1111 0
-402 -1153 0
-405 -1155 0
-407 -1157 0
-408 -1158 0
-403 -1161 0
-406 -1162 0
-407 -1163 0
-408 -1164 0
-403 -1180 0
-405 -1181 0
-407 -1183 0
-408 -1184 0
-404 -1236 0
-406 -1237 0
-407 -1238 0
-408 -1239 0
-404 -1256 0
-405 -1257 0
-407 -1259 0
-408 -1260 0
-407 -1266 0
-408 -1267 0
-405 -1270 0
-406 -1272 0
-407 -1273 0
-408 -1274 0
-405 -1289 0
-406 -1291 0
-407 -1292 0
-408 -1293 0
-404 -1313 0
-405 -1314 0
-406 -1316 0
-407 -1317 0
-408 -1318 0
-404 -1346 0
-405 -1347 0
-407 -1350 0
-408 -1351 0
-402 -1360 0
-405 -1362 0
-406 -1364 0
-407 -1365 0
-408 -1366 0
-403 -1369 0
-405 -1370 0
-407 -1372 0
-408 -1373 0
-402 -1374 0
-404 -1375 0
-407 -1378 0
-408 -1379 0
-403 -1393 0
-404 -1394 0
-405 -1395 0
-406 -1398 0
-407 -1399 0
-408 -1400 0
-403 -1402 0
-404 -1403 0
-407 -1406 0
-408 -1407 0
-403 -1422 0
-404 -1423 0
-405 -1424 0
-407 -1426 0
-408 -1427 0
-405 -1430 0
-406 -1433 0
-407 -1434 0
-408 -1435 0
-404 -1444 0
-406 -1447 0
-407 -1448 0
-408 -1449 0
-404 -1464 0
-405 -1465 0
-406 -1467 0
-407 -1468 0
-408 -1469 0
-405 -1479 0
-406 -1481 0
-407 -1482 0
-408 -1483 0
-405 -1501 0
-407 -1504 0
-408 -1505 0
-404 -1507 0
-405 -1508 0
-407 -1510 0
-408 -1511 0
-404 -1520 0
-405 -1521 0
-406 -1522 0
-407 -1523 0
-408 -1524 0
-402 -1543 0
-403 -1545 0
-407 -1547 0
-408 -1548 0
-402 -1549 0
-403 -1550 0
-404 -1551 0
-405 -1552 0
-406 -1553 0
-407 -1554 0
-408 -1555 0
-403 -1564 0
-404 -1565 0
-405 -1566 0
-407 -1568 0
-408 -1569 0
-402 -1576 0
-406 -1580 0
-407 -1581 0
-408 -1582 0
-403 -1585 0
-405 -1586 0
-407 -1588 0
-408 -1589 0
-402 -1590 0
-404 -1592 0
-405 -1593 0
-407 -1596 0
-408 -1597 0
-403 -1613 0
-404 -1614 0
-405 -1615 0
-406 -1617 0
-407 -1618 0
-408 -1619 0
-403 -1622 0
-404 -1623 0
-405 -1624 0
-407 -1625 0
-408 -1626 0
-403 -1643 0
-404 -1644 0
-407 -1647 0
-408 -1648 0
-403 -1649 0
-405 -1650 0
-406 -1653 0
-407 -1654 0
-408 -1655 0
-402 -1670 0
-406 -1674 0
-407 -1675 0
-408 -1676 0
-402 -1714 0
-404 -1715 0
-407 -1718 0
-408 -1719 0
-403 -1721 0
-404 -1722 0
-405 -1723 0
-406 -1726 0
-407 -1727 0
-408 -1728 0
-403 -1745 0
-404 -1746 0
-407 -1749 0
-408 -1750 0
-405 -1766 0
-406 -1769 0
-407 -1770 0
-408 -1771 0
-407 -1793 0
-408 -1794 0
-404 -1797 0
-405 -1798 0
-407 -1800 0
-408 -1801 0
-404 -1804 0
-405 -1805 0
-406 -1807 0
-407 -1808 0
-408 -1809 0
-404 -1826 0
-406 -1829 0
-407 -1830 0
-408 -1831 0
-404 -1833 0
-405 -1834 0
-407 -1837 0
-408 -1838 0
-404 -1846 0
-406 -1849 0
-407 -1850 0
-408 -1851 0
-403 -1878 0
-404 -1879 0
-405 -1880 0
-407 -1882 0
-408 -1883 0
-404 -1891 0
-405 -1892 0
-406 -1894 0
-407 -1895 0
-408 -1896 0
-404 -1911 0
-405 -1912 0
-407 -1914 0
-408 -1915 0
-404 -1917 0
-405 -1918 0
-406 -1921 0
-407 -1922 0
-408 -1923 0
-403 -1925 0
-406 -1928 0
-407 -1929 0
-408 -1930 0
-406 -1947 0
-407 -1948 0
-408 -1949 0
-405 -1967 0
-406 -1969 0
-407 -1970 0
-408 -1971 0
-404 -1973 0
-406 -1975 0
-407 -1976 0
-408 -1977 0
-404 -1979 0
-405 -1980 0
-406 -1981 0
-407 -1982 0
-408 -1983 0
-404 -1991 0
-405 -1992 0
-406 -1995 0
-407 -1996 0
-408 -1997 0
-409 -435 0
-411 -438 0
-414 -440 0
-415 -441 0
-409 -480 0
-411 -484 0
-412 -485 0
-413 -486 0
-414 -487 0
-415 -488 0
-410 -498 0
-411 -499 0
-412 -500 0
-414 -501 0
-415 -502 0
-410 -521 0
-411 -523 0
-414 -524 0
-415 -525 0
-409 -610 0
-410 -612 0
-412 -614 0
-414 -615 0
-415 -616 0
-409 -626 0
-410 -627 0
-412 -629 0
-413 -630 0
-414 -632 0
-415 -633 0
-410 -642 0
-412 -644 0
-414 -646 0
-415 -647 0
-409 -648 0
-412 -652 0
-413 -653 0
-414 -655 0
-415 -656 0
-410 -666 0
-412 -667 0
-414 -669 0
-415 -670 0
-409 -679 0
-412 -681 0
-413 -682 0
-414 -684 0
-415 -685 0
-409 -693 0
-413 -696 0
-414 -698 0
-415 -699 0
-410 -702 0
-413 -704 0
-414 -706 0
-415 -707 0
-410 -720 0
-414 -722 0
-415 -723 0
-410 -731 0
-412 -732 0
-413 -733 0
-414 -734 0
-415 -735 0
-410 -743 0
-413 -745 0
-414 -747 0
-415 -748 0
-412 -797 0
-414 -798 0
-415 -799 0
-412 -809 0
-413 -810 0
-414 -812 0
-415 -813 0
-413 -817 0
-414 -819 0
-415 -820 0
-409 -841 0
-412 -843 0
-413 -844 0
-414 -846 0
-415 -847 0
-409 -854 0
-410 -857 0
-412 -859 0
-414 -861 0
-415 -862 0
-409 -870 0
-410 -873 0
-412 -874 0
-414 -876 0
-415 -877 0
-409 -888 0
-410 -890 0
-413 -891 0
-414 -892 0
-415 -893 0
-409 -903 0
-410 -905 0
-414 -907 0
-415 -908 0
-410 -911 0
-412 -912 0
-414 -913 0
-415 -914 0
-409 -915 0
-410 -916 0
-412 -918 0
-413 -919 0
-414 -921 0
-415 -922 0
-410 -938 0
-413 -940 0
-414 -942 0
-415 -943 0
-409 -944 0
-413 -948 0
-414 -949 0
-415 -950 0
-409 -951 0
-412 -954 0
-413 -955 0
-414 -956 0
-415 -957 0
-410 -969 0
-412 -971 0
-414 -972 0
-415 -973 0
-409 -981 0
-412 -985 0
-413 -986 0
-414 -988 0
-415 -989 0
-410 -1001 0
-413 -1002 0
-414 -1004 0
-415 -1005 0
-410 -1016 0
-414 -1019 0
-415 -1020 0
-409 -1021 0
-413 -1024 0
-414 -1026 0
-415 -1027 0
-410 -1038 0
-413 -1040 0
-414 -1042 0
-415 -1043 0
-410 -1053 0
-412 -1055 0
-413 -1056 0
-414 -1058 0
-415 -1059 0
-410 -1068 0
-412 -1070 0
-413 -1071 0
-414 -1072 0
-415 -1073 0
-410 -1083 0
-412 -1085 0
-413 -1086 0
-414 -1087 0
-415 -1088 0
-409 -1096 0
-412 -1099 0
-414 -1101 0
-415 -1102 0
-409 -1146 0
-413 -1149 0
-414 -1151 0
-415 -1152 0
-410 -1161 0
-414 -1163 0
-415 -1164 0
-410 -1173 0
-412 -1175 0
-414 -1177 0
-415 -1178 0
-414 -1238 0
-415 -1239 0
-412 -1249 0
-414 -1251 0
-415 -1252 0
-412 -1264 0
-413 -1265 0
-414 -1266 0
-415 -1267 0
-412 -1278 0
-414 -1279 0
-415 -1280 0
-413 -1284 0
-414 -1285 0
-415 -1286 0
-413 -1307 0
-414 -1309 0
-415 -1310 0
-412 -1340 0
-413 -1341 0
-414 -1343 0
-415 -1344 0
-409 -1352 0
-411 -1355 0
-412 -1356 0
-413 -1357 0
-414 -1358 0
-415 -1359 0
-410 -1369 0
-411 -1370 0
-412 -1371 0
-414 -1372 0
-415 -1373 0
-409 -1380 0
-411 -1381 0
-413 -1382 0
-414 -1384 0
-415 -1385 0
-410 -1393 0
-411 -1395 0
-412 -1396 0
-413 -1397 0
-414 -1399 0
-415 -1400 0
-410 -1409 0
-411 -1410 0
-412 -1411 0
-414 -1413 0
-415 -1414 0
-410 -1415 0
-411 -1416 0
-412 -1417 0
-413 -1418 0
-414 -1420 0
-415 -1421 0
-411 -1430 0
-412 -1431 0
-413 -1432 0
-414 -1434 0
-415 -1435 0
-411 -1452 0
-413 -1453 0
-414 -1455 0
-415 -1456 0
-411 -1458 0
-412 -1459 0
-413 -1460 0
-414 -1461 0
-415 -1462 0
-411 -1472 0
-412 -1473 0
-413 -1474 0
-414 -1476 0
-415 -1477 0
-411 -1479 0
-412 -1480 0
-414 -1482 0
-415 -1483 0
-411 -1494 0
-412 -1495 0
-414 -1497 0
-415 -1498 0
-411 -1508 0
-413 -1509 0
-414 -1510 0
-415 -1511 0
-411 -1514 0
-412 -1515 0
-413 -1516 0
-414 -1517 0
-415 -1518 0
-409 -1533 0
-410 -1535 0
-411 -1537 0
-412 -1538 0
-413 -1539 0
-414 -1541 0
-415 -1542 0
-409 -1556 0
-410 -1557 0
-411 -1558 0
-412 -1559 0
-413 -1560 0
-414 -1561 0
-415 -1562 0
-410 -1564 0
-411 -1566 0
-413 -1567 0
-414 -1568 0
-415 -1569 0
-409 -1570 0
-411 -1573 0
-414 -1574 0
-415 -1575 0
-410 -1585 0
-411 -1586 0
-413 -1587 0
-414 -1588 0
-415 -1589 0
-409 -1598 0
-411 -1600 0
-412 -1601 0
-414 -1603 0
-415 -1604 0
-410 -1613 0
-411 -1615 0
-412 -1616 0
-414 -1618 0
-415 -1619 0
-410 -1629 0
-411 -1630 0
-412 -1631 0
-413 -1632 0
-414 -1634 0
-415 -1635 0
-410 -1637 0
-411 -1638 0
-414 -1640 0
-415 -1641 0
-410 -1656 0
-411 -1658 0
-412 -1659 0
-414 -1660 0
-415 -1661 0
-409 -1662 0
-411 -1665 0
-413 -1666 0
-414 -1668 0
-415 -1669 0
-409 -1707 0
-411 -1709 0
-412 -1710 0
-414 -1712 0
-415 -1713 0
-410 -1721 0
-411 -1723 0
-412 -1724 0
-413 -1725 0
-414 -1727 0
-415 -1728 0
-410 -1737 0
-411 -1739 0
-413 -1740 0
-414 -1742 0
-415 -1743 0
-411 -1766 0
-412 -1767 0
-413 -1768 0
-414 -1770 0
-415 -1771 0
-411 -1783 0
-413 -1784 0
-414 -1786 0
-415 -1787 0
-411 -1798 0
-412 -1799 0
-414 -1800 0
-415 -1801 0
-411 -1812 0
-412 -1813 0
-413 -1814 0
-414 -1815 0
-415 -1816 0
-411 -1820 0
-412 -1821 0
-414 -1822 0
-415 -1823 0
-411 -1834 0
-412 -1835 0
-413 -1836 0
-414 -1837 0
-415 -1838 0
-411 -1840 0
-412 -1841 0
-414 -1843 0
-415 -1844 0
-411 -1871 0
-412 -1872 0
-413 -1873 0
-414 -1875 0
-415 -1876 0
-410 -1884 0
-413 -1886 0
-414 -1888 0
-415 -1889 0
-412 -1899 0
-414 -1901 0
-415 -1902 0
-412 -1905 0
-413 -1906 0
-414 -1908 0
-415 -1909 0
-410 -1925 0
-412 -1926 0
-413 -1927 0
-414 -1929 0
-415 -1930 0
-413 -1946 0
-414 -1948 0
-415 -1949 0
-412 -1960 0
-413 -1961 0
-414 -1963 0
-415 -1964 0
-412 -1974 0
-414 -1976 0
-415 -1977 0
-412 -1985 0
-413 -1986 0
-414 -1988 0
-415 -1989 0
-416 -482 0
-418 -484 0
-419 -486 0
-421 -487 0
-422 -488 0
-416 -491 0
-420 -493 0
-421 -494 0
-422 -495 0
-420 -507 0
-421 -508 0
-422 -509 0
-418 -605 0
-420 -607 0
-421 -608 0
-422 -609 0
-417 -627 0
-419 -630 0
-420 -631 0
-421 -632 0
-422 -633 0
-417 -635 0
-418 -637 0
-420 -638 0
-421 -639 0
-422 -640 0
-416 -649 0
-419 -653 0
-420 -654 0
-421 -655 0
-422 -656 0
-416 -658 0
-418 -660 0
-420 -661 0
-421 -662 0
-422 -663 0
-416 -686 0
-417 -687 0
-418 -688 0
-419 -689 0
-420 -690 0
-421 -691 0
-422 -692 0
-416 -700 0
-417 -702 0
-419 -704 0
-420 -705 0
-421 -706 0
-422 -707 0
-416 -709 0
-417 -710 0
-418 -712 0
-419 -714 0
-420 -715 0
-421 -716 0
-422 -717 0
-416 -719 0
-417 -720 0
-420 -721 0
-421 -722 0
-422 -723 0
-418 -725 0
-419 -726 0
-420 -727 0
-421 -728 0
-422 -729 0
-417 -743 0
-419 -745 0
-420 -746 0
-421 -747 0
-422 -748 0
-417 -749 0
-418 -750 0
-419 -752 0
-420 -753 0
-421 -754 0
-422 -755 0
-416 -807 0
-419 -810 0
-420 -811 0
-421 -812 0
-422 -813 0
-416 -815 0
-419 -817 0
-420 -818 0
-421 -819 0
-422 -820 0
-416 -822 0
-418 -824 0
-420 -826 0
-421 -827 0
-422 -828 0
-419 -844 0
-420 -845 0
-421 -846 0
-422 -847 0
-418 -851 0
-421 -852 0
-422 -853 0
-417 -890 0
-419 -891 0
-421 -892 0
-422 -893 0
-417 -896 0
-418 -897 0
-419 -899 0
-420 -900 0
-421 -901 0
-422 -902 0
-417 -905 0
-421 -907 0
-422 -908 0
-416 -945 0
-419 -948 0
-421 -949 0
-422 -950 0
-419 -955 0
-421 -956 0
-422 -957 0
-418 -962 0
-420 -963 0
-421 -964 0
-422 -965 0
-416 -991 0
-417 -993 0
-418 -995 0
-419 -996 0
-421 -997 0
-422 -998 0
-417 -1001 0
-419 -1002 0
-420 -1003 0
-421 -1004 0
-422 -1005 0
-417 -1008 0
-418 -1009 0
-419 -1011 0
-421 -1012 0
-422 -1013 0
-417 -1016 0
-420 -1018 0
-421 -1019 0
-422 -1020 0
-419 -1024 0
-420 -1025 0
-421 -1026 0
-422 -1027 0
-418 -1031 0
-419 -1033 0
-421 -1034 0
-422 -1035 0
-417 -1068 0
-419 -1071 0
-421 -1072 0
-422 -1073 0
-417 -1075 0
-418 -1077 0
-419 -1078 0
-420 -1079 0
-421 -1080 0
-422 -1081 0
-417 -1083 0
-419 -1086 0
-421 -1087 0
-422 -1088 0
-419 -1149 0
-420 -1150 0
-421 -1151 0
-422 -1152 0
-418 -1155 0
-421 -1157 0
-422 -1158 0
-416 -1262 0
-419 -1265 0
-421 -1266 0
-422 -1267 0
-416 -1269 0
-418 -1270 0
-419 -1271 0
-420 -1272 0
-421 -1273 0
-422 -1274 0
-416 -1276 0
-421 -1279 0
-422 -1280 0
-419 -1284 0
-421 -1285 0
-422 -1286 0
-418 -1289 0
-420 -1291 0
-421 -1292 0
-422 -1293 0
-419 -1341 0
-420 -1342 0
-421 -1343 0
-422 -1344 0
-418 -1347 0
-419 -1349 0
-421 -1350 0
-422 -1351 0
-418 -1355 0
-419 -1357 0
-421 -1358 0
-422 -1359 0
-418 -1362 0
-420 -1364 0
-421 -1365 0
-422 -1366 0
-416 -1386 0
-417 -1387 0
-419 -1389 0
-421 -1390 0
-422 -1391 0
-417 -1393 0
-418 -1395 0
-419 -1397 0
-420 -1398 0
-421 -1399 0
-422 -1400 0
-417 -1402 0
-419 -1405 0
-421 -1406 0
-422 -1407 0
-417 -1409 0
-418 -1410 0
-420 -1412 0
-421 -1413 0
-422 -1414 0
-416 -1428 0
-418 -1430 0
-419 -1432 0
-420 -1433 0
-421 -1434 0
-422 -1435 0
-418 -1458 0
-419 -1460 0
-421 -1461 0
-422 -1462 0
-418 -1465 0
-419 -1466 0
-420 -1467 0
-421 -1468 0
-422 -1469 0
-416 -1506 0
-418 -1508 0
-419 -1509 0
-421 -1510 0
-422 -1511 0
-418 -1514 0
-419 -1516 0
-421 -1517 0
-422 -1518 0
-418 -1521 0
-420 -1522 0
-421 -1523 0
-422 -1524 0
-417 -1550 0
-418 -1552 0
-420 -1553 0
-421 -1554 0
-422 -1555 0
-417 -1557 0
-418 -1558 0
-419 -1560 0
-421 -1561 0
-422 -1562 0
-418 -1573 0
-421 -1574 0
-422 -1575 0
-419 -1579 0
-420 -1580 0
-421 -1581 0
-422 -1582 0
-416 -1605 0
-417 -1607 0
-418 -1608 0
-421 -1610 0
-422 -1611 0
-417 -1613 0
-418 -1615 0
-420 -1617 0
-421 -1618 0
-422 -1619 0
-417 -1622 0
-418 -1624 0
-421 -1625 0
-422 -1626 0
-417 -1629 0
-418 -1630 0
-419 -1632 0
-420 -1633 0
-421 -1634 0
-422 -1635 0
-417 -1649 0
-418 -1650 0
-419 -1652 0
-420 -1653 0
-421 -1654 0
-422 -1655 0
-417 -1656 0
-418 -1658 0
-421 -1660 0
-422 -1661 0
-418 -1709 0
-420 -1711 0
-421 -1712 0
-422 -1713 0
-419 -1717 0
-421 -1718 0
-422 -1719 0
-416 -1795 0
-418 -1798 0
-421 -1800 0
-422 -1801 0
-416 -1803 0
-418 -1805 0
-420 -1807 0
-421 -1808 0
-422 -1809 0
-416 -1811 0
-418 -1812 0
-419 -1814 0
-421 -1815 0
-422 -1816 0
-418 -1820 0
-421 -1822 0
-422 -1823 0
-419 -1828 0
-420 -1829 0
-421 -1830 0
-422 -1831 0
-418 -1834 0
-419 -1836 0
-421 -1837 0
-422 -1838 0
-418 -1871 0
-419 -1873 0
-420 -1874 0
-421 -1875 0
-422 -1876 0
-417 -1878 0
-418 -1880 0
-421 -1882 0
-422 -1883 0
-417 -1884 0
-419 -1886 0
-420 -1887 0
-421 -1888 0
-422 -1889 0
-418 -1918 0
-419 -1920 0
-420 -1921 0
-421 -1922 0
-422 -1923 0
-417 -1932 0
-418 -1933 0
-420 -1934 0
-421 -1935 0
-422 -1936 0
-420 -1975 0
-421 -1976 0
-422 -1977 0
-418 -1980 0
-420 -1981 0
-421 -1982 0
-422 -1983 0
-419 -1986 0
-420 -1987 0
-421 -1988 0
-422 -1989 0
-425 -438 0
-427 -440 0
-428 -441 0
-424 -445 0
-426 -446 0
-427 -448 0
-428 -449 0
-427 -471 0
-428 -472 0
-424 -604 0
-425 -605 0
-426 -606 0
-427 -608 0
-428 -609 0
-423 -612 0
-424 -613 0
-426 -614 0
-427 -615 0
-428 -616 0
-423 -619 0
-425 -620 0
-426 -621 0
-427 -624 0
-428 -625 0
-424 -651 0
-426 -652 0
-427 -655 0
-428 -656 0
-425 -660 0
-427 -662 0
-428 -663 0
-423 -666 0
-426 -667 0
-427 -669 0
-428 -670 0
-424 -673 0
-425 -674 0
-427 -677 0
-428 -678 0
-426 -681 0
-427 -684 0
-428 -685 0
-423 -687 0
-425 -688 0
-427 -691 0
-428 -692 0
-424 -695 0
-427 -698 0
-428 -699 0
-423 -710 0
-424 -711 0
-425 -712 0
-426 -713 0
-427 -716 0
-428 -717 0
-423 -720 0
-427 -722 0
-428 -723 0
-425 -725 0
-427 -728 0
-428 -729 0
-423 -731 0
-426 -732 0
-427 -734 0
-428 -735 0
-423 -737 0
-424 -738 0
-425 -739 0
-427 -741 0
-428 -742 0
-424 -796 0
-426 -797 0
-427 -798 0
-428 -799 0
-425 -802 0
-427 -805 0
-428 -806 0
-426 -843 0
-427 -846 0
-428 -847 0
-424 -850 0
-425 -851 0
-427 -852 0
-428 -853 0
-423 -857 0
-424 -858 0
-426 -859 0
-427 -861 0
-428 -862 0
-423 -873 0
-426 -874 0
-427 -876 0
-428 -877 0
-423 -881 0
-424 -882 0
-425 -883 0
-426 -884 0
-427 -886 0
-428 -887 0
-423 -896 0
-425 -897 0
-426 -898 0
-427 -901 0
-428 -902 0
-423 -905 0
-424 -906 0
-427 -907 0
-428 -908 0
-423 -916 0
-424 -917 0
-426 -918 0
-427 -921 0
-428 -922 0
-423 -924 0
-424 -925 0
-425 -926 0
-427 -928 0
-428 -929 0
-424 -947 0
-427 -949 0
-428 -950 0
-426 -954 0
-427 -956 0
-428 -957 0
-424 -961 0
-425 -962 0
-427 -964 0
-428 -965 0
-423 -969 0
-424 -970 0
-426 -971 0
-427 -972 0
-428 -973 0
-425 -977 0
-427 -979 0
-428 -980 0
-424 -984 0
-426 -985 0
-427 -988 0
-428 -989 0
-423 -993 0
-424 -994 0
-425 -995 0
-427 -997 0
-428 -998 0
-423 -1008 0
-425 -1009 0
-426 -1010 0
-427 -1012 0
-428 -1013 0
-423 -1016 0
-424 -1017 0
-427 -1019 0
-428 -1020 0
-424 -1023 0
-427 -1026 0
-428 -1027 0
-424 -1030 0
-425 -1031 0
-426 -1032 0
-427 -1034 0
-428 -1035 0
-423 -1038 0
-424 -1039 0
-427 -1042 0
-428 -1043 0
-423 -1053 0
-424 -1054 0
-426 -1055 0
-427 -1058 0
-428 -1059 0
-423 -1062 0
-424 -1063 0
-425 -1064 0
-427 -1065 0
-428 -1066 0
-423 -1075 0
-424 -1076 0
-425 -1077 0
-427 -1080 0
-428 -1081 0
-423 -1083 0
-424 -1084 0
-426 -1085 0
-427 -1087 0
-428 -1088 0
-426 -1099 0
-427 -1101 0
-428 -1102 0
-424 -1106 0
-425 -1107 0
-427 -1110 0
-428 -1111 0
-425 -1130 0
-426 -1131 0
-427 -1134 0
-428 -1135 0
-424 -1236 0
-427 -1238 0
-428 -1239 0
-426 -1249 0
-427 -1251 0
-428 -1252 0
-424 -1256 0
-425 -1257 0
-427 -1259 0
-428 -1260 0
-425 -1270 0
-427 -1273 0
-428 -1274 0
-424 -1277 0
-426 -1278 0
-427 -1279 0
-428 -1280 0
-424 -1306 0
-427 -1309 0
-428 -1310 0
-424 -1313 0
-425 -1314 0
-426 -1315 0
-427 -1317 0
-428 -1318 0
-424 -1334 0
-425 -1335 0
-427 -1337 0
-428 -1338 0
-424 -1354 0
-425 -1355 0
-426 -1356 0
-427 -1358 0
-428 -1359 0
-425 -1362 0
-426 -1363 0
-427 -1365 0
-428 -1366 0
-423 -1369 0
-425 -1370 0
-426 -1371 0
-427 -1372 0
-428 -1373 0
-424 -1375 0
-426 -1376 0
-427 -1378 0
-428 -1379 0
-425 -1381 0
-427 -1384 0
-428 -1385 0
-423 -1387 0
-426 -1388 0
-427 -1390 0
-428 -1391 0
-423 -1402 0
-424 -1403 0
-426 -1404 0
-427 -1406 0
-428 -1407 0
-423 -1409 0
-425 -1410 0
-426 -1411 0
-427 -1413 0
-428 -1414 0
-423 -1415 0
-425 -1416 0
-426 -1417 0
-427 -1420 0
-428 -1421 0
-423 -1422 0
-424 -1423 0
-425 -1424 0
-426 -1425 0
-427 -1426 0
-428 -1427 0
-425 -1430 0
-426 -1431 0
-427 -1434 0
-428 -1435 0
-427 -1440 0
-428 -1441 0
-424 -1444 0
-426 -1445 0
-427 -1448 0
-428 -1449 0
-425 -1452 0
-427 -1455 0
-428 -1456 0
-425 -1458 0
-426 -1459 0
-427 -1461 0
-428 -1462 0
-424 -1464 0
-425 -1465 0
-427 -1468 0
-428 -1469 0
-424 -1471 0
-425 -1472 0
-426 -1473 0
-427 -1476 0
-428 -1477 0
-425 -1479 0
-426 -1480 0
-427 -1482 0
-428 -1483 0
-424 -1493 0
-425 -1494 0
-426 -1495 0
-427 -1497 0
-428 -1498 0
-425 -1501 0
-426 -1502 0
-427 -1504 0
-428 -1505 0
-423 -1535 0
-424 -1536 0
-425 -1537 0
-426 -1538 0
-427 -1541 0
-428 -1542 0
-423 -1545 0
-427 -1547 0
-428 -1548 0
-423 -1550 0
-424 -1551 0
-425 -1552 0
-427 -1554 0
-428 -1555 0
-423 -1557 0
-425 -1558 0
-426 -1559 0
-427 -1561 0
-428 -1562 0
-424 -1572 0
-425 -1573 0
-427 -1574 0
-428 -1575 0
-426 -1578 0
-427 -1581 0
-428 -1582 0
-423 -1585 0
-425 -1586 0
-427 -1588 0
-428 -1589 0
-424 -1592 0
-425 -1593 0
-426 -1594 0
-427 -1596 0
-428 -1597 0
-425 -1600 0
-426 -1601 0
-427 -1603 0
-428 -1604 0
-423 -1607 0
-425 -1608 0
-426 -1609 0
-427 -1610 0
-428 -1611 0
-423 -1622 0
-424 -1623 0
-425 -1624 0
-427 -1625 0
-428 -1626 0
-423 -1629 0
-425 -1630 0
-426 -1631 0
-427 -1634 0
-428 -1635 0
-423 -1637 0
-425 -1638 0
-427 -1640 0
-428 -1641 0
-423 -1643 0
-424 -1644 0
-426 -1645 0
-427 -1647 0
-428 -1648 0
-423 -1649 0
-425 -1650 0
-426 -1651 0
-427 -1654 0
-428 -1655 0
-423 -1656 0
-424 -1657 0
-425 -1658 0
-426 -1659 0
-427 -1660 0
-428 -1661 0
-424 -1664 0
-425 -1665 0
-427 -1668 0
-428 -1669 0
-426 -1672 0
-427 -1675 0
-428 -1676 0
-424 -1694 0
-427 -1697 0
-428 -1698 0
-425 -1766 0
-426 -1767 0
-427 -1770 0
-428 -1771 0
-424 -1782 0
-425 -1783 0
-427 -1786 0
-428 -1787 0
-426 -1791 0
-427 -1793 0
-428 -1794 0
-424 -1804 0
-425 -1805 0
-426 -1806 0
-427 -1808 0
-428 -1809 0
-425 -1812 0
-426 -1813 0
-427 -1815 0
-428 -1816 0
-424 -1833 0
-425 -1834 0
-426 -1835 0
-427 -1837 0
-428 -1838 0
-425 -1840 0
-426 -1841 0
-427 -1843 0
-428 -1844 0
-424 -1846 0
-426 -1847 0
-427 -1850 0
-428 -1851 0
-426 -1865 0
-427 -1868 0
-428 -1869 0
-423 -1878 0
-424 -1879 0
-425 -1880 0
-426 -1881 0
-427 -1882 0
-428 -1883 0
-423 -1884 0
-424 -1885 0
-427 -1888 0
-428 -1889 0
-424 -1891 0
-425 -1892 0
-427 -1895 0
-428 -1896 0
-424 -1898 0
-426 -1899 0
-427 -1901 0
-428 -1902 0
-424 -1904 0
-426 -1905 0
-427 -1908 0
-428 -1909 0
-424 -1911 0
-425 -1912 0
-427 -1914 0
-428 -1915 0
-423 -1925 0
-426 -1926 0
-427 -1929 0
-428 -1930 0
-423 -1932 0
-425 -1933 0
-427 -1935 0
-428 -1936 0
-425 -1939 0
-426 -1940 0
-427 -1942 0
-428 -1943 0
-427 -1948 0
-428 -1949 0
-424 -1959 0
-426 -1960 0
-427 -1963 0
-428 -1964 0
-425 -1967 0
-427 -1970 0
-428 -1971 0
-424 -1979 0
-425 -1980 0
-427 -1982 0
-428 -1983 0
-426 -1985 0
-427 -1988 0
-428 -1989 0
-424 -1991 0
-425 -1992 0
-426 -1993 0
-427 -1996 0
-428 -1997 0
-429 -603 0
-432 -606 0
-433 -608 0
-434 -609 0
-429 -610 0
-430 -611 0
-432 -614 0
-433 -615 0
-434 -616 0
-429 -617 0
-430 -618 0
-432 -621 0
-433 -624 0
-434 -625 0
-429 -626 0
-432 -629 0
-433 -632 0
-434 -633 0
-429 -634 0
-433 -639 0
-434 -640 0
-430 -641 0
-432 -644 0
-433 -646 0
-434 -647 0
-429 -693 0
-433 -698 0
-434 -699 0
-430 -709 0
-432 -713 0
-433 -716 0
-434 -717 0
-430 -719 0
-433 -722 0
-434 -723 0
-429 -724 0
-433 -728 0
-434 -729 0
-430 -730 0
-432 -732 0
-433 -734 0
-434 -735 0
-430 -736 0
-433 -741 0
-434 -742 0
-433 -747 0
-434 -748 0
-432 -751 0
-433 -754 0
-434 -755 0
-429 -870 0
-431 -872 0
-432 -874 0
-433 -876 0
-434 -877 0
-429 -878 0
-431 -880 0
-432 -884 0
-433 -886 0
-434 -887 0
-429 -894 0
-432 -898 0
-433 -901 0
-434 -902 0
-429 -903 0
-433 -907 0
-434 -908 0
-431 -910 0
-432 -912 0
-433 -913 0
-434 -914 0
-429 -915 0
-432 -918 0
-433 -921 0
-434 -922 0
-429 -923 0
-433 -928 0
-434 -929 0
-431 -930 0
-432 -934 0
-433 -936 0
-434 -937 0
-433 -942 0
-434 -943 0
-431 -1007 0
-432 -1010 0
-433 -1012 0
-434 -1013 0
-431 -1015 0
-433 -1019 0
-434 -1020 0
-431 -1052 0
-432 -1055 0
-433 -1058 0
-434 -1059 0
-431 -1061 0
-433 -1065 0
-434 -1066 0
-433 -1080 0
-434 -1081 0
-432 -1085 0
-433 -1087 0
-434 -1088 0
-429 -1128 0
-432 -1131 0
-433 -1134 0
-434 -1135 0
-432 -1175 0
-433 -1177 0
-434 -1178 0
-433 -1183 0
-434 -1184 0
-432 -1214 0
-433 -1216 0
-434 -1217 0
-433 -1224 0
-434 -1225 0
-433 -1337 0
-434 -1338 0
-429 -1352 0
-431 -1353 0
-432 -1356 0
-433 -1358 0
-434 -1359 0
-429 -1360 0
-431 -1361 0
-432 -1363 0
-433 -1365 0
-434 -1366 0
-430 -1367 0
-431 -1368 0
-432 -1371 0
-433 -1372 0
-434 -1373 0
-429 -1374 0
-432 -1376 0
-433 -1378 0
-434 -1379 0
-429 -1380 0
-433 -1384 0
-434 -1385 0
-430 -1386 0
-432 -1388 0
-433 -1390 0
-434 -1391 0
-431 -1392 0
-432 -1396 0
-433 -1399 0
-434 -1400 0
-431 -1443 0
-432 -1445 0
-433 -1448 0
-434 -1449 0
-431 -1451 0
-433 -1455 0
-434 -1456 0
-431 -1457 0
-432 -1459 0
-433 -1461 0
-434 -1462 0
-431 -1463 0
-433 -1468 0
-434 -1469 0
-432 -1473 0
-433 -1476 0
-434 -1477 0
-430 -1492 0
-432 -1495 0
-433 -1497 0
-434 -1498 0
-430 -1500 0
-432 -1502 0
-433 -1504 0
-434 -1505 0
-432 -1515 0
-433 -1517 0
-434 -1518 0
-433 -1523 0
-434 -1524 0
-432 -1527 0
-433 -1530 0
-434 -1531 0
-429 -1533 0
-431 -1534 0
-432 -1538 0
-433 -1541 0
-434 -1542 0
-429 -1543 0
-431 -1544 0
-433 -1547 0
-434 -1548 0
-429 -1549 0
-433 -1554 0
-434 -1555 0
-429 -1556 0
-432 -1559 0
-433 -1561 0
-434 -1562 0
-431 -1563 0
-433 -1568 0
-434 -1569 0
-431 -1621 0
-433 -1625 0
-434 -1626 0
-431 -1628 0
-432 -1631 0
-433 -1634 0
-434 -1635 0
-431 -1636 0
-433 -1640 0
-434 -1641 0
-431 -1642 0
-432 -1645 0
-433 -1647 0
-434 -1648 0
-432 -1651 0
-433 -1654 0
-434 -1655 0
-432 -1659 0
-433 -1660 0
-434 -1661 0
-429 -1692 0
-433 -1697 0
-434 -1698 0
-433 -1742 0
-434 -1743 0
-432 -1747 0
-433 -1749 0
-434 -1750 0
-433 -1755 0
-434 -1756 0
-432 -1759 0
-433 -1762 0
-434 -1763 0
-432 -1835 0
-433 -1837 0
-434 -1838 0
-432 -1865 0
-433 -1868 0
-434 -1869 0
-431 -1890 0
-433 -1895 0
-434 -1896 0
-431 -1897 0
-432 -1899 0
-433 -1901 0
-434 -1902 0
-430 -1903 0
-432 -1905 0
-433 -1908 0
-434 -1909 0
-430 -1910 0
-433 -1914 0
-434 -1915 0
-432 -1919 0
-433 -1922 0
-434 -1923 0
-431 -1924 0
-432 -1926 0
-433 -1929 0
-434 -1930 0
-431 -1931 0
-433 -1935 0
-434 -1936 0
-431 -1958 0
-432 -1960 0
-433 -1963 0
-434 -1964 0
-431 -1966 0
-433 -1970 0
-434 -1971 0
-433 -1982 0
-434 -1983 0
-432 -1985 0
-433 -1988 0
-434 -1989 0
-432 -1993 0
-433 -1996 0
-434 -1997 0
-436 -596 0
-438 -598 0
-439 -600 0
-440 -601 0
-441 -602 0
-435 -603 0
-438 -605 0
-439 -607 0
-440 -608 0
-441 -609 0
-435 -617 0
-437 -618 0
-438 -620 0
-439 -623 0
-440 -624 0
-441 -625 0
-435 -626 0
-439 -631 0
-440 -632 0
-441 -633 0
-437 -641 0
-439 -645 0
-440 -646 0
-441 -647 0
-435 -657 0
-437 -658 0
-438 -660 0
-439 -661 0
-440 -662 0
-441 -663 0
-435 -679 0
-437 -680 0
-439 -683 0
-440 -684 0
-441 -685 0
-435 -693 0
-436 -694 0
-439 -697 0
-440 -698 0
-441 -699 0
-437 -700 0
-439 -705 0
-440 -706 0
-441 -707 0
-436 -718 0
-437 -719 0
-439 -721 0
-440 -722 0
-441 -723 0
-435 -724 0
-438 -725 0
-439 -727 0
-440 -728 0
-441 -729 0
-437 -736 0
-438 -739 0
-439 -740 0
-440 -741 0
-441 -742 0
-439 -746 0
-440 -747 0
-441 -748 0
-435 -763 0
-437 -764 0
-438 -766 0
-439 -768 0
-440 -769 0
-441 -770 0
-437 -779 0
-438 -782 0
-439 -783 0
-440 -784 0
-441 -785 0
-436 -821 0
-437 -822 0
-438 -824 0
-439 -826 0
-440 -827 0
-441 -828 0
-437 -835 0
-438 -836 0
-439 -838 0
-440 -839 0
-441 -840 0
-435 -848 0
-438 -851 0
-440 -852 0
-441 -853 0
-435 -863 0
-438 -866 0
-440 -868 0
-441 -869 0
-435 -878 0
-436 -879 0
-438 -883 0
-440 -886 0
-441 -887 0
-435 -888 0
-440 -892 0
-441 -893 0
-435 -903 0
-436 -904 0
-440 -907 0
-441 -908 0
-436 -909 0
-440 -913 0
-441 -914 0
-435 -923 0
-438 -926 0
-439 -927 0
-440 -928 0
-441 -929 0
-438 -933 0
-439 -935 0
-440 -936 0
-441 -937 0
-439 -941 0
-440 -942 0
-441 -943 0
-435 -958 0
-436 -959 0
-438 -962 0
-439 -963 0
-440 -964 0
-441 -965 0
-435 -981 0
-436 -982 0
-439 -987 0
-440 -988 0
-441 -989 0
-436 -999 0
-439 -1003 0
-440 -1004 0
-441 -1005 0
-436 -1014 0
-439 -1018 0
-440 -1019 0
-441 -1020 0
-435 -1028 0
-438 -1031 0
-440 -1034 0
-441 -1035 0
-438 -1047 0
-440 -1049 0
-441 -1050 0
-436 -1060 0
-438 -1064 0
-440 -1065 0
-441 -1066 0
-440 -1072 0
-441 -1073 0
-436 -1082 0
-440 -1087 0
-441 -1088 0
-435 -1121 0
-436 -1122 0
-438 -1124 0
-440 -1126 0
-441 -1127 0
-435 -1153 0
-436 -1154 0
-438 -1155 0
-440 -1157 0
-441 -1158 0
-436 -1165 0
-438 -1169 0
-440 -1170 0
-441 -1171 0
-436 -1179 0
-438 -1181 0
-440 -1183 0
-441 -1184 0
-435 -1191 0
-438 -1193 0
-439 -1195 0
-440 -1196 0
-441 -1197 0
-438 -1207 0
-439 -1208 0
-440 -1209 0
-441 -1210 0
-436 -1218 0
-438 -1221 0
-439 -1223 0
-440 -1224 0
-441 -1225 0
-438 -1227 0
-439 -1230 0
-440 -1231 0
-441 -1232 0
-436 -1287 0
-438 -1289 0
-439 -1291 0
-440 -1292 0
-441 -1293 0
-436 -1326 0
-438 -1329 0
-440 -1331 0
-441 -1332 0
-436 -1345 0
-438 -1347 0
-440 -1350 0
-441 -1351 0
-435 -1352 0
-438 -1355 0
-440 -1358 0
-441 -1359 0
-437 -1367 0
-438 -1370 0
-440 -1372 0
-441 -1373 0
-435 -1374 0
-440 -1378 0
-441 -1379 0
-437 -1386 0
-440 -1390 0
-441 -1391 0
-436 -1401 0
-440 -1406 0
-441 -1407 0
-438 -1416 0
-439 -1419 0
-440 -1420 0
-441 -1421 0
-437 -1428 0
-438 -1430 0
-439 -1433 0
-440 -1434 0
-441 -1435 0
-437 -1436 0
-439 -1439 0
-440 -1440 0
-441 -1441 0
-436 -1442 0
-439 -1447 0
-440 -1448 0
-441 -1449 0
-438 -1458 0
-440 -1461 0
-441 -1462 0
-437 -1484 0
-438 -1487 0
-440 -1489 0
-441 -1490 0
-436 -1499 0
-437 -1500 0
-438 -1501 0
-440 -1504 0
-441 -1505 0
-437 -1506 0
-438 -1508 0
-440 -1510 0
-441 -1511 0
-436 -1512 0
-438 -1514 0
-440 -1517 0
-441 -1518 0
-438 -1526 0
-439 -1529 0
-440 -1530 0
-441 -1531 0
-435 -1543 0
-440 -1547 0
-441 -1548 0
-435 -1556 0
-438 -1558 0
-440 -1561 0
-441 -1562 0
-438 -1566 0
-440 -1568 0
-441 -1569 0
-435 -1576 0
-439 -1580 0
-440 -1581 0
-441 -1582 0
-435 -1598 0
-438 -1600 0
-439 -1602 0
-440 -1603 0
-441 -1604 0
-438 -1615 0
-439 -1617 0
-440 -1618 0
-441 -1619 0
-436 -1627 0
-438 -1630 0
-439 -1633 0
-440 -1634 0
-441 -1635 0
-440 -1647 0
-441 -1648 0
-438 -1658 0
-440 -1660 0
-441 -1661 0
-435 -1684 0
-438 -1687 0
-440 -1690 0
-441 -1691 0
-435 -1714 0
-440 -1718 0
-441 -1719 0
-440 -1734 0
-441 -1735 0
-436 -1744 0
-440 -1749 0
-441 -1750 0
-438 -1758 0
-439 -1761 0
-440 -1762 0
-441 -1763 0
-436 -1824 0
-439 -1829 0
-440 -1830 0
-441 -1831 0
-438 -1859 0
-440 -1862 0
-441 -1863 0
-438 -1880 0
-440 -1882 0
-441 -1883 0
-438 -1892 0
-439 -1894 0
-440 -1895 0
-441 -1896 0
-437 -1910 0
-438 -1912 0
-440 -1914 0
-441 -1915 0
-439 -1928 0
-440 -1929 0
-441 -1930 0
-438 -1933 0
-439 -1934 0
-440 -1935 0
-441 -1936 0
-438 -1939 0
-440 -1942 0
-441 -1943 0
-438 -1952 0
-439 -1954 0
-440 -1955 0
-441 -1956 0
-436 -1965 0
-438 -1967 0
-439 -1969 0
-440 -1970 0
-441 -1971 0
-439 -1975 0
-440 -1976 0
-441 -1977 0
-436 -1984 0
-439 -1987 0
-440 -1988 0
-441 -1989 0
-438 -1992 0
-439 -1995 0
-440 -1996 0
-441 -1997 0
-443 -589 0
-445 -591 0
-446 -592 0
-447 -593 0
-448 -594 0
-449 -595 0
-442 -603 0
-445 -604 0
-446 -606 0
-448 -608 0
-449 -609 0
-442 -610 0
-444 -611 0
-445 -613 0
-446 -614 0
-448 -615 0
-449 -616 0
-442 -634 0
-445 -636 0
-448 -639 0
-449 -640 0
-444 -641 0
-445 -643 0
-446 -644 0
-448 -646 0
-449 -647 0
-442 -648 0
-444 -649 0
-445 -651 0
-446 -652 0
-447 -653 0
-448 -655 0
-449 -656 0
-442 -671 0
-444 -672 0
-445 -673 0
-447 -675 0
-448 -677 0
-449 -678 0
-442 -693 0
-443 -694 0
-445 -695 0
-447 -696 0
-448 -698 0
-449 -699 0
-444 -700 0
-445 -703 0
-447 -704 0
-448 -706 0
-449 -707 0
-443 -708 0
-444 -709 0
-445 -711 0
-446 -713 0
-447 -714 0
-448 -716 0
-449 -717 0
-442 -724 0
-447 -726 0
-448 -728 0
-449 -729 0
-444 -730 0
-446 -732 0
-447 -733 0
-448 -734 0
-449 -735 0
-446 -751 0
-447 -752 0
-448 -754 0
-449 -755 0
-442 -756 0
-444 -757 0
-445 -758 0
-446 -760 0
-448 -761 0
-449 -762 0
-444 -779 0
-445 -781 0
-448 -784 0
-449 -785 0
-443 -814 0
-444 -815 0
-445 -816 0
-447 -817 0
-448 -819 0
-449 -820 0
-444 -829 0
-445 -830 0
-447 -832 0
-448 -833 0
-449 -834 0
-442 -841 0
-446 -843 0
-447 -844 0
-448 -846 0
-449 -847 0
-442 -863 0
-446 -867 0
-448 -868 0
-449 -869 0
-442 -870 0
-443 -871 0
-446 -874 0
-448 -876 0
-449 -877 0
-442 -888 0
-447 -891 0
-448 -892 0
-449 -893 0
-442 -894 0
-443 -895 0
-446 -898 0
-447 -899 0
-448 -901 0
-449 -902 0
-443 -909 0
-446 -912 0
-448 -913 0
-449 -914 0
-442 -915 0
-445 -917 0
-446 -918 0
-447 -919 0
-448 -921 0
-449 -922 0
-445 -932 0
-446 -934 0
-448 -936 0
-449 -937 0
-445 -939 0
-447 -940 0
-448 -942 0
-449 -943 0
-442 -951 0
-443 -952 0
-446 -954 0
-447 -955 0
-448 -956 0
-449 -957 0
-442 -974 0
-443 -975 0
-447 -978 0
-448 -979 0
-449 -980 0
-443 -999 0
-447 -1002 0
-448 -1004 0
-449 -1005 0
-443 -1006 0
-446 -1010 0
-447 -1011 0
-448 -1012 0
-449 -1013 0
-442 -1021 0
-445 -1023 0
-447 -1024 0
-448 -1026 0
-449 -1027 0
-445 -1046 0
-447 -1048 0
-448 -1049 0
-449 -1050 0
-443 -1051 0
-445 -1054 0
-446 -1055 0
-447 -1056 0
-448 -1058 0
-449 -1059 0
-445 -1069 0
-446 -1070 0
-447 -1071 0
-448 -1072 0
-449 -1073 0
-443 -1074 0
-445 -1076 0
-447 -1078 0
-448 -1080 0
-449 -1081 0
-442 -1112 0
-443 -1113 0
-445 -1115 0
-446 -1117 0
-448 -1119 0
-449 -1120 0
-442 -1146 0
-443 -1147 0
-445 -1148 0
-447 -1149 0
-448 -1151 0
-449 -1152 0
-443 -1165 0
-445 -1168 0
-448 -1170 0
-449 -1171 0
-443 -1172 0
-445 -1174 0
-446 -1175 0
-448 -1177 0
-449 -1178 0
-442 -1185 0
-447 -1187 0
-448 -1189 0
-449 -1190 0
-448 -1209 0
-449 -1210 0
-443 -1211 0
-446 -1214 0
-448 -1216 0
-449 -1217 0
-446 -1228 0
-447 -1229 0
-448 -1231 0
-449 -1232 0
-443 -1281 0
-445 -1283 0
-447 -1284 0
-448 -1285 0
-449 -1286 0
-443 -1319 0
-447 -1322 0
-448 -1324 0
-449 -1325 0
-443 -1339 0
-446 -1340 0
-447 -1341 0
-448 -1343 0
-449 -1344 0
-442 -1360 0
-446 -1363 0
-448 -1365 0
-449 -1366 0
-444 -1367 0
-446 -1371 0
-448 -1372 0
-449 -1373 0
-442 -1380 0
-447 -1382 0
-448 -1384 0
-449 -1385 0
-444 -1386 0
-446 -1388 0
-447 -1389 0
-448 -1390 0
-449 -1391 0
-443 -1408 0
-446 -1411 0
-448 -1413 0
-449 -1414 0
-445 -1423 0
-446 -1425 0
-448 -1426 0
-449 -1427 0
-444 -1428 0
-446 -1431 0
-447 -1432 0
-448 -1434 0
-449 -1435 0
-444 -1436 0
-447 -1438 0
-448 -1440 0
-449 -1441 0
-443 -1450 0
-447 -1453 0
-448 -1455 0
-449 -1456 0
-445 -1464 0
-447 -1466 0
-448 -1468 0
-449 -1469 0
-445 -1471 0
-446 -1473 0
-447 -1474 0
-448 -1476 0
-449 -1477 0
-444 -1484 0
-445 -1486 0
-446 -1488 0
-448 -1489 0
-449 -1490 0
-443 -1491 0
-444 -1492 0
-445 -1493 0
-446 -1495 0
-448 -1497 0
-449 -1498 0
-444 -1506 0
-445 -1507 0
-447 -1509 0
-448 -1510 0
-449 -1511 0
-443 -1519 0
-445 -1520 0
-448 -1523 0
-449 -1524 0
-442 -1533 0
-445 -1536 0
-446 -1538 0
-447 -1539 0
-448 -1541 0
-449 -1542 0
-442 -1549 0
-445 -1551 0
-448 -1554 0
-449 -1555 0
-445 -1565 0
-447 -1567 0
-448 -1568 0
-449 -1569 0
-442 -1570 0
-445 -1572 0
-448 -1574 0
-449 -1575 0
-442 -1590 0
-445 -1592 0
-446 -1594 0
-447 -1595 0
-448 -1596 0
-449 -1597 0
-445 -1614 0
-446 -1616 0
-448 -1618 0
-449 -1619 0
-443 -1620 0
-445 -1623 0
-448 -1625 0
-449 -1626 0
-448 -1640 0
-449 -1641 0
-446 -1651 0
-447 -1652 0
-448 -1654 0
-449 -1655 0
-442 -1677 0
-445 -1679 0
-447 -1680 0
-448 -1682 0
-449 -1683 0
-442 -1707 0
-445 -1708 0
-446 -1710 0
-448 -1712 0
-449 -1713 0
-445 -1731 0
-446 -1732 0
-447 -1733 0
-448 -1734 0
-449 -1735 0
-443 -1736 0
-445 -1738 0
-447 -1740 0
-448 -1742 0
-449 -1743 0
-445 -1752 0
-447 -1753 0
-448 -1755 0
-449 -1756 0
-443 -1817 0
-445 -1819 0
-446 -1821 0
-448 -1822 0
-449 -1823 0
-445 -1853 0
-446 -1854 0
-448 -1856 0
-449 -1857 0
-445 -1870 0
-446 -1872 0
-447 -1873 0
-448 -1875 0
-449 -1876 0
-445 -1885 0
-447 -1886 0
-448 -1888 0
-449 -1889 0
-445 -1898 0
-446 -1899 0
-448 -1901 0
-449 -1902 0
-444 -1903 0
-445 -1904 0
-446 -1905 0
-447 -1906 0
-448 -1908 0
-449 -1909 0
-445 -1917 0
-446 -1919 0
-447 -1920 0
-448 -1922 0
-449 -1923 0
-446 -1926 0
-447 -1927 0
-448 -1929 0
-449 -1930 0
-448 -1935 0
-449 -1936 0
-446 -1940 0
-447 -1941 0
-448 -1942 0
-449 -1943 0
-445 -1951 0
-447 -1953 0
-448 -1955 0
-449 -1956 0
-443 -1957 0
-445 -1959 0
-446 -1960 0
-447 -1961 0
-448 -1963 0
-449 -1964 0
-445 -1973 0
-446 -1974 0
-448 -1976 0
-449 -1977 0
-443 -1978 0
-445 -1979 0
-448 -1982 0
-449 -1983 0
-450 -617 0
-452 -618 0
-455 -624 0
-456 -625 0
-450 -634 0
-454 -636 0
-455 -639 0
-456 -640 0
-452 -641 0
-454 -643 0
-455 -646 0
-456 -647 0
-450 -679 0
-452 -680 0
-455 -684 0
-456 -685 0
-452 -686 0
-455 -691 0
-456 -692 0
-451 -718 0
-452 -719 0
-455 -722 0
-456 -723 0
-452 -736 0
-454 -738 0
-455 -741 0
-456 -742 0
-455 -754 0
-456 -755 0
-450 -848 0
-453 -849 0
-454 -850 0
-455 -852 0
-456 -853 0
-450 -854 0
-452 -855 0
-453 -856 0
-454 -858 0
-455 -861 0
-456 -862 0
-450 -878 0
-451 -879 0
-453 -880 0
-454 -882 0
-455 -886 0
-456 -887 0
-450 -888 0
-453 -889 0
-455 -892 0
-456 -893 0
-450 -894 0
-451 -895 0
-455 -901 0
-456 -902 0
-451 -909 0
-453 -910 0
-455 -913 0
-456 -914 0
-450 -915 0
-454 -917 0
-455 -921 0
-456 -922 0
-453 -930 0
-454 -932 0
-455 -936 0
-456 -937 0
-450 -981 0
-451 -982 0
-453 -983 0
-454 -984 0
-455 -988 0
-456 -989 0
-451 -990 0
-452 -991 0
-453 -992 0
-454 -994 0
-455 -997 0
-456 -998 0
-451 -1014 0
-453 -1015 0
-454 -1017 0
-455 -1019 0
-456 -1020 0
-450 -1028 0
-453 -1029 0
-454 -1030 0
-455 -1034 0
-456 -1035 0
-452 -1036 0
-453 -1037 0
-454 -1039 0
-455 -1042 0
-456 -1043 0
-451 -1060 0
-453 -1061 0
-454 -1063 0
-455 -1065 0
-456 -1066 0
-453 -1067 0
-454 -1069 0
-455 -1072 0
-456 -1073 0
-451 -1074 0
-454 -1076 0
-455 -1080 0
-456 -1081 0
-450 -1103 0
-451 -1104 0
-452 -1105 0
-454 -1106 0
-455 -1110 0
-456 -1111 0
-450 -1153 0
-451 -1154 0
-455 -1157 0
-456 -1158 0
-451 -1159 0
-452 -1160 0
-455 -1163 0
-456 -1164 0
-451 -1179 0
-455 -1183 0
-456 -1184 0
-450 -1191 0
-454 -1192 0
-455 -1196 0
-456 -1197 0
-452 -1198 0
-454 -1200 0
-455 -1203 0
-456 -1204 0
-451 -1218 0
-454 -1220 0
-455 -1224 0
-456 -1225 0
-455 -1231 0
-456 -1232 0
-451 -1275 0
-452 -1276 0
-454 -1277 0
-455 -1279 0
-456 -1280 0
-451 -1311 0
-452 -1312 0
-454 -1313 0
-455 -1317 0
-456 -1318 0
-451 -1345 0
-454 -1346 0
-455 -1350 0
-456 -1351 0
-450 -1360 0
-453 -1361 0
-455 -1365 0
-456 -1366 0
-452 -1367 0
-453 -1368 0
-455 -1372 0
-456 -1373 0
-450 -1374 0
-454 -1375 0
-455 -1378 0
-456 -1379 0
-453 -1392 0
-454 -1394 0
-455 -1399 0
-456 -1400 0
-451 -1401 0
-454 -1403 0
-455 -1406 0
-456 -1407 0
-455 -1420 0
-456 -1421 0
-452 -1436 0
-453 -1437 0
-455 -1440 0
-456 -1441 0
-451 -1450 0
-453 -1451 0
-455 -1455 0
-456 -1456 0
-453 -1463 0
-454 -1464 0
-455 -1468 0
-456 -1469 0
-452 -1478 0
-455 -1482 0
-456 -1483 0
-451 -1499 0
-452 -1500 0
-455 -1504 0
-456 -1505 0
-452 -1506 0
-454 -1507 0
-455 -1510 0
-456 -1511 0
-451 -1519 0
-454 -1520 0
-455 -1523 0
-456 -1524 0
-450 -1543 0
-453 -1544 0
-455 -1547 0
-456 -1548 0
-450 -1549 0
-454 -1551 0
-455 -1554 0
-456 -1555 0
-453 -1563 0
-454 -1565 0
-455 -1568 0
-456 -1569 0
-450 -1598 0
-453 -1599 0
-455 -1603 0
-456 -1604 0
-452 -1605 0
-453 -1606 0
-455 -1610 0
-456 -1611 0
-451 -1627 0
-453 -1628 0
-455 -1634 0
-456 -1635 0
-453 -1642 0
-454 -1644 0
-455 -1647 0
-456 -1648 0
-455 -1654 0
-456 -1655 0
-450 -1670 0
-452 -1671 0
-455 -1675 0
-456 -1676 0
-450 -1714 0
-454 -1715 0
-455 -1718 0
-456 -1719 0
-452 -1720 0
-454 -1722 0
-455 -1727 0
-456 -1728 0
-451 -1744 0
-454 -1746 0
-455 -1749 0
-456 -1750 0
-455 -1762 0
-456 -1763 0
-451 -1810 0
-452 -1811 0
-455 -1815 0
-456 -1816 0
-452 -1845 0
-454 -1846 0
-455 -1850 0
-456 -1851 0
-454 -1879 0
-455 -1882 0
-456 -1883 0
-453 -1897 0
-454 -1898 0
-455 -1901 0
-456 -1902 0
-452 -1910 0
-454 -1911 0
-455 -1914 0
-456 -1915 0
-454 -1917 0
-455 -1922 0
-456 -1923 0
-453 -1924 0
-455 -1929 0
-456 -1930 0
-453 -1938 0
-455 -1942 0
-456 -1943 0
-452 -1944 0
-453 -1945 0
-455 -1948 0
-456 -1949 0
-451 -1965 0
-453 -1966 0
-455 -1970 0
-456 -1971 0
-453 -1972 0
-454 -1973 0
-455 -1976 0
-456 -1977 0
-451 -1978 0
-454 -1979 0
-455 -1982 0
-456 -1983 0
-457 -610 0
-459 -611 0
-462 -614 0
-465 -615 0
-466 -616 0
-457 -626 0
-462 -629 0
-463 -630 0
-464 -631 0
-465 -632 0
-466 -633 0
-459 -641 0
-462 -644 0
-464 -645 0
-465 -646 0
-466 -647 0
-457 -671 0
-459 -672 0
-461 -674 0
-463 -675 0
-464 -676 0
-465 -677 0
-466 -678 0
-459 -686 0
-461 -688 0
-463 -689 0
-464 -690 0
-465 -691 0
-466 -692 0
-458 -708 0
-459 -709 0
-461 -712 0
-462 -713 0
-463 -714 0
-464 -715 0
-465 -716 0
-466 -717 0
-459 -730 0
-462 -732 0
-463 -733 0
-465 -734 0
-466 -735 0
-463 -745 0
-464 -746 0
-465 -747 0
-466 -748 0
-457 -841 0
-460 -842 0
-462 -843 0
-463 -844 0
-464 -845 0
-465 -846 0
-466 -847 0
-457 -854 0
-459 -855 0
-460 -856 0
-462 -859 0
-464 -860 0
-465 -861 0
-466 -862 0
-457 -870 0
-458 -871 0
-460 -872 0
-462 -874 0
-464 -875 0
-465 -876 0
-466 -877 0
-457 -888 0
-460 -889 0
-463 -891 0
-465 -892 0
-466 -893 0
-457 -903 0
-458 -904 0
-465 -907 0
-466 -908 0
-458 -909 0
-460 -910 0
-462 -912 0
-465 -913 0
-466 -914 0
-457 -923 0
-461 -926 0
-464 -927 0
-465 -928 0
-466 -929 0
-460 -930 0
-461 -933 0
-462 -934 0
-464 -935 0
-465 -936 0
-466 -937 0
-457 -974 0
-458 -975 0
-460 -976 0
-461 -977 0
-463 -978 0
-465 -979 0
-466 -980 0
-458 -990 0
-459 -991 0
-460 -992 0
-461 -995 0
-463 -996 0
-465 -997 0
-466 -998 0
-458 -1006 0
-460 -1007 0
-461 -1009 0
-462 -1010 0
-463 -1011 0
-465 -1012 0
-466 -1013 0
-457 -1021 0
-460 -1022 0
-463 -1024 0
-464 -1025 0
-465 -1026 0
-466 -1027 0
-459 -1036 0
-460 -1037 0
-463 -1040 0
-464 -1041 0
-465 -1042 0
-466 -1043 0
-458 -1051 0
-460 -1052 0
-462 -1055 0
-463 -1056 0
-464 -1057 0
-465 -1058 0
-466 -1059 0
-460 -1067 0
-462 -1070 0
-463 -1071 0
-465 -1072 0
-466 -1073 0
-458 -1082 0
-462 -1085 0
-463 -1086 0
-465 -1087 0
-466 -1088 0
-457 -1096 0
-458 -1097 0
-459 -1098 0
-462 -1099 0
-464 -1100 0
-465 -1101 0
-466 -1102 0
-457 -1146 0
-458 -1147 0
-463 -1149 0
-464 -1150 0
-465 -1151 0
-466 -1152 0
-458 -1159 0
-459 -1160 0
-464 -1162 0
-465 -1163 0
-466 -1164 0
-458 -1172 0
-462 -1175 0
-464 -1176 0
-465 -1177 0
-466 -1178 0
-457 -1185 0
-461 -1186 0
-463 -1187 0
-464 -1188 0
-465 -1189 0
-466 -1190 0
-459 -1198 0
-461 -1201 0
-464 -1202 0
-465 -1203 0
-466 -1204 0
-458 -1211 0
-461 -1213 0
-462 -1214 0
-464 -1215 0
-465 -1216 0
-466 -1217 0
-461 -1227 0
-462 -1228 0
-463 -1229 0
-464 -1230 0
-465 -1231 0
-466 -1232 0
-458 -1268 0
-459 -1269 0
-461 -1270 0
-463 -1271 0
-464 -1272 0
-465 -1273 0
-466 -1274 0
-458 -1304 0
-459 -1305 0
-463 -1307 0
-464 -1308 0
-465 -1309 0
-466 -1310 0
-458 -1339 0
-462 -1340 0
-463 -1341 0
-464 -1342 0
-465 -1343 0
-466 -1344 0
-457 -1352 0
-460 -1353 0
-461 -1355 0
-462 -1356 0
-463 -1357 0
-465 -1358 0
-466 -1359 0
-459 -1367 0
-460 -1368 0
-461 -1370 0
-462 -1371 0
-465 -1372 0
-466 -1373 0
-457 -1380 0
-461 -1381 0
-463 -1382 0
-464 -1383 0
-465 -1384 0
-466 -1385 0
-460 -1392 0
-461 -1395 0
-462 -1396 0
-463 -1397 0
-464 -1398 0
-465 -1399 0
-466 -1400 0
-458 -1408 0
-461 -1410 0
-462 -1411 0
-464 -1412 0
-465 -1413 0
-466 -1414 0
-461 -1424 0
-462 -1425 0
-465 -1426 0
-466 -1427 0
-459 -1436 0
-460 -1437 0
-463 -1438 0
-464 -1439 0
-465 -1440 0
-466 -1441 0
-458 -1442 0
-460 -1443 0
-462 -1445 0
-463 -1446 0
-464 -1447 0
-465 -1448 0
-466 -1449 0
-460 -1457 0
-461 -1458 0
-462 -1459 0
-463 -1460 0
-465 -1461 0
-466 -1462 0
-461 -1472 0
-462 -1473 0
-463 -1474 0
-464 -1475 0
-465 -1476 0
-466 -1477 0
-459 -1478 0
-461 -1479 0
-462 -1480 0
-464 -1481 0
-465 -1482 0
-466 -1483 0
-458 -1491 0
-459 -1492 0
-461 -1494 0
-462 -1495 0
-464 -1496 0
-465 -1497 0
-466 -1498 0
-459 -1506 0
-461 -1508 0
-463 -1509 0
-465 -1510 0
-466 -1511 0
-458 -1512 0
-461 -1514 0
-462 -1515 0
-463 -1516 0
-465 -1517 0
-466 -1518 0
-461 -1526 0
-462 -1527 0
-463 -1528 0
-464 -1529 0
-465 -1530 0
-466 -1531 0
-457 -1533 0
-460 -1534 0
-461 -1537 0
-462 -1538 0
-463 -1539 0
-464 -1540 0
-465 -1541 0
-466 -1542 0
-457 -1556 0
-461 -1558 0
-462 -1559 0
-463 -1560 0
-465 -1561 0
-466 -1562 0
-460 -1563 0
-461 -1566 0
-463 -1567 0
-465 -1568 0
-466 -1569 0
-457 -1590 0
-460 -1591 0
-461 -1593 0
-462 -1594 0
-463 -1595 0
-465 -1596 0
-466 -1597 0
-459 -1605 0
-460 -1606 0
-461 -1608 0
-462 -1609 0
-465 -1610 0
-466 -1611 0
-458 -1620 0
-460 -1621 0
-461 -1624 0
-465 -1625 0
-466 -1626 0
-460 -1636 0
-461 -1638 0
-464 -1639 0
-465 -1640 0
-466 -1641 0
-461 -1658 0
-462 -1659 0
-465 -1660 0
-466 -1661 0
-457 -1662 0
-459 -1663 0
-461 -1665 0
-463 -1666 0
-464 -1667 0
-465 -1668 0
-466 -1669 0
-457 -1707 0
-461 -1709 0
-462 -1710 0
-464 -1711 0
-465 -1712 0
-466 -1713 0
-459 -1720 0
-461 -1723 0
-462 -1724 0
-463 -1725 0
-464 -1726 0
-465 -1727 0
-466 -1728 0
-458 -1736 0
-461 -1739 0
-463 -1740 0
-464 -1741 0
-465 -1742 0
-466 -1743 0
-463 -1753 0
-464 -1754 0
-465 -1755 0
-466 -1756 0
-458 -1802 0
-459 -1803 0
-461 -1805 0
-462 -1806 0
-464 -1807 0
-465 -1808 0
-466 -1809 0
-459 -1839 0
-461 -1840 0
-462 -1841 0
-464 -1842 0
-465 -1843 0
-466 -1844 0
-461 -1871 0
-462 -1872 0
-463 -1873 0
-464 -1874 0
-465 -1875 0
-466 -1876 0
-463 -1886 0
-464 -1887 0
-465 -1888 0
-466 -1889 0
-460 -1890 0
-461 -1892 0
-463 -1893 0
-464 -1894 0
-465 -1895 0
-466 -1896 0
-459 -1903 0
-462 -1905 0
-463 -1906 0
-464 -1907 0
-465 -1908 0
-466 -1909 0
-460 -1924 0
-462 -1926 0
-463 -1927 0
-464 -1928 0
-465 -1929 0
-466 -1930 0
-460 -1938 0
-461 -1939 0
-462 -1940 0
-463 -1941 0
-465 -1942 0
-466 -1943 0
-459 -1944 0
-460 -1945 0
-463 -1946 0
-464 -1947 0
-465 -1948 0
-466 -1949 0
-458 -1957 0
-460 -1958 0
-462 -1960 0
-463 -1961 0
-464 -1962 0
-465 -1963 0
-466 -1964 0
-460 -1972 0
-462 -1974 0
-464 -1975 0
-465 -1976 0
-466 -1977 0
-458 -1984 0
-462 -1985 0
-463 -1986 0
-464 -1987 0
-465 -1988 0
-466 -1989 0
-461 -1992 0
-462 -1993 0
-463 -1994 0
-464 -1995 0
-465 -1996 0
-466 -1997 0
-469 -583 0
-470 -586 0
-471 -587 0
-472 -588 0
-467 -626 0
-470 -630 0
-471 -632 0
-472 -633 0
-467 -634 0
-471 -639 0
-472 -640 0
-469 -641 0
-471 -646 0
-472 -647 0
-467 -671 0
-469 -672 0
-470 -675 0
-471 -677 0
-472 -678 0
-467 -679 0
-469 -680 0
-470 -682 0
-471 -684 0
-472 -685 0
-469 -686 0
-470 -689 0
-471 -691 0
-472 -692 0
-469 -700 0
-470 -704 0
-471 -706 0
-472 -707 0
-470 -745 0
-471 -747 0
-472 -748 0
-470 -752 0
-471 -754 0
-472 -755 0
-469 -779 0
-471 -784 0
-472 -785 0
-469 -807 0
-470 -810 0
-471 -812 0
-472 -813 0
-467 -841 0
-470 -844 0
-471 -846 0
-472 -847 0
-467 -848 0
-471 -852 0
-472 -853 0
-467 -854 0
-469 -855 0
-471 -861 0
-472 -862 0
-467 -863 0
-471 -868 0
-472 -869 0
-467 -894 0
-468 -895 0
-470 -899 0
-471 -901 0
-472 -902 0
-467 -903 0
-468 -904 0
-471 -907 0
-472 -908 0
-468 -909 0
-471 -913 0
-472 -914 0
-467 -915 0
-470 -919 0
-471 -921 0
-472 -922 0
-467 -923 0
-471 -928 0
-472 -929 0
-471 -936 0
-472 -937 0
-467 -944 0
-469 -945 0
-470 -948 0
-471 -949 0
-472 -950 0
-467 -974 0
-468 -975 0
-470 -978 0
-471 -979 0
-472 -980 0
-467 -981 0
-468 -982 0
-470 -986 0
-471 -988 0
-472 -989 0
-468 -990 0
-469 -991 0
-470 -996 0
-471 -997 0
-472 -998 0
-468 -999 0
-470 -1002 0
-471 -1004 0
-472 -1005 0
-467 -1021 0
-470 -1024 0
-471 -1026 0
-472 -1027 0
-467 -1028 0
-470 -1033 0
-471 -1034 0
-472 -1035 0
-469 -1036 0
-470 -1040 0
-471 -1042 0
-472 -1043 0
-470 -1048 0
-471 -1049 0
-472 -1050 0
-468 -1074 0
-470 -1078 0
-471 -1080 0
-472 -1081 0
-468 -1082 0
-470 -1086 0
-471 -1087 0
-472 -1088 0
-467 -1089 0
-469 -1090 0
-471 -1094 0
-472 -1095 0
-467 -1146 0
-468 -1147 0
-470 -1149 0
-471 -1151 0
-472 -1152 0
-467 -1153 0
-468 -1154 0
-471 -1157 0
-472 -1158 0
-468 -1159 0
-469 -1160 0
-471 -1163 0
-472 -1164 0
-468 -1165 0
-471 -1170 0
-472 -1171 0
-467 -1185 0
-470 -1187 0
-471 -1189 0
-472 -1190 0
-467 -1191 0
-471 -1196 0
-472 -1197 0
-469 -1198 0
-471 -1203 0
-472 -1204 0
-471 -1209 0
-472 -1210 0
-468 -1261 0
-469 -1262 0
-470 -1265 0
-471 -1266 0
-472 -1267 0
-469 -1295 0
-470 -1300 0
-471 -1302 0
-472 -1303 0
-468 -1339 0
-470 -1341 0
-471 -1343 0
-472 -1344 0
-468 -1345 0
-470 -1349 0
-471 -1350 0
-472 -1351 0
-467 -1352 0
-470 -1357 0
-471 -1358 0
-472 -1359 0
-467 -1360 0
-471 -1365 0
-472 -1366 0
-469 -1367 0
-471 -1372 0
-472 -1373 0
-468 -1401 0
-470 -1405 0
-471 -1406 0
-472 -1407 0
-468 -1408 0
-471 -1413 0
-472 -1414 0
-470 -1418 0
-471 -1420 0
-472 -1421 0
-471 -1426 0
-472 -1427 0
-469 -1428 0
-470 -1432 0
-471 -1434 0
-472 -1435 0
-468 -1442 0
-470 -1446 0
-471 -1448 0
-472 -1449 0
-468 -1450 0
-470 -1453 0
-471 -1455 0
-472 -1456 0
-470 -1460 0
-471 -1461 0
-472 -1462 0
-470 -1466 0
-471 -1468 0
-472 -1469 0
-469 -1478 0
-471 -1482 0
-472 -1483 0
-469 -1484 0
-471 -1489 0
-472 -1490 0
-468 -1512 0
-470 -1516 0
-471 -1517 0
-472 -1518 0
-468 -1519 0
-471 -1523 0
-472 -1524 0
-470 -1528 0
-471 -1530 0
-472 -1531 0
-467 -1549 0
-471 -1554 0
-472 -1555 0
-467 -1556 0
-470 -1560 0
-471 -1561 0
-472 -1562 0
-470 -1567 0
-471 -1568 0
-472 -1569 0
-467 -1590 0
-470 -1595 0
-471 -1596 0
-472 -1597 0
-467 -1598 0
-471 -1603 0
-472 -1604 0
-469 -1605 0
-471 -1610 0
-472 -1611 0
-471 -1618 0
-472 -1619 0
-470 -1652 0
-471 -1654 0
-472 -1655 0
-471 -1660 0
-472 -1661 0
-467 -1707 0
-471 -1712 0
-472 -1713 0
-467 -1714 0
-470 -1717 0
-471 -1718 0
-472 -1719 0
-469 -1720 0
-470 -1725 0
-471 -1727 0
-472 -1728 0
-470 -1733 0
-471 -1734 0
-472 -1735 0
-469 -1795 0
-471 -1800 0
-472 -1801 0
-470 -1873 0
-471 -1875 0
-472 -1876 0
-471 -1882 0
-472 -1883 0
-470 -1886 0
-471 -1888 0
-472 -1889 0
-470 -1893 0
-471 -1895 0
-472 -1896 0
-471 -1901 0
-472 -1902 0
-470 -1920 0
-471 -1922 0
-472 -1923 0
-470 -1927 0
-471 -1929 0
-472 -1930 0
-469 -1944 0
-470 -1946 0
-471 -1948 0
-472 -1949 0
-470 -1953 0
-471 -1955 0
-472 -1956 0
-468 -1978 0
-471 -1982 0
-472 -1983 0
-468 -1984 0
-470 -1986 0
-471 -1988 0
-472 -1989 0
-470 -1994 0
-471 -1996 0
-472 -1997 0
-478 -608 0
-479 -609 0
-476 -627 0
-477 -630 0
-478 -632 0
-479 -633 0
-476 -635 0
-478 -639 0
-479 -640 0
-474 -672 0
-477 -675 0
-478 -677 0
-479 -678 0
-474 -680 0
-477 -682 0
-478 -684 0
-479 -685 0
-473 -694 0
-477 -696 0
-478 -698 0
-479 -699 0
-477 -726 0
-478 -728 0
-479 -729 0
-476 -743 0
-477 -745 0
-478 -747 0
-479 -748 0
-476 -749 0
-477 -752 0
-478 -754 0
-479 -755 0
-475 -842 0
-477 -844 0
-478 -846 0
-479 -847 0
-475 -849 0
-478 -852 0
-479 -853 0
-475 -889 0
-476 -890 0
-477 -891 0
-478 -892 0
-479 -893 0
-473 -895 0
-476 -896 0
-477 -899 0
-478 -901 0
-479 -902 0
-473 -904 0
-476 -905 0
-478 -907 0
-479 -908 0
-476 -916 0
-477 -919 0
-478 -921 0
-479 -922 0
-476 -924 0
-478 -928 0
-479 -929 0
-476 -938 0
-477 -940 0
-478 -942 0
-479 -943 0
-473 -975 0
-475 -976 0
-477 -978 0
-478 -979 0
-479 -980 0
-473 -982 0
-475 -983 0
-477 -986 0
-478 -988 0
-479 -989 0
-475 -1022 0
-477 -1024 0
-478 -1026 0
-479 -1027 0
-475 -1029 0
-477 -1033 0
-478 -1034 0
-479 -1035 0
-475 -1067 0
-476 -1068 0
-477 -1071 0
-478 -1072 0
-479 -1073 0
-473 -1074 0
-476 -1075 0
-477 -1078 0
-478 -1080 0
-479 -1081 0
-473 -1082 0
-476 -1083 0
-477 -1086 0
-478 -1087 0
-479 -1088 0
-473 -1147 0
-477 -1149 0
-478 -1151 0
-479 -1152 0
-473 -1154 0
-478 -1157 0
-479 -1158 0
-477 -1187 0
-478 -1189 0
-479 -1190 0
-478 -1196 0
-479 -1197 0
-476 -1226 0
-477 -1229 0
-478 -1231 0
-479 -1232 0
-473 -1339 0
-477 -1341 0
-478 -1343 0
-479 -1344 0
-473 -1345 0
-477 -1349 0
-478 -1350 0
-479 -1351 0
-475 -1353 0
-477 -1357 0
-478 -1358 0
-479 -1359 0
-475 -1361 0
-478 -1365 0
-479 -1366 0
-474 -1386 0
-476 -1387 0
-477 -1389 0
-478 -1390 0
-479 -1391 0
-475 -1392 0
-476 -1393 0
-477 -1397 0
-478 -1399 0
-479 -1400 0
-473 -1401 0
-476 -1402 0
-477 -1405 0
-478 -1406 0
-479 -1407 0
-473 -1408 0
-476 -1409 0
-478 -1413 0
-479 -1414 0
-476 -1415 0
-477 -1418 0
-478 -1420 0
-479 -1421 0
-476 -1422 0
-478 -1426 0
-479 -1427 0
-474 -1436 0
-475 -1437 0
-477 -1438 0
-478 -1440 0
-479 -1441 0
-473 -1442 0
-475 -1443 0
-477 -1446 0
-478 -1448 0
-479 -1449 0
-473 -1450 0
-475 -1451 0
-477 -1453 0
-478 -1455 0
-479 -1456 0
-475 -1457 0
-477 -1460 0
-478 -1461 0
-479 -1462 0
-475 -1463 0
-477 -1466 0
-478 -1468 0
-479 -1469 0
-474 -1506 0
-477 -1509 0
-478 -1510 0
-479 -1511 0
-473 -1512 0
-477 -1516 0
-478 -1517 0
-479 -1518 0
-473 -1519 0
-478 -1523 0
-479 -1524 0
-477 -1528 0
-478 -1530 0
-479 -1531 0
-476 -1550 0
-478 -1554 0
-479 -1555 0
-476 -1557 0
-477 -1560 0
-478 -1561 0
-479 -1562 0
-475 -1591 0
-477 -1595 0
-478 -1596 0
-479 -1597 0
-475 -1599 0
-478 -1603 0
-479 -1604 0
-476 -1649 0
-477 -1652 0
-478 -1654 0
-479 -1655 0
-476 -1656 0
-478 -1660 0
-479 -1661 0
-478 -1712 0
-479 -1713 0
-477 -1717 0
-478 -1718 0
-479 -1719 0
-477 -1873 0
-478 -1875 0
-479 -1876 0
-476 -1878 0
-478 -1882 0
-479 -1883 0
-476 -1884 0
-477 -1886 0
-478 -1888 0
-479 -1889 0
-475 -1890 0
-477 -1893 0
-478 -1895 0
-479 -1896 0
-475 -1897 0
-478 -1901 0
-479 -1902 0
-477 -1920 0
-478 -1922 0
-479 -1923 0
-475 -1931 0
-476 -1932 0
-478 -1935 0
-479 -1936 0
-475 -1938 0
-477 -1941 0
-478 -1942 0
-479 -1943 0
-475 -1972 0
-478 -1976 0
-479 -1977 0
-473 -1978 0
-478 -1982 0
-479 -1983 0
-473 -1984 0
-477 -1986 0
-478 -1988 0
-479 -1989 0
-477 -1994 0
-478 -1996 0
-479 -1997 0
-481 -574 0
-482 -575 0
-483 -577 0
-484 -578 0
-485 -579 0
-486 -580 0
-487 -581 0
-488 -582 0
-480 -603 0
-483 -604 0
-484 -605 0
-485 -606 0
-487 -608 0
-488 -609 0
-480 -610 0
-482 -611 0
-483 -613 0
-485 -614 0
-487 -615 0
-488 -616 0
-480 -634 0
-483 -636 0
-484 -637 0
-487 -639 0
-488 -640 0
-482 -641 0
-483 -643 0
-485 -644 0
-487 -646 0
-488 -647 0
-480 -657 0
-482 -658 0
-484 -660 0
-487 -662 0
-488 -663 0
-482 -664 0
-485 -667 0
-487 -669 0
-488 -670 0
-481 -718 0
-482 -719 0
-487 -722 0
-488 -723 0
-480 -724 0
-484 -725 0
-486 -726 0
-487 -728 0
-488 -729 0
-482 -730 0
-485 -732 0
-486 -733 0
-487 -734 0
-488 -735 0
-484 -750 0
-485 -751 0
-486 -752 0
-487 -754 0
-488 -755 0
-480 -763 0
-482 -764 0
-483 -765 0
-484 -766 0
-486 -767 0
-487 -769 0
-488 -770 0
-482 -771 0
-483 -773 0
-484 -774 0
-485 -775 0
-486 -776 0
-487 -777 0
-488 -778 0
-481 -800 0
-482 -801 0
-484 -802 0
-486 -803 0
-487 -805 0
-488 -806 0
-482 -835 0
-484 -836 0
-485 -837 0
-487 -839 0
-488 -840 0
-480 -848 0
-483 -850 0
-484 -851 0
-487 -852 0
-488 -853 0
-480 -854 0
-482 -855 0
-483 -858 0
-485 -859 0
-487 -861 0
-488 -862 0
-480 -863 0
-484 -866 0
-485 -867 0
-487 -868 0
-488 -869 0
-480 -870 0
-481 -871 0
-485 -874 0
-487 -876 0
-488 -877 0
-480 -903 0
-481 -904 0
-483 -906 0
-487 -907 0
-488 -908 0
-481 -909 0
-485 -912 0
-487 -913 0
-488 -914 0
-480 -915 0
-483 -917 0
-485 -918 0
-486 -919 0
-487 -921 0
-488 -922 0
-483 -939 0
-486 -940 0
-487 -942 0
-488 -943 0
-480 -958 0
-481 -959 0
-483 -961 0
-484 -962 0
-487 -964 0
-488 -965 0
-481 -966 0
-482 -967 0
-483 -970 0
-485 -971 0
-487 -972 0
-488 -973 0
-481 -1014 0
-483 -1017 0
-487 -1019 0
-488 -1020 0
-480 -1028 0
-483 -1030 0
-484 -1031 0
-485 -1032 0
-486 -1033 0
-487 -1034 0
-488 -1035 0
-482 -1036 0
-483 -1039 0
-486 -1040 0
-487 -1042 0
-488 -1043 0
-483 -1046 0
-484 -1047 0
-486 -1048 0
-487 -1049 0
-488 -1050 0
-481 -1051 0
-483 -1054 0
-485 -1055 0
-486 -1056 0
-487 -1058 0
-488 -1059 0
-481 -1082 0
-483 -1084 0
-485 -1085 0
-486 -1086 0
-487 -1087 0
-488 -1088 0
-480 -1103 0
-481 -1104 0
-482 -1105 0
-483 -1106 0
-484 -1107 0
-486 -1108 0
-487 -1110 0
-488 -1111 0
-480 -1121 0
-481 -1122 0
-484 -1124 0
-486 -1125 0
-487 -1126 0
-488 -1127 0
-480 -1128 0
-481 -1129 0
-484 -1130 0
-485 -1131 0
-486 -1132 0
-487 -1134 0
-488 -1135 0
-481 -1136 0
-482 -1137 0
-484 -1140 0
-485 -1141 0
-486 -1142 0
-487 -1144 0
-488 -1145 0
-481 -1179 0
-484 -1181 0
-486 -1182 0
-487 -1183 0
-488 -1184 0
-480 -1191 0
-483 -1192 0
-484 -1193 0
-485 -1194 0
-487 -1196 0
-488 -1197 0
-482 -1198 0
-483 -1200 0
-484 -1201 0
-487 -1203 0
-488 -1204 0
-484 -1207 0
-487 -1209 0
-488 -1210 0
-481 -1211 0
-484 -1213 0
-485 -1214 0
-487 -1216 0
-488 -1217 0
-481 -1253 0
-482 -1254 0
-483 -1256 0
-484 -1257 0
-486 -1258 0
-487 -1259 0
-488 -1260 0
-481 -1311 0
-482 -1312 0
-483 -1313 0
-484 -1314 0
-485 -1315 0
-487 -1317 0
-488 -1318 0
-481 -1326 0
-483 -1328 0
-484 -1329 0
-485 -1330 0
-487 -1331 0
-488 -1332 0
-481 -1333 0
-483 -1334 0
-484 -1335 0
-487 -1337 0
-488 -1338 0
-480 -1352 0
-483 -1354 0
-484 -1355 0
-485 -1356 0
-486 -1357 0
-487 -1358 0
-488 -1359 0
-480 -1380 0
-484 -1381 0
-486 -1382 0
-487 -1384 0
-488 -1385 0
-482 -1386 0
-485 -1388 0
-486 -1389 0
-487 -1390 0
-488 -1391 0
-483 -1394 0
-484 -1395 0
-485 -1396 0
-486 -1397 0
-487 -1399 0
-488 -1400 0
-481 -1401 0
-483 -1403 0
-485 -1404 0
-486 -1405 0
-487 -1406 0
-488 -1407 0
-482 -1428 0
-484 -1430 0
-485 -1431 0
-486 -1432 0
-487 -1434 0
-488 -1435 0
-481 -1450 0
-484 -1452 0
-486 -1453 0
-487 -1455 0
-488 -1456 0
-484 -1458 0
-485 -1459 0
-486 -1460 0
-487 -1461 0
-488 -1462 0
-483 -1471 0
-484 -1472 0
-485 -1473 0
-486 -1474 0
-487 -1476 0
-488 -1477 0
-482 -1478 0
-484 -1479 0
-485 -1480 0
-487 -1482 0
-488 -1483 0
-482 -1484 0
-483 -1486 0
-484 -1487 0
-485 -1488 0
-487 -1489 0
-488 -1490 0
-481 -1491 0
-482 -1492 0
-483 -1493 0
-484 -1494 0
-485 -1495 0
-487 -1497 0
-488 -1498 0
-481 -1519 0
-483 -1520 0
-484 -1521 0
-487 -1523 0
-488 -1524 0
-483 -1525 0
-484 -1526 0
-485 -1527 0
-486 -1528 0
-487 -1530 0
-488 -1531 0
-480 -1533 0
-483 -1536 0
-484 -1537 0
-485 -1538 0
-486 -1539 0
-487 -1541 0
-488 -1542 0
-480 -1556 0
-484 -1558 0
-485 -1559 0
-486 -1560 0
-487 -1561 0
-488 -1562 0
-483 -1565 0
-484 -1566 0
-486 -1567 0
-487 -1568 0
-488 -1569 0
-480 -1576 0
-485 -1578 0
-486 -1579 0
-487 -1581 0
-488 -1582 0
-482 -1583 0
-484 -1586 0
-486 -1587 0
-487 -1588 0
-488 -1589 0
-481 -1627 0
-484 -1630 0
-485 -1631 0
-486 -1632 0
-487 -1634 0
-488 -1635 0
-484 -1638 0
-487 -1640 0
-488 -1641 0
-483 -1657 0
-484 -1658 0
-485 -1659 0
-487 -1660 0
-488 -1661 0
-480 -1670 0
-482 -1671 0
-485 -1672 0
-486 -1673 0
-487 -1675 0
-488 -1676 0
-480 -1684 0
-483 -1686 0
-484 -1687 0
-485 -1688 0
-486 -1689 0
-487 -1690 0
-488 -1691 0
-480 -1692 0
-481 -1693 0
-483 -1694 0
-486 -1695 0
-487 -1697 0
-488 -1698 0
-482 -1699 0
-483 -1702 0
-486 -1703 0
-487 -1705 0
-488 -1706 0
-481 -1744 0
-483 -1746 0
-485 -1747 0
-486 -1748 0
-487 -1749 0
-488 -1750 0
-483 -1752 0
-486 -1753 0
-487 -1755 0
-488 -1756 0
-481 -1788 0
-482 -1789 0
-485 -1791 0
-486 -1792 0
-487 -1793 0
-488 -1794 0
-482 -1845 0
-483 -1846 0
-485 -1847 0
-486 -1848 0
-487 -1850 0
-488 -1851 0
-484 -1859 0
-485 -1860 0
-486 -1861 0
-487 -1862 0
-488 -1863 0
-481 -1864 0
-485 -1865 0
-486 -1866 0
-487 -1868 0
-488 -1869 0
-483 -1879 0
-484 -1880 0
-485 -1881 0
-487 -1882 0
-488 -1883 0
-483 -1898 0
-485 -1899 0
-487 -1901 0
-488 -1902 0
-482 -1903 0
-483 -1904 0
-485 -1905 0
-486 -1906 0
-487 -1908 0
-488 -1909 0
-483 -1917 0
-484 -1918 0
-485 -1919 0
-486 -1920 0
-487 -1922 0
-488 -1923 0
-484 -1933 0
-487 -1935 0
-488 -1936 0
-482 -1944 0
-486 -1946 0
-487 -1948 0
-488 -1949 0
-483 -1951 0
-484 -1952 0
-486 -1953 0
-487 -1955 0
-488 -1956 0
-481 -1957 0
-483 -1959 0
-485 -1960 0
-486 -1961 0
-487 -1963 0
-488 -1964 0
-481 -1984 0
-485 -1985 0
-486 -1986 0
-487 -1988 0
-488 -1989 0
-490 -568 0
-491 -569 0
-493 -571 0
-494 -572 0
-495 -573 0
-489 -603 0
-492 -606 0
-493 -607 0
-494 -608 0
-495 -609 0
-489 -617 0
-491 -618 0
-492 -621 0
-493 -623 0
-494 -624 0
-495 -625 0
-489 -626 0
-492 -629 0
-493 -631 0
-494 -632 0
-495 -633 0
-491 -641 0
-492 -644 0
-493 -645 0
-494 -646 0
-495 -647 0
-489 -648 0
-491 -649 0
-492 -652 0
-493 -654 0
-494 -655 0
-495 -656 0
-491 -664 0
-492 -667 0
-493 -668 0
-494 -669 0
-495 -670 0
-490 -708 0
-491 -709 0
-492 -713 0
-493 -715 0
-494 -716 0
-495 -717 0
-489 -724 0
-493 -727 0
-494 -728 0
-495 -729 0
-491 -736 0
-493 -740 0
-494 -741 0
-495 -742 0
-493 -746 0
-494 -747 0
-495 -748 0
-489 -756 0
-491 -757 0
-492 -760 0
-494 -761 0
-495 -762 0
-491 -771 0
-492 -775 0
-494 -777 0
-495 -778 0
-490 -794 0
-491 -795 0
-492 -797 0
-494 -798 0
-495 -799 0
-491 -829 0
-494 -833 0
-495 -834 0
-489 -841 0
-492 -843 0
-493 -845 0
-494 -846 0
-495 -847 0
-489 -854 0
-491 -855 0
-492 -859 0
-493 -860 0
-494 -861 0
-495 -862 0
-489 -863 0
-492 -867 0
-494 -868 0
-495 -869 0
-489 -878 0
-490 -879 0
-492 -884 0
-494 -886 0
-495 -887 0
-489 -894 0
-490 -895 0
-492 -898 0
-493 -900 0
-494 -901 0
-495 -902 0
-490 -909 0
-492 -912 0
-494 -913 0
-495 -914 0
-489 -923 0
-493 -927 0
-494 -928 0
-495 -929 0
-493 -941 0
-494 -942 0
-495 -943 0
-489 -951 0
-490 -952 0
-492 -954 0
-494 -956 0
-495 -957 0
-490 -966 0
-491 -967 0
-492 -971 0
-494 -972 0
-495 -973 0
-490 -1006 0
-492 -1010 0
-494 -1012 0
-495 -1013 0
-489 -1021 0
-493 -1025 0
-494 -1026 0
-495 -1027 0
-491 -1036 0
-493 -1041 0
-494 -1042 0
-495 -1043 0
-494 -1049 0
-495 -1050 0
-490 -1060 0
-494 -1065 0
-495 -1066 0
-490 -1074 0
-493 -1079 0
-494 -1080 0
-495 -1081 0
-489 -1096 0
-490 -1097 0
-491 -1098 0
-492 -1099 0
-493 -1100 0
-494 -1101 0
-495 -1102 0
-489 -1112 0
-490 -1113 0
-492 -1117 0
-493 -1118 0
-494 -1119 0
-495 -1120 0
-489 -1128 0
-490 -1129 0
-492 -1131 0
-493 -1133 0
-494 -1134 0
-495 -1135 0
-490 -1136 0
-491 -1137 0
-492 -1141 0
-493 -1143 0
-494 -1144 0
-495 -1145 0
-490 -1172 0
-492 -1175 0
-493 -1176 0
-494 -1177 0
-495 -1178 0
-489 -1185 0
-493 -1188 0
-494 -1189 0
-495 -1190 0
-491 -1198 0
-493 -1202 0
-494 -1203 0
-495 -1204 0
-493 -1208 0
-494 -1209 0
-495 -1210 0
-490 -1218 0
-493 -1223 0
-494 -1224 0
-495 -1225 0
-490 -1246 0
-491 -1247 0
-492 -1249 0
-493 -1250 0
-494 -1251 0
-495 -1252 0
-490 -1304 0
-491 -1305 0
-493 -1308 0
-494 -1309 0
-495 -1310 0
-490 -1319 0
-493 -1323 0
-494 -1324 0
-495 -1325 0
-490 -1333 0
-493 -1336 0
-494 -1337 0
-495 -1338 0
-489 -1360 0
-492 -1363 0
-493 -1364 0
-494 -1365 0
-495 -1366 0
-489 -1374 0
-492 -1376 0
-494 -1378 0
-495 -1379 0
-491 -1386 0
-492 -1388 0
-494 -1390 0
-495 -1391 0
-492 -1396 0
-493 -1398 0
-494 -1399 0
-495 -1400 0
-490 -1408 0
-492 -1411 0
-493 -1412 0
-494 -1413 0
-495 -1414 0
-491 -1428 0
-492 -1431 0
-493 -1433 0
-494 -1434 0
-495 -1435 0
-490 -1442 0
-492 -1445 0
-493 -1447 0
-494 -1448 0
-495 -1449 0
-493 -1467 0
-494 -1468 0
-495 -1469 0
-491 -1478 0
-492 -1480 0
-493 -1481 0
-494 -1482 0
-495 -1483 0
-491 -1484 0
-492 -1488 0
-494 -1489 0
-495 -1490 0
-490 -1499 0
-491 -1500 0
-492 -1502 0
-494 -1504 0
-495 -1505 0
-490 -1512 0
-492 -1515 0
-494 -1517 0
-495 -1518 0
-489 -1543 0
-494 -1547 0
-495 -1548 0
-489 -1549 0
-493 -1553 0
-494 -1554 0
-495 -1555 0
-494 -1568 0
-495 -1569 0
-489 -1570 0
-494 -1574 0
-495 -1575 0
-491 -1583 0
-494 -1588 0
-495 -1589 0
-490 -1620 0
-494 -1625 0
-495 -1626 0
-492 -1645 0
-494 -1647 0
-495 -1648 0
-492 -1651 0
-493 -1653 0
-494 -1654 0
-495 -1655 0
-489 -1662 0
-491 -1663 0
-493 -1667 0
-494 -1668 0
-495 -1669 0
-489 -1677 0
-493 -1681 0
-494 -1682 0
-495 -1683 0
-489 -1692 0
-490 -1693 0
-493 -1696 0
-494 -1697 0
-495 -1698 0
-491 -1699 0
-493 -1704 0
-494 -1705 0
-495 -1706 0
-490 -1736 0
-493 -1741 0
-494 -1742 0
-495 -1743 0
-492 -1759 0
-493 -1761 0
-494 -1762 0
-495 -1763 0
-490 -1779 0
-491 -1780 0
-493 -1785 0
-494 -1786 0
-495 -1787 0
-491 -1839 0
-492 -1841 0
-493 -1842 0
-494 -1843 0
-495 -1844 0
-492 -1854 0
-493 -1855 0
-494 -1856 0
-495 -1857 0
-490 -1864 0
-492 -1865 0
-493 -1867 0
-494 -1868 0
-495 -1869 0
-493 -1887 0
-494 -1888 0
-495 -1889 0
-493 -1894 0
-494 -1895 0
-495 -1896 0
-491 -1910 0
-494 -1914 0
-495 -1915 0
-493 -1934 0
-494 -1935 0
-495 -1936 0
-491 -1944 0
-493 -1947 0
-494 -1948 0
-495 -1949 0
-493 -1954 0
-494 -1955 0
-495 -1956 0
-490 -1965 0
-493 -1969 0
-494 -1970 0
-495 -1971 0
-490 -1978 0
-493 -1981 0
-494 -1982 0
-495 -1983 0
-492 -1993 0
-493 -1995 0
-494 -1996 0
-495 -1997 0
-496 -556 0
-499 -557 0
-500 -558 0
-501 -559 0
-502 -560 0
-497 -611 0
-498 -612 0
-500 -614 0
-501 -615 0
-502 -616 0
-497 -618 0
-498 -619 0
-499 -620 0
-500 -621 0
-501 -624 0
-502 -625 0
-498 -627 0
-500 -629 0
-501 -632 0
-502 -633 0
-498 -635 0
-499 -637 0
-501 -639 0
-502 -640 0
-497 -649 0
-500 -652 0
-501 -655 0
-502 -656 0
-497 -658 0
-499 -660 0
-501 -662 0
-502 -663 0
-496 -694 0
-501 -698 0
-502 -699 0
-497 -730 0
-498 -731 0
-500 -732 0
-501 -734 0
-502 -735 0
-497 -736 0
-498 -737 0
-499 -739 0
-501 -741 0
-502 -742 0
-498 -743 0
-501 -747 0
-502 -748 0
-498 -749 0
-499 -750 0
-500 -751 0
-501 -754 0
-502 -755 0
-497 -757 0
-499 -759 0
-500 -760 0
-501 -761 0
-502 -762 0
-497 -764 0
-499 -766 0
-501 -769 0
-502 -770 0
-497 -829 0
-499 -831 0
-501 -833 0
-502 -834 0
-497 -835 0
-499 -836 0
-500 -837 0
-501 -839 0
-502 -840 0
-500 -843 0
-501 -846 0
-502 -847 0
-499 -851 0
-501 -852 0
-502 -853 0
-498 -865 0
-499 -866 0
-500 -867 0
-501 -868 0
-502 -869 0
-496 -871 0
-498 -873 0
-500 -874 0
-501 -876 0
-502 -877 0
-496 -879 0
-498 -881 0
-499 -883 0
-500 -884 0
-501 -886 0
-502 -887 0
-498 -916 0
-500 -918 0
-501 -921 0
-502 -922 0
-498 -924 0
-499 -926 0
-501 -928 0
-502 -929 0
-498 -931 0
-499 -933 0
-500 -934 0
-501 -936 0
-502 -937 0
-496 -952 0
-500 -954 0
-501 -956 0
-502 -957 0
-496 -959 0
-499 -962 0
-501 -964 0
-502 -965 0
-501 -1026 0
-502 -1027 0
-499 -1031 0
-500 -1032 0
-501 -1034 0
-502 -1035 0
-498 -1045 0
-499 -1047 0
-501 -1049 0
-502 -1050 0
-496 -1051 0
-498 -1053 0
-500 -1055 0
-501 -1058 0
-502 -1059 0
-496 -1060 0
-498 -1062 0
-499 -1064 0
-501 -1065 0
-502 -1066 0
-496 -1113 0
-499 -1116 0
-500 -1117 0
-501 -1119 0
-502 -1120 0
-496 -1122 0
-499 -1124 0
-501 -1126 0
-502 -1127 0
-496 -1129 0
-499 -1130 0
-500 -1131 0
-501 -1134 0
-502 -1135 0
-499 -1186 0
-501 -1189 0
-502 -1190 0
-499 -1193 0
-500 -1194 0
-501 -1196 0
-502 -1197 0
-498 -1206 0
-499 -1207 0
-501 -1209 0
-502 -1210 0
-496 -1211 0
-498 -1212 0
-499 -1213 0
-500 -1214 0
-501 -1216 0
-502 -1217 0
-496 -1218 0
-498 -1219 0
-499 -1221 0
-501 -1224 0
-502 -1225 0
-496 -1319 0
-499 -1321 0
-501 -1324 0
-502 -1325 0
-496 -1326 0
-499 -1329 0
-500 -1330 0
-501 -1331 0
-502 -1332 0
-496 -1333 0
-499 -1335 0
-501 -1337 0
-502 -1338 0
-497 -1367 0
-498 -1369 0
-499 -1370 0
-500 -1371 0
-501 -1372 0
-502 -1373 0
-500 -1376 0
-501 -1378 0
-502 -1379 0
-499 -1381 0
-501 -1384 0
-502 -1385 0
-498 -1393 0
-499 -1395 0
-500 -1396 0
-501 -1399 0
-502 -1400 0
-496 -1401 0
-498 -1402 0
-500 -1404 0
-501 -1406 0
-502 -1407 0
-496 -1408 0
-498 -1409 0
-499 -1410 0
-500 -1411 0
-501 -1413 0
-502 -1414 0
-497 -1428 0
-499 -1430 0
-500 -1431 0
-501 -1434 0
-502 -1435 0
-496 -1442 0
-500 -1445 0
-501 -1448 0
-502 -1449 0
-496 -1450 0
-499 -1452 0
-501 -1455 0
-502 -1456 0
-499 -1472 0
-500 -1473 0
-501 -1476 0
-502 -1477 0
-497 -1484 0
-499 -1487 0
-500 -1488 0
-501 -1489 0
-502 -1490 0
-496 -1491 0
-497 -1492 0
-499 -1494 0
-500 -1495 0
-501 -1497 0
-502 -1498 0
-496 -1499 0
-497 -1500 0
-499 -1501 0
-500 -1502 0
-501 -1504 0
-502 -1505 0
-496 -1512 0
-499 -1514 0
-500 -1515 0
-501 -1517 0
-502 -1518 0
-496 -1519 0
-499 -1521 0
-501 -1523 0
-502 -1524 0
-498 -1535 0
-499 -1537 0
-500 -1538 0
-501 -1541 0
-502 -1542 0
-498 -1545 0
-501 -1547 0
-502 -1548 0
-499 -1573 0
-501 -1574 0
-502 -1575 0
-500 -1578 0
-501 -1581 0
-502 -1582 0
-498 -1637 0
-499 -1638 0
-501 -1640 0
-502 -1641 0
-498 -1643 0
-500 -1645 0
-501 -1647 0
-502 -1648 0
-501 -1682 0
-502 -1683 0
-499 -1687 0
-500 -1688 0
-501 -1690 0
-502 -1691 0
-496 -1693 0
-501 -1697 0
-502 -1698 0
-498 -1751 0
-501 -1755 0
-502 -1756 0
-498 -1757 0
-499 -1758 0
-500 -1759 0
-501 -1762 0
-502 -1763 0
-500 -1854 0
-501 -1856 0
-502 -1857 0
-499 -1859 0
-500 -1860 0
-501 -1862 0
-502 -1863 0
-496 -1864 0
-500 -1865 0
-501 -1868 0
-502 -1869 0
-498 -1878 0
-499 -1880 0
-500 -1881 0
-501 -1882 0
-502 -1883 0
-498 -1884 0
-501 -1888 0
-502 -1889 0
-499 -1892 0
-501 -1895 0
-502 -1896 0
-500 -1899 0
-501 -1901 0
-502 -1902 0
-497 -1903 0
-500 -1905 0
-501 -1908 0
-502 -1909 0
-497 -1910 0
-499 -1912 0
-501 -1914 0
-502 -1915 0
-499 -1918 0
-500 -1919 0
-501 -1922 0
-502 -1923 0
-498 -1925 0
-500 -1926 0
-501 -1929 0
-502 -1930 0
-499 -1952 0
-501 -1955 0
-502 -1956 0
-496 -1957 0
-500 -1960 0
-501 -1963 0
-502 -1964 0
-496 -1965 0
-499 -1967 0
-501 -1970 0
-502 -1971 0
-499 -1992 0
-500 -1993 0
-501 -1996 0
-502 -1997 0
-505 -550 0
-506 -551 0
-507 -552 0
-508 -553 0
-509 -554 0
-503 -610 0
-505 -613 0
-506 -614 0
-508 -615 0
-509 -616 0
-503 -617 0
-506 -621 0
-507 -623 0
-508 -624 0
-509 -625 0
-505 -643 0
-506 -644 0
-507 -645 0
-508 -646 0
-509 -647 0
-506 -667 0
-507 -668 0
-508 -669 0
-509 -670 0
-507 -690 0
-508 -691 0
-509 -692 0
-506 -732 0
-508 -734 0
-509 -735 0
-505 -738 0
-507 -740 0
-508 -741 0
-509 -742 0
-505 -773 0
-506 -775 0
-508 -777 0
-509 -778 0
-503 -841 0
-506 -843 0
-507 -845 0
-508 -846 0
-509 -847 0
-503 -848 0
-505 -850 0
-508 -852 0
-509 -853 0
-503 -863 0
-506 -867 0
-508 -868 0
-509 -869 0
-503 -870 0
-504 -871 0
-506 -874 0
-507 -875 0
-508 -876 0
-509 -877 0
-503 -878 0
-504 -879 0
-505 -882 0
-506 -884 0
-508 -886 0
-509 -887 0
-503 -888 0
-508 -892 0
-509 -893 0
-503 -894 0
-504 -895 0
-506 -898 0
-507 -900 0
-508 -901 0
-509 -902 0
-503 -903 0
-504 -904 0
-505 -906 0
-508 -907 0
-509 -908 0
-504 -909 0
-506 -912 0
-508 -913 0
-509 -914 0
-503 -944 0
-505 -947 0
-508 -949 0
-509 -950 0
-504 -966 0
-505 -970 0
-506 -971 0
-508 -972 0
-509 -973 0
-504 -990 0
-505 -994 0
-508 -997 0
-509 -998 0
-503 -1021 0
-505 -1023 0
-507 -1025 0
-508 -1026 0
-509 -1027 0
-503 -1028 0
-505 -1030 0
-506 -1032 0
-508 -1034 0
-509 -1035 0
-505 -1046 0
-508 -1049 0
-509 -1050 0
-504 -1051 0
-505 -1054 0
-506 -1055 0
-507 -1057 0
-508 -1058 0
-509 -1059 0
-504 -1060 0
-505 -1063 0
-508 -1065 0
-509 -1066 0
-505 -1069 0
-506 -1070 0
-508 -1072 0
-509 -1073 0
-504 -1074 0
-505 -1076 0
-507 -1079 0
-508 -1080 0
-509 -1081 0
-504 -1082 0
-505 -1084 0
-506 -1085 0
-508 -1087 0
-509 -1088 0
-503 -1089 0
-507 -1093 0
-508 -1094 0
-509 -1095 0
-503 -1096 0
-504 -1097 0
-506 -1099 0
-507 -1100 0
-508 -1101 0
-509 -1102 0
-503 -1103 0
-504 -1104 0
-505 -1106 0
-507 -1109 0
-508 -1110 0
-509 -1111 0
-504 -1136 0
-506 -1141 0
-507 -1143 0
-508 -1144 0
-509 -1145 0
-504 -1159 0
-507 -1162 0
-508 -1163 0
-509 -1164 0
-503 -1185 0
-507 -1188 0
-508 -1189 0
-509 -1190 0
-503 -1191 0
-505 -1192 0
-506 -1194 0
-507 -1195 0
-508 -1196 0
-509 -1197 0
-507 -1208 0
-508 -1209 0
-509 -1210 0
-504 -1211 0
-506 -1214 0
-507 -1215 0
-508 -1216 0
-509 -1217 0
-504 -1218 0
-505 -1220 0
-507 -1223 0
-508 -1224 0
-509 -1225 0
-506 -1228 0
-507 -1230 0
-508 -1231 0
-509 -1232 0
-504 -1233 0
-505 -1236 0
-507 -1237 0
-508 -1238 0
-509 -1239 0
-505 -1297 0
-506 -1299 0
-507 -1301 0
-508 -1302 0
-509 -1303 0
-504 -1304 0
-505 -1306 0
-507 -1308 0
-508 -1309 0
-509 -1310 0
-504 -1311 0
-505 -1313 0
-506 -1315 0
-507 -1316 0
-508 -1317 0
-509 -1318 0
-503 -1352 0
-505 -1354 0
-506 -1356 0
-508 -1358 0
-509 -1359 0
-503 -1360 0
-506 -1363 0
-507 -1364 0
-508 -1365 0
-509 -1366 0
-503 -1374 0
-505 -1375 0
-506 -1376 0
-508 -1378 0
-509 -1379 0
-503 -1380 0
-507 -1383 0
-508 -1384 0
-509 -1385 0
-505 -1394 0
-506 -1396 0
-507 -1398 0
-508 -1399 0
-509 -1400 0
-504 -1401 0
-505 -1403 0
-506 -1404 0
-508 -1406 0
-509 -1407 0
-504 -1408 0
-506 -1411 0
-507 -1412 0
-508 -1413 0
-509 -1414 0
-506 -1431 0
-507 -1433 0
-508 -1434 0
-509 -1435 0
-507 -1439 0
-508 -1440 0
-509 -1441 0
-506 -1459 0
-508 -1461 0
-509 -1462 0
-505 -1464 0
-507 -1467 0
-508 -1468 0
-509 -1469 0
-505 -1471 0
-506 -1473 0
-507 -1475 0
-508 -1476 0
-509 -1477 0
-505 -1486 0
-506 -1488 0
-508 -1489 0
-509 -1490 0
-504 -1491 0
-505 -1493 0
-506 -1495 0
-507 -1496 0
-508 -1497 0
-509 -1498 0
-504 -1499 0
-506 -1502 0
-508 -1504 0
-509 -1505 0
-505 -1507 0
-508 -1510 0
-509 -1511 0
-505 -1525 0
-506 -1527 0
-507 -1529 0
-508 -1530 0
-509 -1531 0
-503 -1533 0
-505 -1536 0
-506 -1538 0
-507 -1540 0
-508 -1541 0
-509 -1542 0
-503 -1543 0
-508 -1547 0
-509 -1548 0
-503 -1549 0
-505 -1551 0
-507 -1553 0
-508 -1554 0
-509 -1555 0
-503 -1556 0
-506 -1559 0
-508 -1561 0
-509 -1562 0
-505 -1565 0
-508 -1568 0
-509 -1569 0
-508 -1588 0
-509 -1589 0
-506 -1609 0
-508 -1610 0
-509 -1611 0
-507 -1639 0
-508 -1640 0
-509 -1641 0
-505 -1644 0
-506 -1645 0
-508 -1647 0
-509 -1648 0
-506 -1651 0
-507 -1653 0
-508 -1654 0
-509 -1655 0
-505 -1657 0
-506 -1659 0
-508 -1660 0
-509 -1661 0
-503 -1662 0
-505 -1664 0
-507 -1667 0
-508 -1668 0
-509 -1669 0
-503 -1670 0
-506 -1672 0
-507 -1674 0
-508 -1675 0
-509 -1676 0
-505 -1702 0
-507 -1704 0
-508 -1705 0
-509 -1706 0
-505 -1722 0
-506 -1724 0
-507 -1726 0
-508 -1727 0
-509 -1728 0
-505 -1752 0
-507 -1754 0
-508 -1755 0
-509 -1756 0
-506 -1759 0
-507 -1761 0
-508 -1762 0
-509 -1763 0
-506 -1767 0
-507 -1769 0
-508 -1770 0
-509 -1771 0
-506 -1841 0
-507 -1842 0
-508 -1843 0
-509 -1844 0
-505 -1846 0
-506 -1847 0
-507 -1849 0
-508 -1850 0
-509 -1851 0
-505 -1879 0
-506 -1881 0
-508 -1882 0
-509 -1883 0
-505 -1885 0
-507 -1887 0
-508 -1888 0
-509 -1889 0
-505 -1904 0
-506 -1905 0
-507 -1907 0
-508 -1908 0
-509 -1909 0
-505 -1911 0
-508 -1914 0
-509 -1915 0
-506 -1940 0
-508 -1942 0
-509 -1943 0
-505 -1951 0
-507 -1954 0
-508 -1955 0
-509 -1956 0
-504 -1957 0
-505 -1959 0
-506 -1960 0
-507 -1962 0
-508 -1963 0
-509 -1964 0
-504 -1965 0
-507 -1969 0
-508 -1970 0
-509 -1971 0
-505 -1973 0
-506 -1974 0
-507 -1975 0
-508 -1976 0
-509 -1977 0
-504 -1978 0
-505 -1979 0
-507 -1981 0
-508 -1982 0
-509 -1983 0
-504 -1984 0
-506 -1985 0
-507 -1987 0
-508 -1988 0
-509 -1989 0
-514 -604 0
-515 -606 0
-516 -607 0
-517 -608 0
-518 -609 0
-511 -611 0
-513 -612 0
-514 -613 0
-515 -614 0
-517 -615 0
-518 -616 0
-511 -618 0
-513 -619 0
-515 -621 0
-516 -623 0
-517 -624 0
-518 -625 0
-516 -727 0
-517 -728 0
-518 -729 0
-511 -730 0
-513 -731 0
-515 -732 0
-517 -734 0
-518 -735 0
-511 -736 0
-513 -737 0
-514 -738 0
-516 -740 0
-517 -741 0
-518 -742 0
-512 -842 0
-515 -843 0
-516 -845 0
-517 -846 0
-518 -847 0
-512 -849 0
-514 -850 0
-517 -852 0
-518 -853 0
-511 -855 0
-512 -856 0
-513 -857 0
-514 -858 0
-515 -859 0
-516 -860 0
-517 -861 0
-518 -862 0
-510 -871 0
-512 -872 0
-513 -873 0
-515 -874 0
-516 -875 0
-517 -876 0
-518 -877 0
-510 -879 0
-512 -880 0
-513 -881 0
-514 -882 0
-515 -884 0
-517 -886 0
-518 -887 0
-510 -895 0
-513 -896 0
-515 -898 0
-516 -900 0
-517 -901 0
-518 -902 0
-510 -904 0
-513 -905 0
-514 -906 0
-517 -907 0
-518 -908 0
-512 -930 0
-513 -931 0
-514 -932 0
-515 -934 0
-516 -935 0
-517 -936 0
-518 -937 0
-513 -938 0
-514 -939 0
-516 -941 0
-517 -942 0
-518 -943 0
-512 -1022 0
-514 -1023 0
-516 -1025 0
-517 -1026 0
-518 -1027 0
-512 -1029 0
-514 -1030 0
-515 -1032 0
-517 -1034 0
-518 -1035 0
-511 -1036 0
-512 -1037 0
-513 -1038 0
-514 -1039 0
-516 -1041 0
-517 -1042 0
-518 -1043 0
-510 -1051 0
-512 -1052 0
-513 -1053 0
-514 -1054 0
-515 -1055 0
-516 -1057 0
-517 -1058 0
-518 -1059 0
-510 -1060 0
-512 -1061 0
-513 -1062 0
-514 -1063 0
-517 -1065 0
-518 -1066 0
-510 -1074 0
-513 -1075 0
-514 -1076 0
-516 -1079 0
-517 -1080 0
-518 -1081 0
-510 -1082 0
-513 -1083 0
-514 -1084 0
-515 -1085 0
-517 -1087 0
-518 -1088 0
-510 -1097 0
-511 -1098 0
-515 -1099 0
-516 -1100 0
-517 -1101 0
-518 -1102 0
-510 -1104 0
-511 -1105 0
-514 -1106 0
-516 -1109 0
-517 -1110 0
-518 -1111 0
-510 -1129 0
-515 -1131 0
-516 -1133 0
-517 -1134 0
-518 -1135 0
-516 -1188 0
-517 -1189 0
-518 -1190 0
-514 -1192 0
-515 -1194 0
-516 -1195 0
-517 -1196 0
-518 -1197 0
-511 -1198 0
-513 -1199 0
-514 -1200 0
-516 -1202 0
-517 -1203 0
-518 -1204 0
-510 -1211 0
-513 -1212 0
-515 -1214 0
-516 -1215 0
-517 -1216 0
-518 -1217 0
-510 -1218 0
-513 -1219 0
-514 -1220 0
-516 -1223 0
-517 -1224 0
-518 -1225 0
-510 -1304 0
-511 -1305 0
-514 -1306 0
-516 -1308 0
-517 -1309 0
-518 -1310 0
-510 -1311 0
-511 -1312 0
-514 -1313 0
-515 -1315 0
-516 -1316 0
-517 -1317 0
-518 -1318 0
-510 -1333 0
-514 -1334 0
-516 -1336 0
-517 -1337 0
-518 -1338 0
-512 -1353 0
-514 -1354 0
-515 -1356 0
-517 -1358 0
-518 -1359 0
-512 -1361 0
-515 -1363 0
-516 -1364 0
-517 -1365 0
-518 -1366 0
-511 -1367 0
-512 -1368 0
-513 -1369 0
-515 -1371 0
-517 -1372 0
-518 -1373 0
-514 -1375 0
-515 -1376 0
-517 -1378 0
-518 -1379 0
-516 -1383 0
-517 -1384 0
-518 -1385 0
-511 -1386 0
-513 -1387 0
-515 -1388 0
-517 -1390 0
-518 -1391 0
-510 -1401 0
-513 -1402 0
-514 -1403 0
-515 -1404 0
-517 -1406 0
-518 -1407 0
-510 -1408 0
-513 -1409 0
-515 -1411 0
-516 -1412 0
-517 -1413 0
-518 -1414 0
-512 -1457 0
-515 -1459 0
-517 -1461 0
-518 -1462 0
-512 -1463 0
-514 -1464 0
-516 -1467 0
-517 -1468 0
-518 -1469 0
-514 -1471 0
-515 -1473 0
-516 -1475 0
-517 -1476 0
-518 -1477 0
-511 -1478 0
-515 -1480 0
-516 -1481 0
-517 -1482 0
-518 -1483 0
-510 -1491 0
-511 -1492 0
-514 -1493 0
-515 -1495 0
-516 -1496 0
-517 -1497 0
-518 -1498 0
-510 -1499 0
-511 -1500 0
-515 -1502 0
-517 -1504 0
-518 -1505 0
-514 -1525 0
-515 -1527 0
-516 -1529 0
-517 -1530 0
-518 -1531 0
-512 -1534 0
-513 -1535 0
-514 -1536 0
-515 -1538 0
-516 -1540 0
-517 -1541 0
-518 -1542 0
-512 -1544 0
-513 -1545 0
-517 -1547 0
-518 -1548 0
-513 -1550 0
-514 -1551 0
-516 -1553 0
-517 -1554 0
-518 -1555 0
-513 -1557 0
-515 -1559 0
-517 -1561 0
-518 -1562 0
-512 -1636 0
-513 -1637 0
-516 -1639 0
-517 -1640 0
-518 -1641 0
-512 -1642 0
-513 -1643 0
-514 -1644 0
-515 -1645 0
-517 -1647 0
-518 -1648 0
-513 -1649 0
-515 -1651 0
-516 -1653 0
-517 -1654 0
-518 -1655 0
-513 -1656 0
-514 -1657 0
-515 -1659 0
-517 -1660 0
-518 -1661 0
-511 -1663 0
-514 -1664 0
-516 -1667 0
-517 -1668 0
-518 -1669 0
-511 -1671 0
-515 -1672 0
-516 -1674 0
-517 -1675 0
-518 -1676 0
-510 -1693 0
-514 -1694 0
-516 -1696 0
-517 -1697 0
-518 -1698 0
-513 -1751 0
-514 -1752 0
-516 -1754 0
-517 -1755 0
-518 -1756 0
-513 -1757 0
-515 -1759 0
-516 -1761 0
-517 -1762 0
-518 -1763 0
-511 -1839 0
-515 -1841 0
-516 -1842 0
-517 -1843 0
-518 -1844 0
-511 -1845 0
-514 -1846 0
-515 -1847 0
-516 -1849 0
-517 -1850 0
-518 -1851 0
-510 -1864 0
-515 -1865 0
-516 -1867 0
-517 -1868 0
-518 -1869 0
-513 -1878 0
-514 -1879 0
-515 -1881 0
-517 -1882 0
-518 -1883 0
-513 -1884 0
-514 -1885 0
-516 -1887 0
-517 -1888 0
-518 -1889 0
-511 -1903 0
-514 -1904 0
-515 -1905 0
-516 -1907 0
-517 -1908 0
-518 -1909 0
-511 -1910 0
-514 -1911 0
-517 -1914 0
-518 -1915 0
-512 -1924 0
-513 -1925 0
-515 -1926 0
-516 -1928 0
-517 -1929 0
-518 -1930 0
-512 -1931 0
-513 -1932 0
-516 -1934 0
-517 -1935 0
-518 -1936 0
-511 -1944 0
-512 -1945 0
-516 -1947 0
-517 -1948 0
-518 -1949 0
-510 -1957 0
-512 -1958 0
-514 -1959 0
-515 -1960 0
-516 -1962 0
-517 -1963 0
-518 -1964 0
-510 -1965 0
-512 -1966 0
-516 -1969 0
-517 -1970 0
-518 -1971 0
-510 -1978 0
-514 -1979 0
-516 -1981 0
-517 -1982 0
-518 -1983 0
-510 -1984 0
-515 -1985 0
-516 -1987 0
-517 -1988 0
-518 -1989 0
-520 -542 0
-522 -543 0
-523 -544 0
-524 -546 0
-525 -547 0
-522 -604 0
-523 -605 0
-524 -608 0
-525 -609 0
-520 -618 0
-521 -619 0
-523 -620 0
-524 -624 0
-525 -625 0
-521 -635 0
-522 -636 0
-523 -637 0
-524 -639 0
-525 -640 0
-520 -658 0
-523 -660 0
-524 -662 0
-525 -663 0
-520 -680 0
-524 -684 0
-525 -685 0
-523 -725 0
-524 -728 0
-525 -729 0
-520 -736 0
-521 -737 0
-522 -738 0
-523 -739 0
-524 -741 0
-525 -742 0
-521 -749 0
-523 -750 0
-524 -754 0
-525 -755 0
-520 -764 0
-522 -765 0
-523 -766 0
-524 -769 0
-525 -770 0
-520 -835 0
-523 -836 0
-524 -839 0
-525 -840 0
-524 -846 0
-525 -847 0
-520 -855 0
-521 -857 0
-522 -858 0
-524 -861 0
-525 -862 0
-521 -865 0
-523 -866 0
-524 -868 0
-525 -869 0
-519 -879 0
-521 -881 0
-522 -882 0
-523 -883 0
-524 -886 0
-525 -887 0
-521 -890 0
-524 -892 0
-525 -893 0
-519 -904 0
-521 -905 0
-522 -906 0
-524 -907 0
-525 -908 0
-521 -916 0
-522 -917 0
-524 -921 0
-525 -922 0
-521 -931 0
-522 -932 0
-523 -933 0
-524 -936 0
-525 -937 0
-521 -938 0
-522 -939 0
-524 -942 0
-525 -943 0
-520 -945 0
-522 -947 0
-524 -949 0
-525 -950 0
-519 -959 0
-522 -961 0
-523 -962 0
-524 -964 0
-525 -965 0
-519 -982 0
-522 -984 0
-524 -988 0
-525 -989 0
-522 -1023 0
-524 -1026 0
-525 -1027 0
-520 -1036 0
-521 -1038 0
-522 -1039 0
-524 -1042 0
-525 -1043 0
-521 -1045 0
-522 -1046 0
-523 -1047 0
-524 -1049 0
-525 -1050 0
-519 -1060 0
-521 -1062 0
-522 -1063 0
-523 -1064 0
-524 -1065 0
-525 -1066 0
-521 -1068 0
-522 -1069 0
-524 -1072 0
-525 -1073 0
-519 -1082 0
-521 -1083 0
-522 -1084 0
-524 -1087 0
-525 -1088 0
-520 -1090 0
-523 -1092 0
-524 -1094 0
-525 -1095 0
-519 -1104 0
-520 -1105 0
-522 -1106 0
-523 -1107 0
-524 -1110 0
-525 -1111 0
-519 -1122 0
-523 -1124 0
-524 -1126 0
-525 -1127 0
-519 -1154 0
-523 -1155 0
-524 -1157 0
-525 -1158 0
-523 -1186 0
-524 -1189 0
-525 -1190 0
-520 -1198 0
-521 -1199 0
-522 -1200 0
-523 -1201 0
-524 -1203 0
-525 -1204 0
-521 -1206 0
-523 -1207 0
-524 -1209 0
-525 -1210 0
-519 -1218 0
-521 -1219 0
-522 -1220 0
-523 -1221 0
-524 -1224 0
-525 -1225 0
-521 -1226 0
-523 -1227 0
-524 -1231 0
-525 -1232 0
-520 -1295 0
-522 -1297 0
-523 -1298 0
-524 -1302 0
-525 -1303 0
-519 -1311 0
-520 -1312 0
-522 -1313 0
-523 -1314 0
-524 -1317 0
-525 -1318 0
-519 -1326 0
-522 -1328 0
-523 -1329 0
-524 -1331 0
-525 -1332 0
-519 -1345 0
-522 -1346 0
-523 -1347 0
-524 -1350 0
-525 -1351 0
-522 -1354 0
-523 -1355 0
-524 -1358 0
-525 -1359 0
-520 -1367 0
-521 -1369 0
-523 -1370 0
-524 -1372 0
-525 -1373 0
-522 -1375 0
-524 -1378 0
-525 -1379 0
-520 -1386 0
-521 -1387 0
-524 -1390 0
-525 -1391 0
-521 -1393 0
-522 -1394 0
-523 -1395 0
-524 -1399 0
-525 -1400 0
-519 -1408 0
-521 -1409 0
-523 -1410 0
-524 -1413 0
-525 -1414 0
-521 -1415 0
-523 -1416 0
-524 -1420 0
-525 -1421 0
-520 -1428 0
-523 -1430 0
-524 -1434 0
-525 -1435 0
-520 -1436 0
-524 -1440 0
-525 -1441 0
-519 -1450 0
-523 -1452 0
-524 -1455 0
-525 -1456 0
-523 -1458 0
-524 -1461 0
-525 -1462 0
-520 -1478 0
-523 -1479 0
-524 -1482 0
-525 -1483 0
-520 -1484 0
-522 -1486 0
-523 -1487 0
-524 -1489 0
-525 -1490 0
-519 -1499 0
-520 -1500 0
-523 -1501 0
-524 -1504 0
-525 -1505 0
-520 -1506 0
-522 -1507 0
-523 -1508 0
-524 -1510 0
-525 -1511 0
-519 -1519 0
-522 -1520 0
-523 -1521 0
-524 -1523 0
-525 -1524 0
-522 -1525 0
-523 -1526 0
-524 -1530 0
-525 -1531 0
-521 -1545 0
-524 -1547 0
-525 -1548 0
-521 -1557 0
-523 -1558 0
-524 -1561 0
-525 -1562 0
-524 -1581 0
-525 -1582 0
-523 -1600 0
-524 -1603 0
-525 -1604 0
-521 -1643 0
-522 -1644 0
-524 -1647 0
-525 -1648 0
-521 -1656 0
-522 -1657 0
-523 -1658 0
-524 -1660 0
-525 -1661 0
-520 -1671 0
-524 -1675 0
-525 -1676 0
-522 -1686 0
-523 -1687 0
-524 -1690 0
-525 -1691 0
-522 -1715 0
-524 -1718 0
-525 -1719 0
-521 -1757 0
-523 -1758 0
-524 -1762 0
-525 -1763 0
-520 -1845 0
-522 -1846 0
-524 -1850 0
-525 -1851 0
-523 -1859 0
-524 -1862 0
-525 -1863 0
-521 -1884 0
-522 -1885 0
-524 -1888 0
-525 -1889 0
-522 -1898 0
-524 -1901 0
-525 -1902 0
-520 -1910 0
-522 -1911 0
-523 -1912 0
-524 -1914 0
-525 -1915 0
-522 -1917 0
-523 -1918 0
-524 -1922 0
-525 -1923 0
-521 -1925 0
-524 -1929 0
-525 -1930 0
-521 -1932 0
-523 -1933 0
-524 -1935 0
-525 -1936 0
-523 -1939 0
-524 -1942 0
-525 -1943 0
-520 -1944 0
-524 -1948 0
-525 -1949 0
-522 -1951 0
-523 -1952 0
-524 -1955 0
-525 -1956 0
-519 -1965 0
-523 -1967 0
-524 -1970 0
-525 -1971 0
-522 -1973 0
-524 -1976 0
-525 -1977 0
-519 -1984 0
-524 -1988 0
-525 -1989 0
-527 -535 0
-529 -536 0
-530 -537 0
-531 -538 0
-532 -539 0
-533 -540 0
-529 -606 0
-531 -607 0
-532 -608 0
-533 -609 0
-527 -611 0
-528 -612 0
-529 -614 0
-532 -615 0
-533 -616 0
-528 -627 0
-529 -629 0
-530 -630 0
-531 -631 0
-532 -632 0
-533 -633 0
-527 -649 0
-529 -652 0
-530 -653 0
-531 -654 0
-532 -655 0
-533 -656 0
-527 -672 0
-530 -675 0
-531 -676 0
-532 -677 0
-533 -678 0
-530 -726 0
-531 -727 0
-532 -728 0
-533 -729 0
-527 -730 0
-528 -731 0
-529 -732 0
-530 -733 0
-532 -734 0
-533 -735 0
-528 -743 0
-530 -745 0
-531 -746 0
-532 -747 0
-533 -748 0
-527 -757 0
-529 -760 0
-532 -761 0
-533 -762 0
-527 -829 0
-530 -832 0
-532 -833 0
-533 -834 0
-532 -852 0
-533 -853 0
-527 -855 0
-528 -857 0
-529 -859 0
-531 -860 0
-532 -861 0
-533 -862 0
-528 -865 0
-529 -867 0
-532 -868 0
-533 -869 0
-526 -871 0
-528 -873 0
-529 -874 0
-531 -875 0
-532 -876 0
-533 -877 0
-528 -890 0
-530 -891 0
-532 -892 0
-533 -893 0
-526 -895 0
-528 -896 0
-529 -898 0
-530 -899 0
-531 -900 0
-532 -901 0
-533 -902 0
-528 -924 0
-531 -927 0
-532 -928 0
-533 -929 0
-528 -931 0
-529 -934 0
-531 -935 0
-532 -936 0
-533 -937 0
-528 -938 0
-530 -940 0
-531 -941 0
-532 -942 0
-533 -943 0
-527 -945 0
-530 -948 0
-532 -949 0
-533 -950 0
-526 -952 0
-529 -954 0
-530 -955 0
-532 -956 0
-533 -957 0
-526 -975 0
-530 -978 0
-532 -979 0
-533 -980 0
-529 -1032 0
-530 -1033 0
-532 -1034 0
-533 -1035 0
-527 -1036 0
-528 -1038 0
-530 -1040 0
-531 -1041 0
-532 -1042 0
-533 -1043 0
-528 -1045 0
-530 -1048 0
-532 -1049 0
-533 -1050 0
-526 -1051 0
-528 -1053 0
-529 -1055 0
-530 -1056 0
-531 -1057 0
-532 -1058 0
-533 -1059 0
-528 -1068 0
-529 -1070 0
-530 -1071 0
-532 -1072 0
-533 -1073 0
-526 -1074 0
-528 -1075 0
-530 -1078 0
-531 -1079 0
-532 -1080 0
-533 -1081 0
-527 -1090 0
-531 -1093 0
-532 -1094 0
-533 -1095 0
-526 -1097 0
-527 -1098 0
-529 -1099 0
-531 -1100 0
-532 -1101 0
-533 -1102 0
-526 -1113 0
-529 -1117 0
-531 -1118 0
-532 -1119 0
-533 -1120 0
-526 -1147 0
-530 -1149 0
-531 -1150 0
-532 -1151 0
-533 -1152 0
-529 -1194 0
-531 -1195 0
-532 -1196 0
-533 -1197 0
-527 -1198 0
-528 -1199 0
-531 -1202 0
-532 -1203 0
-533 -1204 0
-528 -1206 0
-531 -1208 0
-532 -1209 0
-533 -1210 0
-526 -1211 0
-528 -1212 0
-529 -1214 0
-531 -1215 0
-532 -1216 0
-533 -1217 0
-528 -1226 0
-529 -1228 0
-530 -1229 0
-531 -1230 0
-532 -1231 0
-533 -1232 0
-527 -1295 0
-529 -1299 0
-530 -1300 0
-531 -1301 0
-532 -1302 0
-533 -1303 0
-526 -1304 0
-527 -1305 0
-530 -1307 0
-531 -1308 0
-532 -1309 0
-533 -1310 0
-526 -1319 0
-530 -1322 0
-531 -1323 0
-532 -1324 0
-533 -1325 0
-526 -1339 0
-529 -1340 0
-530 -1341 0
-531 -1342 0
-532 -1343 0
-533 -1344 0
-529 -1363 0
-531 -1364 0
-532 -1365 0
-533 -1366 0
-527 -1367 0
-528 -1369 0
-529 -1371 0
-532 -1372 0
-533 -1373 0
-530 -1382 0
-531 -1383 0
-532 -1384 0
-533 -1385 0
-527 -1386 0
-528 -1387 0
-529 -1388 0
-530 -1389 0
-532 -1390 0
-533 -1391 0
-528 -1393 0
-529 -1396 0
-530 -1397 0
-531 -1398 0
-532 -1399 0
-533 -1400 0
-526 -1401 0
-528 -1402 0
-529 -1404 0
-530 -1405 0
-532 -1406 0
-533 -1407 0
-528 -1422 0
-529 -1425 0
-532 -1426 0
-533 -1427 0
-527 -1428 0
-529 -1431 0
-530 -1432 0
-531 -1433 0
-532 -1434 0
-533 -1435 0
-527 -1436 0
-530 -1438 0
-531 -1439 0
-532 -1440 0
-533 -1441 0
-526 -1442 0
-529 -1445 0
-530 -1446 0
-531 -1447 0
-532 -1448 0
-533 -1449 0
-530 -1466 0
-531 -1467 0
-532 -1468 0
-533 -1469 0
-529 -1473 0
-530 -1474 0
-531 -1475 0
-532 -1476 0
-533 -1477 0
-527 -1478 0
-529 -1480 0
-531 -1481 0
-532 -1482 0
-533 -1483 0
-527 -1484 0
-529 -1488 0
-532 -1489 0
-533 -1490 0
-526 -1491 0
-527 -1492 0
-529 -1495 0
-531 -1496 0
-532 -1497 0
-533 -1498 0
-527 -1506 0
-530 -1509 0
-532 -1510 0
-533 -1511 0
-526 -1512 0
-529 -1515 0
-530 -1516 0
-532 -1517 0
-533 -1518 0
-528 -1535 0
-529 -1538 0
-530 -1539 0
-531 -1540 0
-532 -1541 0
-533 -1542 0
-528 -1550 0
-531 -1553 0
-532 -1554 0
-533 -1555 0
-532 -1574 0
-533 -1575 0
-529 -1594 0
-530 -1595 0
-532 -1596 0
-533 -1597 0
-528 -1637 0
-531 -1639 0
-532 -1640 0
-533 -1641 0
-528 -1649 0
-529 -1651 0
-530 -1652 0
-531 -1653 0
-532 -1654 0
-533 -1655 0
-527 -1663 0
-530 -1666 0
-531 -1667 0
-532 -1668 0
-533 -1669 0
-530 -1680 0
-531 -1681 0
-532 -1682 0
-533 -1683 0
-529 -1710 0
-531 -1711 0
-532 -1712 0
-533 -1713 0
-528 -1751 0
-530 -1753 0
-531 -1754 0
-532 -1755 0
-533 -1756 0
-527 -1839 0
-529 -1841 0
-531 -1842 0
-532 -1843 0
-533 -1844 0
-529 -1854 0
-531 -1855 0
-532 -1856 0
-533 -1857 0
-529 -1872 0
-530 -1873 0
-531 -1874 0
-532 -1875 0
-533 -1876 0
-528 -1878 0
-529 -1881 0
-532 -1882 0
-533 -1883 0
-530 -1893 0
-531 -1894 0
-532 -1895 0
-533 -1896 0
-527 -1903 0
-529 -1905 0
-530 -1906 0
-531 -1907 0
-532 -1908 0
-533 -1909 0
-528 -1925 0
-529 -1926 0
-530 -1927 0
-531 -1928 0
-532 -1929 0
-533 -1930 0
-528 -1932 0
-531 -1934 0
-532 -1935 0
-533 -1936 0
-529 -1940 0
-530 -1941 0
-532 -1942 0
-533 -1943 0
-527 -1944 0
-530 -1946 0
-531 -1947 0
-532 -1948 0
-533 -1949 0
-530 -1953 0
-531 -1954 0
-532 -1955 0
-533 -1956 0
-526 -1957 0
-529 -1960 0
-530 -1961 0
-531 -1962 0
-532 -1963 0
-533 -1964 0
-529 -1974 0
-531 -1975 0
-532 -1976 0
-533 -1977 0
-526 -1978 0
-531 -1981 0
-532 -1982 0
-533 -1983 0
-529 -1993 0
-530 -1994 0
-531 -1995 0
-532 -1996 0
-533 -1997 0
-534 -603 0
-536 -606 0
-538 -607 0
-539 -608 0
-540 -609 0
-534 -610 0
-535 -611 0
-536 -614 0
-539 -615 0
-540 -616 0
-534 -626 0
-536 -629 0
-537 -630 0
-538 -631 0
-539 -632 0
-540 -633 0
-534 -657 0
-535 -658 0
-538 -661 0
-539 -662 0
-540 -663 0
-535 -664 0
-536 -667 0
-538 -668 0
-539 -669 0
-540 -670 0
-534 -679 0
-535 -680 0
-536 -681 0
-537 -682 0
-538 -683 0
-539 -684 0
-540 -685 0
-535 -686 0
-537 -689 0
-538 -690 0
-539 -691 0
-540 -692 0
-534 -693 0
-537 -696 0
-538 -697 0
-539 -698 0
-540 -699 0
-535 -700 0
-537 -704 0
-538 -705 0
-539 -706 0
-540 -707 0
-535 -709 0
-536 -713 0
-537 -714 0
-538 -715 0
-539 -716 0
-540 -717 0
-535 -736 0
-538 -740 0
-539 -741 0
-540 -742 0
-536 -751 0
-537 -752 0
-538 -753 0
-539 -754 0
-540 -755 0
-534 -763 0
-535 -764 0
-537 -767 0
-538 -768 0
-539 -769 0
-540 -770 0
-535 -771 0
-536 -775 0
-537 -776 0
-539 -777 0
-540 -778 0
-535 -779 0
-538 -783 0
-539 -784 0
-540 -785 0
-535 -801 0
-537 -803 0
-538 -804 0
-539 -805 0
-540 -806 0
-535 -822 0
-536 -825 0
-538 -826 0
-539 -827 0
-540 -828 0
-534 -848 0
-539 -852 0
-540 -853 0
-534 -854 0
-535 -855 0
-536 -859 0
-538 -860 0
-539 -861 0
-540 -862 0
-534 -863 0
-536 -867 0
-539 -868 0
-540 -869 0
-534 -870 0
-536 -874 0
-538 -875 0
-539 -876 0
-540 -877 0
-534 -888 0
-537 -891 0
-539 -892 0
-540 -893 0
-534 -894 0
-536 -898 0
-537 -899 0
-538 -900 0
-539 -901 0
-540 -902 0
-534 -923 0
-538 -927 0
-539 -928 0
-540 -929 0
-536 -934 0
-538 -935 0
-539 -936 0
-540 -937 0
-537 -940 0
-538 -941 0
-539 -942 0
-540 -943 0
-534 -958 0
-538 -963 0
-539 -964 0
-540 -965 0
-535 -967 0
-536 -971 0
-539 -972 0
-540 -973 0
-534 -981 0
-536 -985 0
-537 -986 0
-538 -987 0
-539 -988 0
-540 -989 0
-535 -991 0
-537 -996 0
-539 -997 0
-540 -998 0
-537 -1002 0
-538 -1003 0
-539 -1004 0
-540 -1005 0
-536 -1010 0
-537 -1011 0
-539 -1012 0
-540 -1013 0
-539 -1065 0
-540 -1066 0
-536 -1085 0
-537 -1086 0
-539 -1087 0
-540 -1088 0
-534 -1103 0
-535 -1105 0
-537 -1108 0
-538 -1109 0
-539 -1110 0
-540 -1111 0
-534 -1121 0
-537 -1125 0
-539 -1126 0
-540 -1127 0
-534 -1128 0
-536 -1131 0
-537 -1132 0
-538 -1133 0
-539 -1134 0
-540 -1135 0
-535 -1137 0
-536 -1141 0
-537 -1142 0
-538 -1143 0
-539 -1144 0
-540 -1145 0
-534 -1153 0
-536 -1156 0
-539 -1157 0
-540 -1158 0
-535 -1160 0
-538 -1162 0
-539 -1163 0
-540 -1164 0
-539 -1170 0
-540 -1171 0
-536 -1175 0
-538 -1176 0
-539 -1177 0
-540 -1178 0
-537 -1222 0
-538 -1223 0
-539 -1224 0
-540 -1225 0
-535 -1254 0
-537 -1258 0
-539 -1259 0
-540 -1260 0
-535 -1276 0
-536 -1278 0
-539 -1279 0
-540 -1280 0
-536 -1290 0
-538 -1291 0
-539 -1292 0
-540 -1293 0
-534 -1352 0
-536 -1356 0
-537 -1357 0
-539 -1358 0
-540 -1359 0
-534 -1374 0
-536 -1376 0
-537 -1377 0
-539 -1378 0
-540 -1379 0
-536 -1417 0
-537 -1418 0
-538 -1419 0
-539 -1420 0
-540 -1421 0
-535 -1428 0
-536 -1431 0
-537 -1432 0
-538 -1433 0
-539 -1434 0
-540 -1435 0
-535 -1436 0
-537 -1438 0
-538 -1439 0
-539 -1440 0
-540 -1441 0
-536 -1445 0
-537 -1446 0
-538 -1447 0
-539 -1448 0
-540 -1449 0
-537 -1466 0
-538 -1467 0
-539 -1468 0
-540 -1469 0
-536 -1473 0
-537 -1474 0
-538 -1475 0
-539 -1476 0
-540 -1477 0
-535 -1478 0
-536 -1480 0
-538 -1481 0
-539 -1482 0
-540 -1483 0
-535 -1484 0
-536 -1488 0
-539 -1489 0
-540 -1490 0
-535 -1492 0
-536 -1495 0
-538 -1496 0
-539 -1497 0
-540 -1498 0
-535 -1506 0
-537 -1509 0
-539 -1510 0
-540 -1511 0
-536 -1515 0
-537 -1516 0
-539 -1517 0
-540 -1518 0
-534 -1533 0
-536 -1538 0
-537 -1539 0
-538 -1540 0
-539 -1541 0
-540 -1542 0
-534 -1549 0
-538 -1553 0
-539 -1554 0
-540 -1555 0
-534 -1576 0
-536 -1578 0
-537 -1579 0
-538 -1580 0
-539 -1581 0
-540 -1582 0
-535 -1583 0
-537 -1587 0
-539 -1588 0
-540 -1589 0
-534 -1598 0
-536 -1601 0
-538 -1602 0
-539 -1603 0
-540 -1604 0
-535 -1605 0
-536 -1609 0
-539 -1610 0
-540 -1611 0
-536 -1616 0
-538 -1617 0
-539 -1618 0
-540 -1619 0
-539 -1625 0
-540 -1626 0
-536 -1645 0
-537 -1646 0
-539 -1647 0
-540 -1648 0
-536 -1659 0
-539 -1660 0
-540 -1661 0
-534 -1670 0
-535 -1671 0
-536 -1672 0
-537 -1673 0
-538 -1674 0
-539 -1675 0
-540 -1676 0
-534 -1684 0
-536 -1688 0
-537 -1689 0
-539 -1690 0
-540 -1691 0
-534 -1692 0
-537 -1695 0
-538 -1696 0
-539 -1697 0
-540 -1698 0
-535 -1699 0
-537 -1703 0
-538 -1704 0
-539 -1705 0
-540 -1706 0
-534 -1714 0
-536 -1716 0
-537 -1717 0
-539 -1718 0
-540 -1719 0
-535 -1720 0
-536 -1724 0
-537 -1725 0
-538 -1726 0
-539 -1727 0
-540 -1728 0
-536 -1732 0
-537 -1733 0
-539 -1734 0
-540 -1735 0
-537 -1740 0
-538 -1741 0
-539 -1742 0
-540 -1743 0
-536 -1759 0
-537 -1760 0
-538 -1761 0
-539 -1762 0
-540 -1763 0
-535 -1789 0
-536 -1791 0
-537 -1792 0
-539 -1793 0
-540 -1794 0
-535 -1811 0
-536 -1813 0
-537 -1814 0
-539 -1815 0
-540 -1816 0
-536 -1827 0
-537 -1828 0
-538 -1829 0
-539 -1830 0
-540 -1831 0
-536 -1835 0
-537 -1836 0
-539 -1837 0
-540 -1838 0
-537 -1893 0
-538 -1894 0
-539 -1895 0
-540 -1896 0
-535 -1903 0
-536 -1905 0
-537 -1906 0
-538 -1907 0
-539 -1908 0
-540 -1909 0
-536 -1940 0
-537 -1941 0
-539 -1942 0
-540 -1943 0
-535 -1944 0
-537 -1946 0
-538 -1947 0
-539 -1948 0
-540 -1949 0
-537 -1953 0
-538 -1954 0
-539 -1955 0
-540 -1956 0
-536 -1960 0
-537 -1961 0
-538 -1962 0
-539 -1963 0
-540 -1964 0
-536 -1974 0
-538 -1975 0
-539 -1976 0
-540 -1977 0
-538 -1981 0
-539 -1982 0
-540 -1983 0
-536 -1993 0
-537 -1994 0
-538 -1995 0
-539 -1996 0
-540 -1997 0
-541 -603 0
-543 -604 0
-544 -605 0
-545 -606 0
-546 -608 0
-547 -609 0
-541 -617 0
-542 -618 0
-544 -620 0
-545 -621 0
-546 -624 0
-547 -625 0
-541 -634 0
-543 -636 0
-544 -637 0
-546 -639 0
-547 -640 0
-541 -648 0
-542 -649 0
-543 -651 0
-545 -652 0
-546 -655 0
-547 -656 0
-542 -664 0
-545 -667 0
-546 -669 0
-547 -670 0
-541 -671 0
-542 -672 0
-543 -673 0
-544 -674 0
-546 -677 0
-547 -678 0
-542 -686 0
-544 -688 0
-546 -691 0
-547 -692 0
-541 -693 0
-543 -695 0
-546 -698 0
-547 -699 0
-542 -700 0
-543 -703 0
-546 -706 0
-547 -707 0
-542 -719 0
-546 -722 0
-547 -723 0
-542 -730 0
-545 -732 0
-546 -734 0
-547 -735 0
-543 -744 0
-546 -747 0
-547 -748 0
-541 -756 0
-542 -757 0
-543 -758 0
-544 -759 0
-545 -760 0
-546 -761 0
-547 -762 0
-542 -771 0
-543 -773 0
-544 -774 0
-545 -775 0
-546 -777 0
-547 -778 0
-542 -779 0
-543 -781 0
-544 -782 0
-546 -784 0
-547 -785 0
-542 -795 0
-543 -796 0
-545 -797 0
-546 -798 0
-547 -799 0
-542 -815 0
-543 -816 0
-546 -819 0
-547 -820 0
-541 -841 0
-545 -843 0
-546 -846 0
-547 -847 0
-541 -854 0
-542 -855 0
-543 -858 0
-545 -859 0
-546 -861 0
-547 -862 0
-541 -863 0
-544 -866 0
-545 -867 0
-546 -868 0
-547 -869 0
-541 -878 0
-543 -882 0
-544 -883 0
-545 -884 0
-546 -886 0
-547 -887 0
-541 -888 0
-546 -892 0
-547 -893 0
-541 -903 0
-543 -906 0
-546 -907 0
-547 -908 0
-541 -915 0
-543 -917 0
-545 -918 0
-546 -921 0
-547 -922 0
-543 -932 0
-544 -933 0
-545 -934 0
-546 -936 0
-547 -937 0
-543 -939 0
-546 -942 0
-547 -943 0
-541 -951 0
-545 -954 0
-546 -956 0
-547 -957 0
-542 -967 0
-543 -970 0
-545 -971 0
-546 -972 0
-547 -973 0
-541 -974 0
-544 -977 0
-546 -979 0
-547 -980 0
-542 -991 0
-543 -994 0
-544 -995 0
-546 -997 0
-547 -998 0
-546 -1004 0
-547 -1005 0
-543 -1017 0
-546 -1019 0
-547 -1020 0
-543 -1054 0
-545 -1055 0
-546 -1058 0
-547 -1059 0
-543 -1076 0
-544 -1077 0
-546 -1080 0
-547 -1081 0
-541 -1096 0
-542 -1098 0
-545 -1099 0
-546 -1101 0
-547 -1102 0
-541 -1112 0
-543 -1115 0
-544 -1116 0
-545 -1117 0
-546 -1119 0
-547 -1120 0
-541 -1128 0
-544 -1130 0
-545 -1131 0
-546 -1134 0
-547 -1135 0
-542 -1137 0
-544 -1140 0
-545 -1141 0
-546 -1144 0
-547 -1145 0
-541 -1146 0
-543 -1148 0
-546 -1151 0
-547 -1152 0
-542 -1160 0
-546 -1163 0
-547 -1164 0
-543 -1168 0
-544 -1169 0
-546 -1170 0
-547 -1171 0
-544 -1181 0
-546 -1183 0
-547 -1184 0
-544 -1213 0
-545 -1214 0
-546 -1216 0
-547 -1217 0
-542 -1247 0
-545 -1249 0
-546 -1251 0
-547 -1252 0
-542 -1269 0
-544 -1270 0
-546 -1273 0
-547 -1274 0
-543 -1283 0
-546 -1285 0
-547 -1286 0
-541 -1360 0
-544 -1362 0
-545 -1363 0
-546 -1365 0
-547 -1366 0
-541 -1380 0
-544 -1381 0
-546 -1384 0
-547 -1385 0
-543 -1423 0
-544 -1424 0
-545 -1425 0
-546 -1426 0
-547 -1427 0
-542 -1428 0
-544 -1430 0
-545 -1431 0
-546 -1434 0
-547 -1435 0
-542 -1436 0
-546 -1440 0
-547 -1441 0
-544 -1452 0
-546 -1455 0
-547 -1456 0
-544 -1458 0
-545 -1459 0
-546 -1461 0
-547 -1462 0
-542 -1478 0
-544 -1479 0
-545 -1480 0
-546 -1482 0
-547 -1483 0
-542 -1484 0
-543 -1486 0
-544 -1487 0
-545 -1488 0
-546 -1489 0
-547 -1490 0
-542 -1500 0
-544 -1501 0
-545 -1502 0
-546 -1504 0
-547 -1505 0
-542 -1506 0
-543 -1507 0
-544 -1508 0
-546 -1510 0
-547 -1511 0
-543 -1520 0
-544 -1521 0
-546 -1523 0
-547 -1524 0
-543 -1525 0
-544 -1526 0
-545 -1527 0
-546 -1530 0
-547 -1531 0
-541 -1543 0
-546 -1547 0
-547 -1548 0
-541 -1556 0
-544 -1558 0
-545 -1559 0
-546 -1561 0
-547 -1562 0
-541 -1570 0
-543 -1572 0
-544 -1573 0
-546 -1574 0
-547 -1575 0
-542 -1583 0
-544 -1586 0
-546 -1588 0
-547 -1589 0
-541 -1590 0
-543 -1592 0
-544 -1593 0
-545 -1594 0
-546 -1596 0
-547 -1597 0
-542 -1605 0
-544 -1608 0
-545 -1609 0
-546 -1610 0
-547 -1611 0
-543 -1614 0
-544 -1615 0
-545 -1616 0
-546 -1618 0
-547 -1619 0
-544 -1630 0
-545 -1631 0
-546 -1634 0
-547 -1635 0
-544 -1638 0
-546 -1640 0
-547 -1641 0
-544 -1650 0
-545 -1651 0
-546 -1654 0
-547 -1655 0
-541 -1662 0
-542 -1663 0
-543 -1664 0
-544 -1665 0
-546 -1668 0
-547 -1669 0
-541 -1677 0
-543 -1679 0
-546 -1682 0
-547 -1683 0
-541 -1692 0
-543 -1694 0
-546 -1697 0
-547 -1698 0
-542 -1699 0
-543 -1702 0
-546 -1705 0
-547 -1706 0
-541 -1707 0
-543 -1708 0
-544 -1709 0
-545 -1710 0
-546 -1712 0
-547 -1713 0
-542 -1720 0
-543 -1722 0
-544 -1723 0
-545 -1724 0
-546 -1727 0
-547 -1728 0
-543 -1731 0
-545 -1732 0
-546 -1734 0
-547 -1735 0
-543 -1746 0
-545 -1747 0
-546 -1749 0
-547 -1750 0
-543 -1752 0
-546 -1755 0
-547 -1756 0
-542 -1780 0
-543 -1782 0
-544 -1783 0
-546 -1786 0
-547 -1787 0
-542 -1803 0
-543 -1804 0
-544 -1805 0
-545 -1806 0
-546 -1808 0
-547 -1809 0
-543 -1819 0
-544 -1820 0
-545 -1821 0
-546 -1822 0
-547 -1823 0
-543 -1833 0
-544 -1834 0
-545 -1835 0
-546 -1837 0
-547 -1838 0
-543 -1898 0
-545 -1899 0
-546 -1901 0
-547 -1902 0
-542 -1910 0
-543 -1911 0
-544 -1912 0
-546 -1914 0
-547 -1915 0
-543 -1917 0
-544 -1918 0
-545 -1919 0
-546 -1922 0
-547 -1923 0
-544 -1939 0
-545 -1940 0
-546 -1942 0
-547 -1943 0
-542 -1944 0
-546 -1948 0
-547 -1949 0
-543 -1951 0
-544 -1952 0
-546 -1955 0
-547 -1956 0
-544 -1967 0
-546 -1970 0
-547 -1971 0
-543 -1973 0
-545 -1974 0
-546 -1976 0
-547 -1977 0
-545 -1985 0
-546 -1988 0
-547 -1989 0
-548 -611 0
-549 -612 0
-550 -613 0
-551 -614 0
-553 -615 0
-554 -616 0
-548 -618 0
-549 -619 0
-551 -621 0
-552 -623 0
-553 -624 0
-554 -625 0
-548 -641 0
-549 -642 0
-550 -643 0
-551 -644 0
-552 -645 0
-553 -646 0
-554 -647 0
-548 -649 0
-550 -651 0
-551 -652 0
-552 -654 0
-553 -655 0
-554 -656 0
-548 -658 0
-552 -661 0
-553 -662 0
-554 -663 0
-548 -672 0
-550 -673 0
-552 -676 0
-553 -677 0
-554 -678 0
-548 -680 0
-551 -681 0
-552 -683 0
-553 -684 0
-554 -685 0
-548 -700 0
-549 -702 0
-550 -703 0
-552 -705 0
-553 -706 0
-554 -707 0
-548 -709 0
-549 -710 0
-550 -711 0
-551 -713 0
-552 -715 0
-553 -716 0
-554 -717 0
-548 -719 0
-549 -720 0
-552 -721 0
-553 -722 0
-554 -723 0
-552 -727 0
-553 -728 0
-554 -729 0
-549 -743 0
-550 -744 0
-552 -746 0
-553 -747 0
-554 -748 0
-549 -749 0
-551 -751 0
-552 -753 0
-553 -754 0
-554 -755 0
-548 -757 0
-550 -758 0
-551 -760 0
-553 -761 0
-554 -762 0
-548 -764 0
-550 -765 0
-552 -768 0
-553 -769 0
-554 -770 0
-548 -779 0
-549 -780 0
-550 -781 0
-552 -783 0
-553 -784 0
-554 -785 0
-548 -815 0
-550 -816 0
-552 -818 0
-553 -819 0
-554 -820 0
-548 -822 0
-550 -823 0
-551 -825 0
-552 -826 0
-553 -827 0
-554 -828 0
-551 -843 0
-552 -845 0
-553 -846 0
-554 -847 0
-550 -850 0
-553 -852 0
-554 -853 0
-549 -865 0
-551 -867 0
-553 -868 0
-554 -869 0
-549 -873 0
-551 -874 0
-552 -875 0
-553 -876 0
-554 -877 0
-549 -881 0
-550 -882 0
-551 -884 0
-553 -886 0
-554 -887 0
-549 -890 0
-553 -892 0
-554 -893 0
-549 -896 0
-551 -898 0
-552 -900 0
-553 -901 0
-554 -902 0
-549 -905 0
-550 -906 0
-553 -907 0
-554 -908 0
-549 -911 0
-551 -912 0
-553 -913 0
-554 -914 0
-551 -954 0
-553 -956 0
-554 -957 0
-550 -961 0
-552 -963 0
-553 -964 0
-554 -965 0
-553 -979 0
-554 -980 0
-550 -984 0
-551 -985 0
-552 -987 0
-553 -988 0
-554 -989 0
-549 -1001 0
-552 -1003 0
-553 -1004 0
-554 -1005 0
-549 -1008 0
-551 -1010 0
-553 -1012 0
-554 -1013 0
-549 -1016 0
-550 -1017 0
-552 -1018 0
-553 -1019 0
-554 -1020 0
-550 -1115 0
-551 -1117 0
-552 -1118 0
-553 -1119 0
-554 -1120 0
-553 -1126 0
-554 -1127 0
-551 -1131 0
-552 -1133 0
-553 -1134 0
-554 -1135 0
-550 -1148 0
-552 -1150 0
-553 -1151 0
-554 -1152 0
-551 -1156 0
-553 -1157 0
-554 -1158 0
-549 -1167 0
-550 -1168 0
-553 -1170 0
-554 -1171 0
-549 -1173 0
-550 -1174 0
-551 -1175 0
-552 -1176 0
-553 -1177 0
-554 -1178 0
-549 -1180 0
-553 -1183 0
-554 -1184 0
-550 -1283 0
-553 -1285 0
-554 -1286 0
-551 -1290 0
-552 -1291 0
-553 -1292 0
-554 -1293 0
-548 -1367 0
-549 -1369 0
-551 -1371 0
-553 -1372 0
-554 -1373 0
-548 -1386 0
-549 -1387 0
-551 -1388 0
-553 -1390 0
-554 -1391 0
-549 -1415 0
-551 -1417 0
-552 -1419 0
-553 -1420 0
-554 -1421 0
-549 -1422 0
-550 -1423 0
-551 -1425 0
-553 -1426 0
-554 -1427 0
-548 -1428 0
-551 -1431 0
-552 -1433 0
-553 -1434 0
-554 -1435 0
-548 -1436 0
-552 -1439 0
-553 -1440 0
-554 -1441 0
-551 -1459 0
-553 -1461 0
-554 -1462 0
-550 -1464 0
-552 -1467 0
-553 -1468 0
-554 -1469 0
-550 -1471 0
-551 -1473 0
-552 -1475 0
-553 -1476 0
-554 -1477 0
-548 -1484 0
-550 -1486 0
-551 -1488 0
-553 -1489 0
-554 -1490 0
-548 -1492 0
-550 -1493 0
-551 -1495 0
-552 -1496 0
-553 -1497 0
-554 -1498 0
-548 -1500 0
-551 -1502 0
-553 -1504 0
-554 -1505 0
-548 -1506 0
-550 -1507 0
-553 -1510 0
-554 -1511 0
-550 -1525 0
-551 -1527 0
-552 -1529 0
-553 -1530 0
-554 -1531 0
-549 -1535 0
-550 -1536 0
-551 -1538 0
-552 -1540 0
-553 -1541 0
-554 -1542 0
-549 -1545 0
-553 -1547 0
-554 -1548 0
-549 -1550 0
-550 -1551 0
-552 -1553 0
-553 -1554 0
-554 -1555 0
-549 -1557 0
-551 -1559 0
-553 -1561 0
-554 -1562 0
-549 -1564 0
-550 -1565 0
-553 -1568 0
-554 -1569 0
-550 -1572 0
-553 -1574 0
-554 -1575 0
-551 -1578 0
-552 -1580 0
-553 -1581 0
-554 -1582 0
-550 -1592 0
-551 -1594 0
-553 -1596 0
-554 -1597 0
-551 -1601 0
-552 -1602 0
-553 -1603 0
-554 -1604 0
-549 -1613 0
-550 -1614 0
-551 -1616 0
-552 -1617 0
-553 -1618 0
-554 -1619 0
-549 -1622 0
-550 -1623 0
-553 -1625 0
-554 -1626 0
-549 -1629 0
-551 -1631 0
-552 -1633 0
-553 -1634 0
-554 -1635 0
-550 -1679 0
-552 -1681 0
-553 -1682 0
-554 -1683 0
-550 -1686 0
-551 -1688 0
-553 -1690 0
-554 -1691 0
-550 -1694 0
-552 -1696 0
-553 -1697 0
-554 -1698 0
-550 -1708 0
-551 -1710 0
-552 -1711 0
-553 -1712 0
-554 -1713 0
-550 -1715 0
-551 -1716 0
-553 -1718 0
-554 -1719 0
-549 -1730 0
-550 -1731 0
-551 -1732 0
-553 -1734 0
-554 -1735 0
-549 -1737 0
-550 -1738 0
-552 -1741 0
-553 -1742 0
-554 -1743 0
-549 -1745 0
-550 -1746 0
-551 -1747 0
-553 -1749 0
-554 -1750 0
-550 -1819 0
-551 -1821 0
-553 -1822 0
-554 -1823 0
-550 -1826 0
-551 -1827 0
-552 -1829 0
-553 -1830 0
-554 -1831 0
-550 -1833 0
-551 -1835 0
-553 -1837 0
-554 -1838 0
-548 -1903 0
-550 -1904 0
-551 -1905 0
-552 -1907 0
-553 -1908 0
-554 -1909 0
-548 -1910 0
-550 -1911 0
-553 -1914 0
-554 -1915 0
-549 -1925 0
-551 -1926 0
-552 -1928 0
-553 -1929 0
-554 -1930 0
-549 -1932 0
-552 -1934 0
-553 -1935 0
-554 -1936 0
-551 -1940 0
-553 -1942 0
-554 -1943 0
-550 -1951 0
-552 -1954 0
-553 -1955 0
-554 -1956 0
-550 -1959 0
-551 -1960 0
-552 -1962 0
-553 -1963 0
-554 -1964 0
-552 -1969 0
-553 -1970 0
-554 -1971 0
-550 -1973 0
-551 -1974 0
-552 -1975 0
-553 -1976 0
-554 -1977 0
-550 -1979 0
-552 -1981 0
-553 -1982 0
-554 -1983 0
-551 -1985 0
-552 -1987 0
-553 -1988 0
-554 -1989 0
-555 -610 0
-558 -614 0
-559 -615 0
-560 -616 0
-555 -617 0
-557 -620 0
-558 -621 0
-559 -624 0
-560 -625 0
-555 -626 0
-558 -629 0
-559 -632 0
-560 -633 0
-555 -634 0
-557 -637 0
-559 -639 0
-560 -640 0
-558 -667 0
-559 -669 0
-560 -670 0
-555 -671 0
-557 -674 0
-559 -677 0
-560 -678 0
-555 -679 0
-558 -681 0
-559 -684 0
-560 -685 0
-559 -706 0
-560 -707 0
-556 -708 0
-557 -712 0
-558 -713 0
-559 -716 0
-560 -717 0
-556 -718 0
-559 -722 0
-560 -723 0
-557 -774 0
-558 -775 0
-559 -777 0
-560 -778 0
-557 -782 0
-559 -784 0
-560 -785 0
-558 -809 0
-559 -812 0
-560 -813 0
-555 -841 0
-558 -843 0
-559 -846 0
-560 -847 0
-555 -848 0
-557 -851 0
-559 -852 0
-560 -853 0
-555 -863 0
-557 -866 0
-558 -867 0
-559 -868 0
-560 -869 0
-555 -870 0
-556 -871 0
-558 -874 0
-559 -876 0
-560 -877 0
-555 -878 0
-556 -879 0
-557 -883 0
-558 -884 0
-559 -886 0
-560 -887 0
-555 -915 0
-558 -918 0
-559 -921 0
-560 -922 0
-555 -923 0
-557 -926 0
-559 -928 0
-560 -929 0
-557 -933 0
-558 -934 0
-559 -936 0
-560 -937 0
-555 -944 0
-559 -949 0
-560 -950 0
-556 -966 0
-558 -971 0
-559 -972 0
-560 -973 0
-555 -974 0
-556 -975 0
-557 -977 0
-559 -979 0
-560 -980 0
-555 -981 0
-556 -982 0
-558 -985 0
-559 -988 0
-560 -989 0
-556 -999 0
-559 -1004 0
-560 -1005 0
-556 -1006 0
-557 -1009 0
-558 -1010 0
-559 -1012 0
-560 -1013 0
-556 -1014 0
-559 -1019 0
-560 -1020 0
-559 -1042 0
-560 -1043 0
-558 -1070 0
-559 -1072 0
-560 -1073 0
-556 -1074 0
-557 -1077 0
-559 -1080 0
-560 -1081 0
-556 -1082 0
-558 -1085 0
-559 -1087 0
-560 -1088 0
-555 -1089 0
-557 -1092 0
-559 -1094 0
-560 -1095 0
-555 -1096 0
-556 -1097 0
-558 -1099 0
-559 -1101 0
-560 -1102 0
-555 -1103 0
-556 -1104 0
-557 -1107 0
-559 -1110 0
-560 -1111 0
-556 -1136 0
-557 -1140 0
-558 -1141 0
-559 -1144 0
-560 -1145 0
-555 -1146 0
-556 -1147 0
-559 -1151 0
-560 -1152 0
-555 -1153 0
-556 -1154 0
-557 -1155 0
-558 -1156 0
-559 -1157 0
-560 -1158 0
-556 -1165 0
-557 -1169 0
-559 -1170 0
-560 -1171 0
-556 -1172 0
-558 -1175 0
-559 -1177 0
-560 -1178 0
-556 -1179 0
-557 -1181 0
-559 -1183 0
-560 -1184 0
-557 -1201 0
-559 -1203 0
-560 -1204 0
-557 -1227 0
-558 -1228 0
-559 -1231 0
-560 -1232 0
-556 -1233 0
-559 -1238 0
-560 -1239 0
-556 -1261 0
-558 -1264 0
-559 -1266 0
-560 -1267 0
-556 -1268 0
-557 -1270 0
-559 -1273 0
-560 -1274 0
-556 -1275 0
-558 -1278 0
-559 -1279 0
-560 -1280 0
-555 -1352 0
-557 -1355 0
-558 -1356 0
-559 -1358 0
-560 -1359 0
-555 -1360 0
-557 -1362 0
-558 -1363 0
-559 -1365 0
-560 -1366 0
-557 -1416 0
-558 -1417 0
-559 -1420 0
-560 -1421 0
-557 -1424 0
-558 -1425 0
-559 -1426 0
-560 -1427 0
-557 -1430 0
-558 -1431 0
-559 -1434 0
-560 -1435 0
-556 -1442 0
-558 -1445 0
-559 -1448 0
-560 -1449 0
-556 -1450 0
-557 -1452 0
-559 -1455 0
-560 -1456 0
-557 -1472 0
-558 -1473 0
-559 -1476 0
-560 -1477 0
-557 -1487 0
-558 -1488 0
-559 -1489 0
-560 -1490 0
-556 -1491 0
-557 -1494 0
-558 -1495 0
-559 -1497 0
-560 -1498 0
-556 -1499 0
-557 -1501 0
-558 -1502 0
-559 -1504 0
-560 -1505 0
-556 -1512 0
-557 -1514 0
-558 -1515 0
-559 -1517 0
-560 -1518 0
-556 -1519 0
-557 -1521 0
-559 -1523 0
-560 -1524 0
-555 -1533 0
-557 -1537 0
-558 -1538 0
-559 -1541 0
-560 -1542 0
-555 -1543 0
-559 -1547 0
-560 -1548 0
-557 -1586 0
-559 -1588 0
-560 -1589 0
-555 -1590 0
-557 -1593 0
-558 -1594 0
-559 -1596 0
-560 -1597 0
-555 -1598 0
-557 -1600 0
-558 -1601 0
-559 -1603 0
-560 -1604 0
-557 -1615 0
-558 -1616 0
-559 -1618 0
-560 -1619 0
-556 -1620 0
-557 -1624 0
-559 -1625 0
-560 -1626 0
-556 -1627 0
-557 -1630 0
-558 -1631 0
-559 -1634 0
-560 -1635 0
-557 -1650 0
-558 -1651 0
-559 -1654 0
-560 -1655 0
-557 -1658 0
-558 -1659 0
-559 -1660 0
-560 -1661 0
-555 -1662 0
-557 -1665 0
-559 -1668 0
-560 -1669 0
-555 -1670 0
-558 -1672 0
-559 -1675 0
-560 -1676 0
-559 -1705 0
-560 -1706 0
-555 -1707 0
-557 -1709 0
-558 -1710 0
-559 -1712 0
-560 -1713 0
-555 -1714 0
-558 -1716 0
-559 -1718 0
-560 -1719 0
-558 -1732 0
-559 -1734 0
-560 -1735 0
-556 -1736 0
-557 -1739 0
-559 -1742 0
-560 -1743 0
-556 -1744 0
-558 -1747 0
-559 -1749 0
-560 -1750 0
-557 -1766 0
-558 -1767 0
-559 -1770 0
-560 -1771 0
-557 -1798 0
-558 -1799 0
-559 -1800 0
-560 -1801 0
-556 -1802 0
-557 -1805 0
-558 -1806 0
-559 -1808 0
-560 -1809 0
-556 -1810 0
-557 -1812 0
-558 -1813 0
-559 -1815 0
-560 -1816 0
-557 -1892 0
-559 -1895 0
-560 -1896 0
-558 -1899 0
-559 -1901 0
-560 -1902 0
-558 -1905 0
-559 -1908 0
-560 -1909 0
-557 -1912 0
-559 -1914 0
-560 -1915 0
-557 -1918 0
-558 -1919 0
-559 -1922 0
-560 -1923 0
-557 -1952 0
-559 -1955 0
-560 -1956 0
-556 -1957 0
-558 -1960 0
-559 -1963 0
-560 -1964 0
-556 -1965 0
-557 -1967 0
-559 -1970 0
-560 -1971 0
-557 -1992 0
-558 -1993 0
-559 -1996 0
-560 -1997 0
-564 -605 0
-565 -606 0
-566 -608 0
-567 -609 0
-561 -611 0
-563 -612 0
-565 -614 0
-566 -615 0
-567 -616 0
-561 -618 0
-563 -619 0
-564 -620 0
-565 -621 0
-566 -624 0
-567 -625 0
-563 -627 0
-565 -629 0
-566 -632 0
-567 -633 0
-563 -635 0
-564 -637 0
-566 -639 0
-567 -640 0
-561 -641 0
-563 -642 0
-565 -644 0
-566 -646 0
-567 -647 0
-561 -672 0
-564 -674 0
-566 -677 0
-567 -678 0
-561 -680 0
-565 -681 0
-566 -684 0
-567 -685 0
-561 -686 0
-563 -687 0
-564 -688 0
-566 -691 0
-567 -692 0
-566 -698 0
-567 -699 0
-561 -709 0
-563 -710 0
-564 -712 0
-565 -713 0
-566 -716 0
-567 -717 0
-561 -719 0
-563 -720 0
-566 -722 0
-567 -723 0
-562 -842 0
-565 -843 0
-566 -846 0
-567 -847 0
-562 -849 0
-564 -851 0
-566 -852 0
-567 -853 0
-561 -855 0
-562 -856 0
-563 -857 0
-565 -859 0
-566 -861 0
-567 -862 0
-562 -872 0
-563 -873 0
-565 -874 0
-566 -876 0
-567 -877 0
-562 -880 0
-563 -881 0
-564 -883 0
-565 -884 0
-566 -886 0
-567 -887 0
-562 -889 0
-563 -890 0
-566 -892 0
-567 -893 0
-562 -910 0
-563 -911 0
-565 -912 0
-566 -913 0
-567 -914 0
-563 -916 0
-565 -918 0
-566 -921 0
-567 -922 0
-563 -924 0
-564 -926 0
-566 -928 0
-567 -929 0
-563 -938 0
-566 -942 0
-567 -943 0
-562 -976 0
-564 -977 0
-566 -979 0
-567 -980 0
-562 -983 0
-565 -985 0
-566 -988 0
-567 -989 0
-561 -991 0
-562 -992 0
-563 -993 0
-564 -995 0
-566 -997 0
-567 -998 0
-562 -1007 0
-563 -1008 0
-564 -1009 0
-565 -1010 0
-566 -1012 0
-567 -1013 0
-562 -1015 0
-563 -1016 0
-566 -1019 0
-567 -1020 0
-563 -1075 0
-564 -1077 0
-566 -1080 0
-567 -1081 0
-563 -1083 0
-565 -1085 0
-566 -1087 0
-567 -1088 0
-561 -1098 0
-565 -1099 0
-566 -1101 0
-567 -1102 0
-561 -1105 0
-564 -1107 0
-566 -1110 0
-567 -1111 0
-564 -1130 0
-565 -1131 0
-566 -1134 0
-567 -1135 0
-566 -1151 0
-567 -1152 0
-564 -1155 0
-565 -1156 0
-566 -1157 0
-567 -1158 0
-561 -1160 0
-563 -1161 0
-566 -1163 0
-567 -1164 0
-563 -1173 0
-565 -1175 0
-566 -1177 0
-567 -1178 0
-563 -1180 0
-564 -1181 0
-566 -1183 0
-567 -1184 0
-561 -1269 0
-564 -1270 0
-566 -1273 0
-567 -1274 0
-561 -1276 0
-565 -1278 0
-566 -1279 0
-567 -1280 0
-562 -1353 0
-564 -1355 0
-565 -1356 0
-566 -1358 0
-567 -1359 0
-562 -1361 0
-564 -1362 0
-565 -1363 0
-566 -1365 0
-567 -1366 0
-561 -1367 0
-562 -1368 0
-563 -1369 0
-564 -1370 0
-565 -1371 0
-566 -1372 0
-567 -1373 0
-562 -1392 0
-563 -1393 0
-564 -1395 0
-565 -1396 0
-566 -1399 0
-567 -1400 0
-563 -1415 0
-564 -1416 0
-565 -1417 0
-566 -1420 0
-567 -1421 0
-563 -1422 0
-564 -1424 0
-565 -1425 0
-566 -1426 0
-567 -1427 0
-561 -1436 0
-562 -1437 0
-566 -1440 0
-567 -1441 0
-562 -1443 0
-565 -1445 0
-566 -1448 0
-567 -1449 0
-562 -1451 0
-564 -1452 0
-566 -1455 0
-567 -1456 0
-564 -1472 0
-565 -1473 0
-566 -1476 0
-567 -1477 0
-561 -1478 0
-564 -1479 0
-565 -1480 0
-566 -1482 0
-567 -1483 0
-561 -1492 0
-564 -1494 0
-565 -1495 0
-566 -1497 0
-567 -1498 0
-561 -1500 0
-564 -1501 0
-565 -1502 0
-566 -1504 0
-567 -1505 0
-561 -1506 0
-564 -1508 0
-566 -1510 0
-567 -1511 0
-564 -1514 0
-565 -1515 0
-566 -1517 0
-567 -1518 0
-564 -1521 0
-566 -1523 0
-567 -1524 0
-562 -1534 0
-563 -1535 0
-564 -1537 0
-565 -1538 0
-566 -1541 0
-567 -1542 0
-562 -1544 0
-563 -1545 0
-566 -1547 0
-567 -1548 0
-562 -1563 0
-563 -1564 0
-564 -1566 0
-566 -1568 0
-567 -1569 0
-562 -1591 0
-564 -1593 0
-565 -1594 0
-566 -1596 0
-567 -1597 0
-562 -1599 0
-564 -1600 0
-565 -1601 0
-566 -1603 0
-567 -1604 0
-561 -1605 0
-562 -1606 0
-563 -1607 0
-564 -1608 0
-565 -1609 0
-566 -1610 0
-567 -1611 0
-562 -1621 0
-563 -1622 0
-564 -1624 0
-566 -1625 0
-567 -1626 0
-562 -1628 0
-563 -1629 0
-564 -1630 0
-565 -1631 0
-566 -1634 0
-567 -1635 0
-563 -1649 0
-564 -1650 0
-565 -1651 0
-566 -1654 0
-567 -1655 0
-563 -1656 0
-564 -1658 0
-565 -1659 0
-566 -1660 0
-567 -1661 0
-561 -1663 0
-564 -1665 0
-566 -1668 0
-567 -1669 0
-561 -1671 0
-565 -1672 0
-566 -1675 0
-567 -1676 0
-566 -1697 0
-567 -1698 0
-564 -1709 0
-565 -1710 0
-566 -1712 0
-567 -1713 0
-565 -1716 0
-566 -1718 0
-567 -1719 0
-561 -1720 0
-563 -1721 0
-564 -1723 0
-565 -1724 0
-566 -1727 0
-567 -1728 0
-563 -1737 0
-564 -1739 0
-566 -1742 0
-567 -1743 0
-563 -1745 0
-565 -1747 0
-566 -1749 0
-567 -1750 0
-561 -1803 0
-564 -1805 0
-565 -1806 0
-566 -1808 0
-567 -1809 0
-561 -1811 0
-564 -1812 0
-565 -1813 0
-566 -1815 0
-567 -1816 0
-564 -1834 0
-565 -1835 0
-566 -1837 0
-567 -1838 0
-562 -1890 0
-564 -1892 0
-566 -1895 0
-567 -1896 0
-562 -1897 0
-565 -1899 0
-566 -1901 0
-567 -1902 0
-561 -1903 0
-565 -1905 0
-566 -1908 0
-567 -1909 0
-561 -1910 0
-564 -1912 0
-566 -1914 0
-567 -1915 0
-564 -1918 0
-565 -1919 0
-566 -1922 0
-567 -1923 0
-562 -1924 0
-563 -1925 0
-565 -1926 0
-566 -1929 0
-567 -1930 0
-562 -1938 0
-564 -1939 0
-565 -1940 0
-566 -1942 0
-567 -1943 0
-561 -1944 0
-562 -1945 0
-566 -1948 0
-567 -1949 0
-562 -1958 0
-565 -1960 0
-566 -1963 0
-567 -1964 0
-562 -1966 0
-564 -1967 0
-566 -1970 0
-567 -1971 0
-562 -1972 0
-565 -1974 0
-566 -1976 0
-567 -1977 0
-564 -1992 0
-565 -1993 0
-566 -1996 0
-567 -1997 0
-571 -607 0
-572 -608 0
-573 -609 0
-569 -618 0
-570 -619 0
-571 -623 0
-572 -624 0
-573 -625 0
-570 -627 0
-571 -631 0
-572 -632 0
-573 -633 0
-569 -641 0
-570 -642 0
-571 -645 0
-572 -646 0
-573 -647 0
-569 -658 0
-571 -661 0
-572 -662 0
-573 -663 0
-569 -672 0
-571 -676 0
-572 -677 0
-573 -678 0
-569 -686 0
-570 -687 0
-571 -690 0
-572 -691 0
-573 -692 0
-568 -694 0
-571 -697 0
-572 -698 0
-573 -699 0
-569 -700 0
-570 -702 0
-571 -705 0
-572 -706 0
-573 -707 0
-568 -718 0
-569 -719 0
-570 -720 0
-571 -721 0
-572 -722 0
-573 -723 0
-570 -749 0
-571 -753 0
-572 -754 0
-573 -755 0
-569 -764 0
-571 -768 0
-572 -769 0
-573 -770 0
-569 -779 0
-570 -780 0
-571 -783 0
-572 -784 0
-573 -785 0
-569 -807 0
-571 -811 0
-572 -812 0
-573 -813 0
-568 -821 0
-569 -822 0
-571 -826 0
-572 -827 0
-573 -828 0
-571 -845 0
-572 -846 0
-573 -847 0
-569 -855 0
-570 -857 0
-571 -860 0
-572 -861 0
-573 -862 0
-570 -865 0
-572 -868 0
-573 -869 0
-568 -879 0
-570 -881 0
-572 -886 0
-573 -887 0
-568 -895 0
-570 -896 0
-571 -900 0
-572 -901 0
-573 -902 0
-568 -909 0
-570 -911 0
-572 -913 0
-573 -914 0
-570 -924 0
-571 -927 0
-572 -928 0
-573 -929 0
-570 -938 0
-571 -941 0
-572 -942 0
-573 -943 0
-569 -945 0
-572 -949 0
-573 -950 0
-568 -959 0
-571 -963 0
-572 -964 0
-573 -965 0
-568 -975 0
-572 -979 0
-573 -980 0
-568 -990 0
-569 -991 0
-570 -993 0
-572 -997 0
-573 -998 0
-568 -999 0
-570 -1001 0
-571 -1003 0
-572 -1004 0
-573 -1005 0
-568 -1014 0
-570 -1016 0
-571 -1018 0
-572 -1019 0
-573 -1020 0
-572 -1034 0
-573 -1035 0
-570 -1068 0
-572 -1072 0
-573 -1073 0
-568 -1082 0
-570 -1083 0
-572 -1087 0
-573 -1088 0
-569 -1090 0
-571 -1093 0
-572 -1094 0
-573 -1095 0
-568 -1104 0
-569 -1105 0
-571 -1109 0
-572 -1110 0
-573 -1111 0
-568 -1122 0
-572 -1126 0
-573 -1127 0
-568 -1147 0
-571 -1150 0
-572 -1151 0
-573 -1152 0
-568 -1159 0
-569 -1160 0
-570 -1161 0
-571 -1162 0
-572 -1163 0
-573 -1164 0
-568 -1165 0
-570 -1167 0
-572 -1170 0
-573 -1171 0
-568 -1179 0
-570 -1180 0
-572 -1183 0
-573 -1184 0
-571 -1195 0
-572 -1196 0
-573 -1197 0
-570 -1226 0
-571 -1230 0
-572 -1231 0
-573 -1232 0
-568 -1261 0
-569 -1262 0
-572 -1266 0
-573 -1267 0
-568 -1275 0
-569 -1276 0
-572 -1279 0
-573 -1280 0
-568 -1287 0
-571 -1291 0
-572 -1292 0
-573 -1293 0
-568 -1345 0
-572 -1350 0
-573 -1351 0
-572 -1358 0
-573 -1359 0
-569 -1367 0
-570 -1369 0
-572 -1372 0
-573 -1373 0
-568 -1401 0
-570 -1402 0
-572 -1406 0
-573 -1407 0
-570 -1422 0
-572 -1426 0
-573 -1427 0
-569 -1428 0
-571 -1433 0
-572 -1434 0
-573 -1435 0
-568 -1442 0
-571 -1447 0
-572 -1448 0
-573 -1449 0
-571 -1467 0
-572 -1468 0
-573 -1469 0
-569 -1478 0
-571 -1481 0
-572 -1482 0
-573 -1483 0
-569 -1484 0
-572 -1489 0
-573 -1490 0
-568 -1499 0
-569 -1500 0
-572 -1504 0
-573 -1505 0
-568 -1512 0
-572 -1517 0
-573 -1518 0
-570 -1545 0
-572 -1547 0
-573 -1548 0
-570 -1550 0
-571 -1553 0
-572 -1554 0
-573 -1555 0
-570 -1564 0
-572 -1568 0
-573 -1569 0
-571 -1580 0
-572 -1581 0
-573 -1582 0
-572 -1596 0
-573 -1597 0
-569 -1605 0
-570 -1607 0
-572 -1610 0
-573 -1611 0
-570 -1613 0
-571 -1617 0
-572 -1618 0
-573 -1619 0
-568 -1627 0
-570 -1629 0
-571 -1633 0
-572 -1634 0
-573 -1635 0
-570 -1656 0
-572 -1660 0
-573 -1661 0
-569 -1671 0
-571 -1674 0
-572 -1675 0
-573 -1676 0
-572 -1690 0
-573 -1691 0
-571 -1711 0
-572 -1712 0
-573 -1713 0
-569 -1720 0
-570 -1721 0
-571 -1726 0
-572 -1727 0
-573 -1728 0
-570 -1730 0
-572 -1734 0
-573 -1735 0
-568 -1744 0
-570 -1745 0
-572 -1749 0
-573 -1750 0
-569 -1795 0
-572 -1800 0
-573 -1801 0
-568 -1810 0
-569 -1811 0
-572 -1815 0
-573 -1816 0
-568 -1824 0
-571 -1829 0
-572 -1830 0
-573 -1831 0
-570 -1878 0
-572 -1882 0
-573 -1883 0
-571 -1894 0
-572 -1895 0
-573 -1896 0
-569 -1910 0
-572 -1914 0
-573 -1915 0
-570 -1925 0
-571 -1928 0
-572 -1929 0
-573 -1930 0
-569 -1944 0
-571 -1947 0
-572 -1948 0
-573 -1949 0
-571 -1954 0
-572 -1955 0
-573 -1956 0
-568 -1965 0
-571 -1969 0
-572 -1970 0
-573 -1971 0
-568 -1978 0
-571 -1981 0
-572 -1982 0
-573 -1983 0
-571 -1995 0
-572 -1996 0
-573 -1997 0
-577 -604 0
-578 -605 0
-579 -606 0
-581 -608 0
-582 -609 0
-575 -611 0
-576 -612 0
-577 -613 0
-579 -614 0
-581 -615 0
-582 -616 0
-576 -635 0
-577 -636 0
-578 -637 0
-581 -639 0
-582 -640 0
-575 -641 0
-576 -642 0
-577 -643 0
-579 -644 0
-581 -646 0
-582 -647 0
-575 -649 0
-577 -651 0
-579 -652 0
-580 -653 0
-581 -655 0
-582 -656 0
-575 -680 0
-579 -681 0
-580 -682 0
-581 -684 0
-582 -685 0
-575 -686 0
-576 -687 0
-578 -688 0
-580 -689 0
-581 -691 0
-582 -692 0
-574 -694 0
-577 -695 0
-580 -696 0
-581 -698 0
-582 -699 0
-575 -700 0
-576 -702 0
-577 -703 0
-580 -704 0
-581 -706 0
-582 -707 0
-574 -708 0
-575 -709 0
-576 -710 0
-577 -711 0
-578 -712 0
-579 -713 0
-580 -714 0
-581 -716 0
-582 -717 0
-576 -743 0
-577 -744 0
-580 -745 0
-581 -747 0
-582 -748 0
-575 -757 0
-577 -758 0
-578 -759 0
-579 -760 0
-581 -761 0
-582 -762 0
-575 -779 0
-576 -780 0
-577 -781 0
-578 -782 0
-581 -784 0
-582 -785 0
-575 -807 0
-577 -808 0
-579 -809 0
-580 -810 0
-581 -812 0
-582 -813 0
-574 -814 0
-575 -815 0
-577 -816 0
-580 -817 0
-581 -819 0
-582 -820 0
-577 -850 0
-578 -851 0
-581 -852 0
-582 -853 0
-575 -855 0
-576 -857 0
-577 -858 0
-579 -859 0
-581 -861 0
-582 -862 0
-576 -865 0
-578 -866 0
-579 -867 0
-581 -868 0
-582 -869 0
-574 -871 0
-576 -873 0
-579 -874 0
-581 -876 0
-582 -877 0
-574 -904 0
-576 -905 0
-577 -906 0
-581 -907 0
-582 -908 0
-574 -909 0
-576 -911 0
-579 -912 0
-581 -913 0
-582 -914 0
-576 -916 0
-577 -917 0
-579 -918 0
-580 -919 0
-581 -921 0
-582 -922 0
-576 -938 0
-577 -939 0
-580 -940 0
-581 -942 0
-582 -943 0
-575 -945 0
-577 -947 0
-580 -948 0
-581 -949 0
-582 -950 0
-574 -952 0
-579 -954 0
-580 -955 0
-581 -956 0
-582 -957 0
-574 -982 0
-577 -984 0
-579 -985 0
-580 -986 0
-581 -988 0
-582 -989 0
-574 -990 0
-575 -991 0
-576 -993 0
-577 -994 0
-578 -995 0
-580 -996 0
-581 -997 0
-582 -998 0
-574 -999 0
-576 -1001 0
-580 -1002 0
-581 -1004 0
-582 -1005 0
-574 -1006 0
-576 -1008 0
-578 -1009 0
-579 -1010 0
-580 -1011 0
-581 -1012 0
-582 -1013 0
-577 -1023 0
-580 -1024 0
-581 -1026 0
-582 -1027 0
-576 -1068 0
-577 -1069 0
-579 -1070 0
-580 -1071 0
-581 -1072 0
-582 -1073 0
-574 -1074 0
-576 -1075 0
-577 -1076 0
-578 -1077 0
-580 -1078 0
-581 -1080 0
-582 -1081 0
-575 -1090 0
-578 -1092 0
-581 -1094 0
-582 -1095 0
-574 -1097 0
-575 -1098 0
-579 -1099 0
-581 -1101 0
-582 -1102 0
-574 -1113 0
-577 -1115 0
-578 -1116 0
-579 -1117 0
-581 -1119 0
-582 -1120 0
-574 -1154 0
-578 -1155 0
-579 -1156 0
-581 -1157 0
-582 -1158 0
-574 -1159 0
-575 -1160 0
-576 -1161 0
-581 -1163 0
-582 -1164 0
-574 -1165 0
-576 -1167 0
-577 -1168 0
-578 -1169 0
-581 -1170 0
-582 -1171 0
-574 -1172 0
-576 -1173 0
-577 -1174 0
-579 -1175 0
-581 -1177 0
-582 -1178 0
-578 -1186 0
-580 -1187 0
-581 -1189 0
-582 -1190 0
-576 -1226 0
-578 -1227 0
-579 -1228 0
-580 -1229 0
-581 -1231 0
-582 -1232 0
-574 -1261 0
-575 -1262 0
-579 -1264 0
-580 -1265 0
-581 -1266 0
-582 -1267 0
-574 -1268 0
-575 -1269 0
-578 -1270 0
-580 -1271 0
-581 -1273 0
-582 -1274 0
-574 -1281 0
-577 -1283 0
-580 -1284 0
-581 -1285 0
-582 -1286 0
-574 -1339 0
-579 -1340 0
-580 -1341 0
-581 -1343 0
-582 -1344 0
-578 -1362 0
-579 -1363 0
-581 -1365 0
-582 -1366 0
-575 -1367 0
-576 -1369 0
-578 -1370 0
-579 -1371 0
-581 -1372 0
-582 -1373 0
-574 -1408 0
-576 -1409 0
-578 -1410 0
-579 -1411 0
-581 -1413 0
-582 -1414 0
-576 -1415 0
-578 -1416 0
-579 -1417 0
-580 -1418 0
-581 -1420 0
-582 -1421 0
-575 -1428 0
-578 -1430 0
-579 -1431 0
-580 -1432 0
-581 -1434 0
-582 -1435 0
-574 -1450 0
-578 -1452 0
-580 -1453 0
-581 -1455 0
-582 -1456 0
-578 -1458 0
-579 -1459 0
-580 -1460 0
-581 -1461 0
-582 -1462 0
-577 -1471 0
-578 -1472 0
-579 -1473 0
-580 -1474 0
-581 -1476 0
-582 -1477 0
-575 -1478 0
-578 -1479 0
-579 -1480 0
-581 -1482 0
-582 -1483 0
-575 -1484 0
-577 -1486 0
-578 -1487 0
-579 -1488 0
-581 -1489 0
-582 -1490 0
-574 -1491 0
-575 -1492 0
-577 -1493 0
-578 -1494 0
-579 -1495 0
-581 -1497 0
-582 -1498 0
-574 -1519 0
-577 -1520 0
-578 -1521 0
-581 -1523 0
-582 -1524 0
-577 -1525 0
-578 -1526 0
-579 -1527 0
-580 -1528 0
-581 -1530 0
-582 -1531 0
-576 -1535 0
-577 -1536 0
-578 -1537 0
-579 -1538 0
-580 -1539 0
-581 -1541 0
-582 -1542 0
-576 -1557 0
-578 -1558 0
-579 -1559 0
-580 -1560 0
-581 -1561 0
-582 -1562 0
-576 -1564 0
-577 -1565 0
-578 -1566 0
-580 -1567 0
-581 -1568 0
-582 -1569 0
-577 -1572 0
-578 -1573 0
-581 -1574 0
-582 -1575 0
-578 -1600 0
-579 -1601 0
-581 -1603 0
-582 -1604 0
-575 -1605 0
-576 -1607 0
-578 -1608 0
-579 -1609 0
-581 -1610 0
-582 -1611 0
-576 -1613 0
-577 -1614 0
-578 -1615 0
-579 -1616 0
-581 -1618 0
-582 -1619 0
-574 -1620 0
-576 -1622 0
-577 -1623 0
-578 -1624 0
-581 -1625 0
-582 -1626 0
-576 -1649 0
-578 -1650 0
-579 -1651 0
-580 -1652 0
-581 -1654 0
-582 -1655 0
-575 -1663 0
-577 -1664 0
-578 -1665 0
-580 -1666 0
-581 -1668 0
-582 -1669 0
-577 -1679 0
-580 -1680 0
-581 -1682 0
-582 -1683 0
-577 -1715 0
-579 -1716 0
-580 -1717 0
-581 -1718 0
-582 -1719 0
-575 -1720 0
-576 -1721 0
-577 -1722 0
-578 -1723 0
-579 -1724 0
-580 -1725 0
-581 -1727 0
-582 -1728 0
-576 -1730 0
-577 -1731 0
-579 -1732 0
-580 -1733 0
-581 -1734 0
-582 -1735 0
-574 -1736 0
-576 -1737 0
-577 -1738 0
-578 -1739 0
-580 -1740 0
-581 -1742 0
-582 -1743 0
-575 -1795 0
-577 -1797 0
-578 -1798 0
-579 -1799 0
-581 -1800 0
-582 -1801 0
-574 -1802 0
-575 -1803 0
-577 -1804 0
-578 -1805 0
-579 -1806 0
-581 -1808 0
-582 -1809 0
-574 -1817 0
-577 -1819 0
-578 -1820 0
-579 -1821 0
-581 -1822 0
-582 -1823 0
-577 -1870 0
-578 -1871 0
-579 -1872 0
-580 -1873 0
-581 -1875 0
-582 -1876 0
-576 -1884 0
-577 -1885 0
-580 -1886 0
-581 -1888 0
-582 -1889 0
-577 -1898 0
-579 -1899 0
-581 -1901 0
-582 -1902 0
-575 -1903 0
-577 -1904 0
-579 -1905 0
-580 -1906 0
-581 -1908 0
-582 -1909 0
-577 -1917 0
-578 -1918 0
-579 -1919 0
-580 -1920 0
-581 -1922 0
-582 -1923 0
-576 -1925 0
-579 -1926 0
-580 -1927 0
-581 -1929 0
-582 -1930 0
-575 -1944 0
-580 -1946 0
-581 -1948 0
-582 -1949 0
-577 -1951 0
-578 -1952 0
-580 -1953 0
-581 -1955 0
-582 -1956 0
-574 -1957 0
-577 -1959 0
-579 -1960 0
-580 -1961 0
-581 -1963 0
-582 -1964 0
-574 -1984 0
-579 -1985 0
-580 -1986 0
-581 -1988 0
-582 -1989 0
-584 -627 0
-585 -629 0
-586 -630 0
-587 -632 0
-588 -633 0
-584 -635 0
-587 -639 0
-588 -640 0
-583 -641 0
-584 -642 0
-585 -644 0
-587 -646 0
-588 -647 0
-583 -649 0
-585 -652 0
-586 -653 0
-587 -655 0
-588 -656 0
-583 -658 0
-587 -662 0
-588 -663 0
-583 -664 0
-584 -666 0
-585 -667 0
-587 -669 0
-588 -670 0
-586 -696 0
-587 -698 0
-588 -699 0
-583 -709 0
-584 -710 0
-585 -713 0
-586 -714 0
-587 -716 0
-588 -717 0
-583 -719 0
-584 -720 0
-587 -722 0
-588 -723 0
-586 -726 0
-587 -728 0
-588 -729 0
-583 -730 0
-584 -731 0
-585 -732 0
-586 -733 0
-587 -734 0
-588 -735 0
-583 -736 0
-584 -737 0
-587 -741 0
-588 -742 0
-583 -757 0
-585 -760 0
-587 -761 0
-588 -762 0
-583 -764 0
-586 -767 0
-587 -769 0
-588 -770 0
-583 -771 0
-584 -772 0
-585 -775 0
-586 -776 0
-587 -777 0
-588 -778 0
-583 -795 0
-585 -797 0
-587 -798 0
-588 -799 0
-583 -801 0
-586 -803 0
-587 -805 0
-588 -806 0
-585 -843 0
-586 -844 0
-587 -846 0
-588 -847 0
-587 -852 0
-588 -853 0
-583 -855 0
-584 -857 0
-585 -859 0
-587 -861 0
-588 -862 0
-584 -865 0
-585 -867 0
-587 -868 0
-588 -869 0
-584 -896 0
-585 -898 0
-586 -899 0
-587 -901 0
-588 -902 0
-584 -905 0
-587 -907 0
-588 -908 0
-584 -911 0
-585 -912 0
-587 -913 0
-588 -914 0
-584 -916 0
-585 -918 0
-586 -919 0
-587 -921 0
-588 -922 0
-584 -924 0
-587 -928 0
-588 -929 0
-584 -931 0
-585 -934 0
-587 -936 0
-588 -937 0
-585 -954 0
-586 -955 0
-587 -956 0
-588 -957 0
-587 -964 0
-588 -965 0
-583 -967 0
-584 -969 0
-585 -971 0
-587 -972 0
-588 -973 0
-584 -1008 0
-585 -1010 0
-586 -1011 0
-587 -1012 0
-588 -1013 0
-584 -1016 0
-587 -1019 0
-588 -1020 0
-584 -1053 0
-585 -1055 0
-586 -1056 0
-587 -1058 0
-588 -1059 0
-584 -1062 0
-587 -1065 0
-588 -1066 0
-583 -1098 0
-585 -1099 0
-587 -1101 0
-588 -1102 0
-583 -1105 0
-586 -1108 0
-587 -1110 0
-588 -1111 0
-585 -1117 0
-587 -1119 0
-588 -1120 0
-586 -1125 0
-587 -1126 0
-588 -1127 0
-583 -1137 0
-584 -1139 0
-585 -1141 0
-586 -1142 0
-587 -1144 0
-588 -1145 0
-584 -1173 0
-585 -1175 0
-587 -1177 0
-588 -1178 0
-584 -1180 0
-586 -1182 0
-587 -1183 0
-588 -1184 0
-584 -1212 0
-585 -1214 0
-587 -1216 0
-588 -1217 0
-584 -1219 0
-586 -1222 0
-587 -1224 0
-588 -1225 0
-583 -1247 0
-585 -1249 0
-587 -1251 0
-588 -1252 0
-583 -1254 0
-586 -1258 0
-587 -1259 0
-588 -1260 0
-587 -1337 0
-588 -1338 0
-585 -1376 0
-586 -1377 0
-587 -1378 0
-588 -1379 0
-586 -1382 0
-587 -1384 0
-588 -1385 0
-583 -1386 0
-584 -1387 0
-585 -1388 0
-586 -1389 0
-587 -1390 0
-588 -1391 0
-584 -1393 0
-585 -1396 0
-586 -1397 0
-587 -1399 0
-588 -1400 0
-583 -1428 0
-585 -1431 0
-586 -1432 0
-587 -1434 0
-588 -1435 0
-585 -1445 0
-586 -1446 0
-587 -1448 0
-588 -1449 0
-586 -1453 0
-587 -1455 0
-588 -1456 0
-585 -1459 0
-586 -1460 0
-587 -1461 0
-588 -1462 0
-586 -1466 0
-587 -1468 0
-588 -1469 0
-583 -1478 0
-585 -1480 0
-587 -1482 0
-588 -1483 0
-583 -1484 0
-585 -1488 0
-587 -1489 0
-588 -1490 0
-585 -1515 0
-586 -1516 0
-587 -1517 0
-588 -1518 0
-587 -1523 0
-588 -1524 0
-585 -1527 0
-586 -1528 0
-587 -1530 0
-588 -1531 0
-584 -1550 0
-587 -1554 0
-588 -1555 0
-584 -1557 0
-585 -1559 0
-586 -1560 0
-587 -1561 0
-588 -1562 0
-584 -1564 0
-586 -1567 0
-587 -1568 0
-588 -1569 0
-587 -1574 0
-588 -1575 0
-585 -1578 0
-586 -1579 0
-587 -1581 0
-588 -1582 0
-583 -1583 0
-584 -1585 0
-586 -1587 0
-587 -1588 0
-588 -1589 0
-584 -1622 0
-587 -1625 0
-588 -1626 0
-584 -1629 0
-585 -1631 0
-586 -1632 0
-587 -1634 0
-588 -1635 0
-584 -1637 0
-587 -1640 0
-588 -1641 0
-584 -1643 0
-585 -1645 0
-586 -1646 0
-587 -1647 0
-588 -1648 0
-583 -1663 0
-586 -1666 0
-587 -1668 0
-588 -1669 0
-583 -1671 0
-585 -1672 0
-586 -1673 0
-587 -1675 0
-588 -1676 0
-586 -1680 0
-587 -1682 0
-588 -1683 0
-585 -1688 0
-586 -1689 0
-587 -1690 0
-588 -1691 0
-583 -1699 0
-584 -1701 0
-586 -1703 0
-587 -1705 0
-588 -1706 0
-584 -1737 0
-586 -1740 0
-587 -1742 0
-588 -1743 0
-584 -1745 0
-585 -1747 0
-586 -1748 0
-587 -1749 0
-588 -1750 0
-584 -1751 0
-586 -1753 0
-587 -1755 0
-588 -1756 0
-584 -1757 0
-585 -1759 0
-586 -1760 0
-587 -1762 0
-588 -1763 0
-583 -1780 0
-586 -1784 0
-587 -1786 0
-588 -1787 0
-583 -1789 0
-585 -1791 0
-586 -1792 0
-587 -1793 0
-588 -1794 0
-585 -1835 0
-586 -1836 0
-587 -1837 0
-588 -1838 0
-585 -1865 0
-586 -1866 0
-587 -1868 0
-588 -1869 0
-586 -1893 0
-587 -1895 0
-588 -1896 0
-585 -1899 0
-587 -1901 0
-588 -1902 0
-585 -1919 0
-586 -1920 0
-587 -1922 0
-588 -1923 0
-584 -1932 0
-587 -1935 0
-588 -1936 0
-583 -1944 0
-586 -1946 0
-587 -1948 0
-588 -1949 0
-586 -1953 0
-587 -1955 0
-588 -1956 0
-587 -1982 0
-588 -1983 0
-585 -1985 0
-586 -1986 0
-587 -1988 0
-588 -1989 0
-585 -1993 0
-586 -1994 0
-587 -1996 0
-588 -1997 0
-591 -604 0
-592 -606 0
-594 -608 0
-595 -609 0
-590 -612 0
-591 -613 0
-592 -614 0
-594 -615 0
-595 -616 0
-590 -635 0
-591 -636 0
-594 -639 0
-595 -640 0
-590 -642 0
-591 -643 0
-592 -644 0
-594 -646 0
-595 -647 0
-594 -662 0
-595 -663 0
-590 -666 0
-592 -667 0
-594 -669 0
-595 -670 0
-592 -681 0
-593 -682 0
-594 -684 0
-595 -685 0
-590 -687 0
-593 -689 0
-594 -691 0
-595 -692 0
-589 -718 0
-590 -720 0
-594 -722 0
-595 -723 0
-590 -737 0
-591 -738 0
-594 -741 0
-595 -742 0
-591 -765 0
-593 -767 0
-594 -769 0
-595 -770 0
-590 -772 0
-591 -773 0
-592 -775 0
-593 -776 0
-594 -777 0
-595 -778 0
-589 -800 0
-593 -803 0
-594 -805 0
-595 -806 0
-592 -843 0
-593 -844 0
-594 -846 0
-595 -847 0
-590 -865 0
-592 -867 0
-594 -868 0
-595 -869 0
-589 -871 0
-590 -873 0
-592 -874 0
-594 -876 0
-595 -877 0
-590 -890 0
-593 -891 0
-594 -892 0
-595 -893 0
-589 -895 0
-590 -896 0
-592 -898 0
-593 -899 0
-594 -901 0
-595 -902 0
-589 -909 0
-590 -911 0
-592 -912 0
-594 -913 0
-595 -914 0
-590 -916 0
-591 -917 0
-592 -918 0
-593 -919 0
-594 -921 0
-595 -922 0
-590 -931 0
-591 -932 0
-592 -934 0
-594 -936 0
-595 -937 0
-590 -938 0
-591 -939 0
-593 -940 0
-594 -942 0
-595 -943 0
-591 -947 0
-593 -948 0
-594 -949 0
-595 -950 0
-589 -959 0
-591 -961 0
-594 -964 0
-595 -965 0
-589 -966 0
-590 -969 0
-591 -970 0
-592 -971 0
-594 -972 0
-595 -973 0
-589 -982 0
-591 -984 0
-592 -985 0
-593 -986 0
-594 -988 0
-595 -989 0
-589 -990 0
-590 -993 0
-591 -994 0
-593 -996 0
-594 -997 0
-595 -998 0
-589 -1014 0
-590 -1016 0
-591 -1017 0
-594 -1019 0
-595 -1020 0
-591 -1030 0
-592 -1032 0
-593 -1033 0
-594 -1034 0
-595 -1035 0
-590 -1038 0
-591 -1039 0
-593 -1040 0
-594 -1042 0
-595 -1043 0
-589 -1060 0
-590 -1062 0
-591 -1063 0
-594 -1065 0
-595 -1066 0
-589 -1082 0
-590 -1083 0
-591 -1084 0
-592 -1085 0
-593 -1086 0
-594 -1087 0
-595 -1088 0
-594 -1094 0
-595 -1095 0
-589 -1097 0
-592 -1099 0
-594 -1101 0
-595 -1102 0
-589 -1122 0
-593 -1125 0
-594 -1126 0
-595 -1127 0
-589 -1129 0
-592 -1131 0
-593 -1132 0
-594 -1134 0
-595 -1135 0
-589 -1136 0
-590 -1139 0
-592 -1141 0
-593 -1142 0
-594 -1144 0
-595 -1145 0
-589 -1154 0
-592 -1156 0
-594 -1157 0
-595 -1158 0
-589 -1159 0
-590 -1161 0
-594 -1163 0
-595 -1164 0
-589 -1179 0
-590 -1180 0
-593 -1182 0
-594 -1183 0
-595 -1184 0
-591 -1192 0
-592 -1194 0
-594 -1196 0
-595 -1197 0
-590 -1199 0
-591 -1200 0
-594 -1203 0
-595 -1204 0
-589 -1218 0
-590 -1219 0
-591 -1220 0
-593 -1222 0
-594 -1224 0
-595 -1225 0
-589 -1233 0
-591 -1236 0
-594 -1238 0
-595 -1239 0
-589 -1253 0
-591 -1256 0
-593 -1258 0
-594 -1259 0
-595 -1260 0
-589 -1275 0
-591 -1277 0
-592 -1278 0
-594 -1279 0
-595 -1280 0
-589 -1311 0
-591 -1313 0
-592 -1315 0
-594 -1317 0
-595 -1318 0
-591 -1354 0
-592 -1356 0
-593 -1357 0
-594 -1358 0
-595 -1359 0
-591 -1375 0
-592 -1376 0
-593 -1377 0
-594 -1378 0
-595 -1379 0
-590 -1393 0
-591 -1394 0
-592 -1396 0
-593 -1397 0
-594 -1399 0
-595 -1400 0
-589 -1401 0
-590 -1402 0
-591 -1403 0
-592 -1404 0
-593 -1405 0
-594 -1406 0
-595 -1407 0
-590 -1415 0
-592 -1417 0
-593 -1418 0
-594 -1420 0
-595 -1421 0
-592 -1431 0
-593 -1432 0
-594 -1434 0
-595 -1435 0
-593 -1438 0
-594 -1440 0
-595 -1441 0
-589 -1450 0
-593 -1453 0
-594 -1455 0
-595 -1456 0
-591 -1464 0
-593 -1466 0
-594 -1468 0
-595 -1469 0
-591 -1471 0
-592 -1473 0
-593 -1474 0
-594 -1476 0
-595 -1477 0
-591 -1486 0
-592 -1488 0
-594 -1489 0
-595 -1490 0
-589 -1491 0
-591 -1493 0
-592 -1495 0
-594 -1497 0
-595 -1498 0
-591 -1507 0
-593 -1509 0
-594 -1510 0
-595 -1511 0
-589 -1519 0
-591 -1520 0
-594 -1523 0
-595 -1524 0
-590 -1535 0
-591 -1536 0
-592 -1538 0
-593 -1539 0
-594 -1541 0
-595 -1542 0
-590 -1550 0
-591 -1551 0
-594 -1554 0
-595 -1555 0
-590 -1564 0
-591 -1565 0
-593 -1567 0
-594 -1568 0
-595 -1569 0
-592 -1578 0
-593 -1579 0
-594 -1581 0
-595 -1582 0
-590 -1585 0
-593 -1587 0
-594 -1588 0
-595 -1589 0
-592 -1601 0
-594 -1603 0
-595 -1604 0
-590 -1607 0
-592 -1609 0
-594 -1610 0
-595 -1611 0
-589 -1627 0
-590 -1629 0
-592 -1631 0
-593 -1632 0
-594 -1634 0
-595 -1635 0
-590 -1643 0
-591 -1644 0
-592 -1645 0
-593 -1646 0
-594 -1647 0
-595 -1648 0
-590 -1656 0
-591 -1657 0
-592 -1659 0
-594 -1660 0
-595 -1661 0
-591 -1664 0
-593 -1666 0
-594 -1668 0
-595 -1669 0
-591 -1686 0
-592 -1688 0
-593 -1689 0
-594 -1690 0
-595 -1691 0
-589 -1693 0
-591 -1694 0
-593 -1695 0
-594 -1697 0
-595 -1698 0
-590 -1701 0
-591 -1702 0
-593 -1703 0
-594 -1705 0
-595 -1706 0
-591 -1715 0
-592 -1716 0
-593 -1717 0
-594 -1718 0
-595 -1719 0
-590 -1721 0
-591 -1722 0
-592 -1724 0
-593 -1725 0
-594 -1727 0
-595 -1728 0
-589 -1744 0
-590 -1745 0
-591 -1746 0
-592 -1747 0
-593 -1748 0
-594 -1749 0
-595 -1750 0
-590 -1757 0
-592 -1759 0
-593 -1760 0
-594 -1762 0
-595 -1763 0
-592 -1767 0
-593 -1768 0
-594 -1770 0
-595 -1771 0
-589 -1788 0
-592 -1791 0
-593 -1792 0
-594 -1793 0
-595 -1794 0
-589 -1810 0
-592 -1813 0
-593 -1814 0
-594 -1815 0
-595 -1816 0
-591 -1846 0
-592 -1847 0
-593 -1848 0
-594 -1850 0
-595 -1851 0
-590 -1878 0
-591 -1879 0
-592 -1881 0
-594 -1882 0
-595 -1883 0
-591 -1898 0
-592 -1899 0
-594 -1901 0
-595 -1902 0
-591 -1904 0
-592 -1905 0
-593 -1906 0
-594 -1908 0
-595 -1909 0
-591 -1917 0
-592 -1919 0
-593 -1920 0
-594 -1922 0
-595 -1923 0
-592 -1940 0
-593 -1941 0
-594 -1942 0
-595 -1943 0
-591 -1951 0
-593 -1953 0
-594 -1955 0
-595 -1956 0
-589 -1957 0
-591 -1959 0
-592 -1960 0
-593 -1961 0
-594 -1963 0
-595 -1964 0
-591 -1973 0
-592 -1974 0
-594 -1976 0
-595 -1977 0
-589 -1978 0
-591 -1979 0
-594 -1982 0
-595 -1983 0
-598 -605 0
-599 -606 0
-600 -607 0
-601 -608 0
-602 -609 0
-597 -619 0
-598 -620 0
-599 -621 0
-600 -623 0
-601 -624 0
-602 -625 0
-597 -627 0
-599 -629 0
-600 -631 0
-601 -632 0
-602 -633 0
-597 -642 0
-599 -644 0
-600 -645 0
-601 -646 0
-602 -647 0
-599 -652 0
-600 -654 0
-601 -655 0
-602 -656 0
-597 -666 0
-599 -667 0
-600 -668 0
-601 -669 0
-602 -670 0
-598 -674 0
-600 -676 0
-601 -677 0
-602 -678 0
-597 -687 0
-598 -688 0
-600 -690 0
-601 -691 0
-602 -692 0
-596 -708 0
-597 -710 0
-598 -712 0
-599 -713 0
-600 -715 0
-601 -716 0
-602 -717 0
-597 -731 0
-599 -732 0
-601 -734 0
-602 -735 0
-598 -759 0
-599 -760 0
-601 -761 0
-602 -762 0
-597 -772 0
-598 -774 0
-599 -775 0
-601 -777 0
-602 -778 0
-596 -794 0
-599 -797 0
-601 -798 0
-602 -799 0
-598 -851 0
-601 -852 0
-602 -853 0
-597 -865 0
-598 -866 0
-599 -867 0
-601 -868 0
-602 -869 0
-596 -879 0
-597 -881 0
-598 -883 0
-599 -884 0
-601 -886 0
-602 -887 0
-597 -890 0
-601 -892 0
-602 -893 0
-596 -904 0
-597 -905 0
-601 -907 0
-602 -908 0
-596 -909 0
-597 -911 0
-599 -912 0
-601 -913 0
-602 -914 0
-597 -924 0
-598 -926 0
-600 -927 0
-601 -928 0
-602 -929 0
-597 -931 0
-598 -933 0
-599 -934 0
-600 -935 0
-601 -936 0
-602 -937 0
-597 -938 0
-600 -941 0
-601 -942 0
-602 -943 0
-601 -949 0
-602 -950 0
-596 -952 0
-599 -954 0
-601 -956 0
-602 -957 0
-596 -966 0
-597 -969 0
-599 -971 0
-601 -972 0
-602 -973 0
-596 -975 0
-598 -977 0
-601 -979 0
-602 -980 0
-596 -990 0
-597 -993 0
-598 -995 0
-601 -997 0
-602 -998 0
-596 -1006 0
-597 -1008 0
-598 -1009 0
-599 -1010 0
-601 -1012 0
-602 -1013 0
-600 -1025 0
-601 -1026 0
-602 -1027 0
-597 -1038 0
-600 -1041 0
-601 -1042 0
-602 -1043 0
-596 -1051 0
-597 -1053 0
-599 -1055 0
-600 -1057 0
-601 -1058 0
-602 -1059 0
-596 -1074 0
-597 -1075 0
-598 -1077 0
-600 -1079 0
-601 -1080 0
-602 -1081 0
-598 -1092 0
-600 -1093 0
-601 -1094 0
-602 -1095 0
-596 -1104 0
-598 -1107 0
-600 -1109 0
-601 -1110 0
-602 -1111 0
-596 -1113 0
-598 -1116 0
-599 -1117 0
-600 -1118 0
-601 -1119 0
-602 -1120 0
-596 -1129 0
-598 -1130 0
-599 -1131 0
-600 -1133 0
-601 -1134 0
-602 -1135 0
-596 -1136 0
-597 -1139 0
-598 -1140 0
-599 -1141 0
-600 -1143 0
-601 -1144 0
-602 -1145 0
-596 -1147 0
-600 -1150 0
-601 -1151 0
-602 -1152 0
-596 -1159 0
-597 -1161 0
-600 -1162 0
-601 -1163 0
-602 -1164 0
-596 -1172 0
-597 -1173 0
-599 -1175 0
-600 -1176 0
-601 -1177 0
-602 -1178 0
-598 -1186 0
-600 -1188 0
-601 -1189 0
-602 -1190 0
-597 -1199 0
-598 -1201 0
-600 -1202 0
-601 -1203 0
-602 -1204 0
-596 -1211 0
-597 -1212 0
-598 -1213 0
-599 -1214 0
-600 -1215 0
-601 -1216 0
-602 -1217 0
-596 -1233 0
-600 -1237 0
-601 -1238 0
-602 -1239 0
-596 -1246 0
-599 -1249 0
-600 -1250 0
-601 -1251 0
-602 -1252 0
-596 -1268 0
-598 -1270 0
-600 -1272 0
-601 -1273 0
-602 -1274 0
-596 -1304 0
-600 -1308 0
-601 -1309 0
-602 -1310 0
-598 -1362 0
-599 -1363 0
-600 -1364 0
-601 -1365 0
-602 -1366 0
-598 -1381 0
-600 -1383 0
-601 -1384 0
-602 -1385 0
-597 -1393 0
-598 -1395 0
-599 -1396 0
-600 -1398 0
-601 -1399 0
-602 -1400 0
-596 -1408 0
-597 -1409 0
-598 -1410 0
-599 -1411 0
-600 -1412 0
-601 -1413 0
-602 -1414 0
-597 -1422 0
-598 -1424 0
-599 -1425 0
-601 -1426 0
-602 -1427 0
-598 -1430 0
-599 -1431 0
-600 -1433 0
-601 -1434 0
-602 -1435 0
-600 -1439 0
-601 -1440 0
-602 -1441 0
-596 -1442 0
-599 -1445 0
-600 -1447 0
-601 -1448 0
-602 -1449 0
-598 -1458 0
-599 -1459 0
-601 -1461 0
-602 -1462 0
-598 -1487 0
-599 -1488 0
-601 -1489 0
-602 -1490 0
-596 -1499 0
-598 -1501 0
-599 -1502 0
-601 -1504 0
-602 -1505 0
-598 -1508 0
-601 -1510 0
-602 -1511 0
-596 -1512 0
-598 -1514 0
-599 -1515 0
-601 -1517 0
-602 -1518 0
-598 -1526 0
-599 -1527 0
-600 -1529 0
-601 -1530 0
-602 -1531 0
-597 -1545 0
-601 -1547 0
-602 -1548 0
-597 -1557 0
-598 -1558 0
-599 -1559 0
-601 -1561 0
-602 -1562 0
-597 -1564 0
-598 -1566 0
-601 -1568 0
-602 -1569 0
-598 -1573 0
-601 -1574 0
-602 -1575 0
-597 -1585 0
-598 -1586 0
-601 -1588 0
-602 -1589 0
-598 -1593 0
-599 -1594 0
-601 -1596 0
-602 -1597 0
-597 -1607 0
-598 -1608 0
-599 -1609 0
-601 -1610 0
-602 -1611 0
-596 -1620 0
-597 -1622 0
-598 -1624 0
-601 -1625 0
-602 -1626 0
-597 -1637 0
-598 -1638 0
-600 -1639 0
-601 -1640 0
-602 -1641 0
-597 -1649 0
-598 -1650 0
-599 -1651 0
-600 -1653 0
-601 -1654 0
-602 -1655 0
-599 -1672 0
-600 -1674 0
-601 -1675 0
-602 -1676 0
-600 -1681 0
-601 -1682 0
-602 -1683 0
-596 -1693 0
-600 -1696 0
-601 -1697 0
-602 -1698 0
-597 -1701 0
-600 -1704 0
-601 -1705 0
-602 -1706 0
-598 -1709 0
-599 -1710 0
-600 -1711 0
-601 -1712 0
-602 -1713 0
-597 -1721 0
-598 -1723 0
-599 -1724 0
-600 -1726 0
-601 -1727 0
-602 -1728 0
-596 -1736 0
-597 -1737 0
-598 -1739 0
-600 -1741 0
-601 -1742 0
-602 -1743 0
-597 -1751 0
-600 -1754 0
-601 -1755 0
-602 -1756 0
-598 -1766 0
-599 -1767 0
-600 -1769 0
-601 -1770 0
-602 -1771 0
-596 -1779 0
-598 -1783 0
-600 -1785 0
-601 -1786 0
-602 -1787 0
-596 -1802 0
-598 -1805 0
-599 -1806 0
-600 -1807 0
-601 -1808 0
-602 -1809 0
-598 -1840 0
-599 -1841 0
-600 -1842 0
-601 -1843 0
-602 -1844 0
-597 -1884 0
-600 -1887 0
-601 -1888 0
-602 -1889 0
-598 -1892 0
-600 -1894 0
-601 -1895 0
-602 -1896 0
-598 -1912 0
-601 -1914 0
-602 -1915 0
-598 -1939 0
-599 -1940 0
-601 -1942 0
-602 -1943 0
-598 -1952 0
-600 -1954 0
-601 -1955 0
-602 -1956 0
-596 -1965 0
-598 -1967 0
-600 -1969 0
-601 -1970 0
-602 -1971 0
-599 -1974 0
-600 -1975 0
-601 -1976 0
-602 -1977 0
-596 -1984 0
-599 -1985 0
-600 -1987 0
-601 -1988 0
-602 -1989 0
-598 -1992 0
-599 -1993 0
-600 -1995 0
-601 -1996 0
-602 -1997 0
-605 -688 0
-607 -690 0
-608 -691 0
-609 -692 0
-604 -808 0
-606 -809 0
-607 -811 0
-608 -812 0
-609 -813 0
-603 -854 0
-604 -858 0
-606 -859 0
-607 -860 0
-608 -861 0
-609 -862 0
-603 -888 0
-608 -892 0
-609 -893 0
-603 -894 0
-605 -897 0
-606 -898 0
-607 -900 0
-608 -901 0
-609 -902 0
-603 -903 0
-604 -906 0
-608 -907 0
-609 -908 0
-606 -912 0
-608 -913 0
-609 -914 0
-603 -915 0
-604 -917 0
-606 -918 0
-607 -920 0
-608 -921 0
-609 -922 0
-603 -923 0
-604 -925 0
-605 -926 0
-607 -927 0
-608 -928 0
-609 -929 0
-604 -932 0
-605 -933 0
-606 -934 0
-607 -935 0
-608 -936 0
-609 -937 0
-603 -944 0
-604 -947 0
-608 -949 0
-609 -950 0
-604 -970 0
-606 -971 0
-608 -972 0
-609 -973 0
-603 -974 0
-605 -977 0
-608 -979 0
-609 -980 0
-603 -981 0
-604 -984 0
-606 -985 0
-607 -987 0
-608 -988 0
-609 -989 0
-607 -1003 0
-608 -1004 0
-609 -1005 0
-605 -1009 0
-606 -1010 0
-608 -1012 0
-609 -1013 0
-604 -1017 0
-607 -1018 0
-608 -1019 0
-609 -1020 0
-603 -1021 0
-604 -1023 0
-607 -1025 0
-608 -1026 0
-609 -1027 0
-603 -1028 0
-604 -1030 0
-605 -1031 0
-606 -1032 0
-608 -1034 0
-609 -1035 0
-604 -1046 0
-605 -1047 0
-608 -1049 0
-609 -1050 0
-604 -1054 0
-606 -1055 0
-607 -1057 0
-608 -1058 0
-609 -1059 0
-604 -1063 0
-605 -1064 0
-608 -1065 0
-609 -1066 0
-603 -1089 0
-605 -1092 0
-607 -1093 0
-608 -1094 0
-609 -1095 0
-603 -1096 0
-606 -1099 0
-607 -1100 0
-608 -1101 0
-609 -1102 0
-603 -1103 0
-604 -1106 0
-605 -1107 0
-607 -1109 0
-608 -1110 0
-609 -1111 0
-605 -1140 0
-606 -1141 0
-607 -1143 0
-608 -1144 0
-609 -1145 0
-603 -1146 0
-604 -1148 0
-607 -1150 0
-608 -1151 0
-609 -1152 0
-603 -1153 0
-605 -1155 0
-606 -1156 0
-608 -1157 0
-609 -1158 0
-604 -1168 0
-605 -1169 0
-608 -1170 0
-609 -1171 0
-604 -1174 0
-606 -1175 0
-607 -1176 0
-608 -1177 0
-609 -1178 0
-605 -1181 0
-608 -1183 0
-609 -1184 0
-603 -1185 0
-605 -1186 0
-607 -1188 0
-608 -1189 0
-609 -1190 0
-603 -1191 0
-604 -1192 0
-605 -1193 0
-606 -1194 0
-607 -1195 0
-608 -1196 0
-609 -1197 0
-605 -1207 0
-607 -1208 0
-608 -1209 0
-609 -1210 0
-605 -1213 0
-606 -1214 0
-607 -1215 0
-608 -1216 0
-609 -1217 0
-604 -1220 0
-605 -1221 0
-607 -1223 0
-608 -1224 0
-609 -1225 0
-605 -1243 0
-608 -1244 0
-609 -1245 0
-606 -1249 0
-607 -1250 0
-608 -1251 0
-609 -1252 0
-604 -1256 0
-605 -1257 0
-608 -1259 0
-609 -1260 0
-604 -1283 0
-608 -1285 0
-609 -1286 0
-605 -1289 0
-606 -1290 0
-607 -1291 0
-608 -1292 0
-609 -1293 0
-605 -1321 0
-607 -1323 0
-608 -1324 0
-609 -1325 0
-604 -1328 0
-605 -1329 0
-606 -1330 0
-608 -1331 0
-609 -1332 0
-604 -1334 0
-605 -1335 0
-607 -1336 0
-608 -1337 0
-609 -1338 0
-606 -1388 0
-608 -1390 0
-609 -1391 0
-607 -1439 0
-608 -1440 0
-609 -1441 0
-604 -1471 0
-605 -1472 0
-606 -1473 0
-607 -1475 0
-608 -1476 0
-609 -1477 0
-605 -1479 0
-606 -1480 0
-607 -1481 0
-608 -1482 0
-609 -1483 0
-604 -1507 0
-605 -1508 0
-608 -1510 0
-609 -1511 0
-603 -1549 0
-604 -1551 0
-605 -1552 0
-607 -1553 0
-608 -1554 0
-609 -1555 0
-603 -1556 0
-605 -1558 0
-606 -1559 0
-608 -1561 0
-609 -1562 0
-604 -1565 0
-605 -1566 0
-608 -1568 0
-609 -1569 0
-605 -1586 0
-608 -1588 0
-609 -1589 0
-603 -1590 0
-604 -1592 0
-605 -1593 0
-606 -1594 0
-608 -1596 0
-609 -1597 0
-603 -1598 0
-605 -1600 0
-606 -1601 0
-607 -1602 0
-608 -1603 0
-609 -1604 0
-604 -1614 0
-605 -1615 0
-606 -1616 0
-607 -1617 0
-608 -1618 0
-609 -1619 0
-604 -1623 0
-605 -1624 0
-608 -1625 0
-609 -1626 0
-605 -1630 0
-606 -1631 0
-607 -1633 0
-608 -1634 0
-609 -1635 0
-605 -1638 0
-607 -1639 0
-608 -1640 0
-609 -1641 0
-604 -1644 0
-606 -1645 0
-608 -1647 0
-609 -1648 0
-603 -1662 0
-604 -1664 0
-605 -1665 0
-607 -1667 0
-608 -1668 0
-609 -1669 0
-603 -1670 0
-606 -1672 0
-607 -1674 0
-608 -1675 0
-609 -1676 0
-604 -1702 0
-607 -1704 0
-608 -1705 0
-609 -1706 0
-603 -1707 0
-604 -1708 0
-605 -1709 0
-606 -1710 0
-607 -1711 0
-608 -1712 0
-609 -1713 0
-603 -1714 0
-604 -1715 0
-606 -1716 0
-608 -1718 0
-609 -1719 0
-604 -1731 0
-606 -1732 0
-608 -1734 0
-609 -1735 0
-604 -1738 0
-605 -1739 0
-607 -1741 0
-608 -1742 0
-609 -1743 0
-604 -1746 0
-606 -1747 0
-608 -1749 0
-609 -1750 0
-604 -1752 0
-607 -1754 0
-608 -1755 0
-609 -1756 0
-605 -1758 0
-606 -1759 0
-607 -1761 0
-608 -1762 0
-609 -1763 0
-604 -1774 0
-606 -1775 0
-608 -1777 0
-609 -1778 0
-604 -1782 0
-605 -1783 0
-607 -1785 0
-608 -1786 0
-609 -1787 0
-606 -1791 0
-608 -1793 0
-609 -1794 0
-604 -1819 0
-605 -1820 0
-606 -1821 0
-608 -1822 0
-609 -1823 0
-604 -1826 0
-606 -1827 0
-607 -1829 0
-608 -1830 0
-609 -1831 0
-604 -1833 0
-605 -1834 0
-606 -1835 0
-608 -1837 0
-609 -1838 0
-604 -1853 0
-606 -1854 0
-607 -1855 0
-608 -1856 0
-609 -1857 0
-605 -1859 0
-606 -1860 0
-608 -1862 0
-609 -1863 0
-606 -1865 0
-607 -1867 0
-608 -1868 0
-609 -1869 0
-606 -1926 0
-607 -1928 0
-608 -1929 0
-609 -1930 0
-604 -1951 0
-605 -1952 0
-607 -1954 0
-608 -1955 0
-609 -1956 0
-604 -1959 0
-606 -1960 0
-607 -1962 0
-608 -1963 0
-609 -1964 0
-605 -1967 0
-607 -1969 0
-608 -1970 0
-609 -1971 0
-610 -679 0
-611 -680 0
-614 -681 0
-615 -684 0
-616 -685 0
-612 -749 0
-614 -751 0
-615 -754 0
-616 -755 0
-611 -807 0
-613 -808 0
-614 -809 0
-615 -812 0
-616 -813 0
-611 -822 0
-613 -823 0
-614 -825 0
-615 -827 0
-616 -828 0
-611 -835 0
-614 -837 0
-615 -839 0
-616 -840 0
-610 -848 0
-613 -850 0
-615 -852 0
-616 -853 0
-610 -888 0
-612 -890 0
-615 -892 0
-616 -893 0
-610 -903 0
-612 -905 0
-613 -906 0
-615 -907 0
-616 -908 0
-610 -923 0
-612 -924 0
-613 -925 0
-615 -928 0
-616 -929 0
-612 -938 0
-613 -939 0
-615 -942 0
-616 -943 0
-610 -944 0
-611 -945 0
-613 -947 0
-615 -949 0
-616 -950 0
-610 -958 0
-613 -961 0
-615 -964 0
-616 -965 0
-610 -974 0
-615 -979 0
-616 -980 0
-611 -991 0
-612 -993 0
-613 -994 0
-615 -997 0
-616 -998 0
-612 -1001 0
-615 -1004 0
-616 -1005 0
-612 -1016 0
-613 -1017 0
-615 -1019 0
-616 -1020 0
-610 -1021 0
-613 -1023 0
-615 -1026 0
-616 -1027 0
-611 -1036 0
-612 -1038 0
-613 -1039 0
-615 -1042 0
-616 -1043 0
-612 -1045 0
-613 -1046 0
-615 -1049 0
-616 -1050 0
-612 -1062 0
-613 -1063 0
-615 -1065 0
-616 -1066 0
-612 -1075 0
-613 -1076 0
-615 -1080 0
-616 -1081 0
-610 -1089 0
-611 -1090 0
-615 -1094 0
-616 -1095 0
-610 -1103 0
-611 -1105 0
-613 -1106 0
-615 -1110 0
-616 -1111 0
-610 -1121 0
-615 -1126 0
-616 -1127 0
-610 -1146 0
-613 -1148 0
-615 -1151 0
-616 -1152 0
-611 -1160 0
-612 -1161 0
-615 -1163 0
-616 -1164 0
-612 -1167 0
-613 -1168 0
-615 -1170 0
-616 -1171 0
-612 -1180 0
-615 -1183 0
-616 -1184 0
-610 -1185 0
-615 -1189 0
-616 -1190 0
-611 -1198 0
-612 -1199 0
-613 -1200 0
-615 -1203 0
-616 -1204 0
-612 -1206 0
-615 -1209 0
-616 -1210 0
-612 -1219 0
-613 -1220 0
-615 -1224 0
-616 -1225 0
-611 -1234 0
-613 -1236 0
-615 -1238 0
-616 -1239 0
-611 -1241 0
-615 -1244 0
-616 -1245 0
-611 -1254 0
-613 -1256 0
-615 -1259 0
-616 -1260 0
-611 -1269 0
-615 -1273 0
-616 -1274 0
-613 -1283 0
-615 -1285 0
-616 -1286 0
-611 -1305 0
-613 -1306 0
-615 -1309 0
-616 -1310 0
-615 -1324 0
-616 -1325 0
-613 -1334 0
-615 -1337 0
-616 -1338 0
-610 -1380 0
-615 -1384 0
-616 -1385 0
-611 -1436 0
-615 -1440 0
-616 -1441 0
-615 -1455 0
-616 -1456 0
-613 -1464 0
-615 -1468 0
-616 -1469 0
-611 -1506 0
-613 -1507 0
-615 -1510 0
-616 -1511 0
-613 -1520 0
-615 -1523 0
-616 -1524 0
-610 -1556 0
-612 -1557 0
-614 -1559 0
-615 -1561 0
-616 -1562 0
-610 -1576 0
-614 -1578 0
-615 -1581 0
-616 -1582 0
-610 -1590 0
-613 -1592 0
-614 -1594 0
-615 -1596 0
-616 -1597 0
-611 -1605 0
-612 -1607 0
-614 -1609 0
-615 -1610 0
-616 -1611 0
-612 -1613 0
-613 -1614 0
-614 -1616 0
-615 -1618 0
-616 -1619 0
-612 -1629 0
-614 -1631 0
-615 -1634 0
-616 -1635 0
-612 -1643 0
-613 -1644 0
-614 -1645 0
-615 -1647 0
-616 -1648 0
-612 -1649 0
-614 -1651 0
-615 -1654 0
-616 -1655 0
-610 -1670 0
-611 -1671 0
-614 -1672 0
-615 -1675 0
-616 -1676 0
-610 -1684 0
-613 -1686 0
-614 -1688 0
-615 -1690 0
-616 -1691 0
-610 -1707 0
-613 -1708 0
-614 -1710 0
-615 -1712 0
-616 -1713 0
-611 -1720 0
-612 -1721 0
-613 -1722 0
-614 -1724 0
-615 -1727 0
-616 -1728 0
-612 -1730 0
-613 -1731 0
-614 -1732 0
-615 -1734 0
-616 -1735 0
-612 -1745 0
-613 -1746 0
-614 -1747 0
-615 -1749 0
-616 -1750 0
-612 -1757 0
-614 -1759 0
-615 -1762 0
-616 -1763 0
-611 -1764 0
-614 -1767 0
-615 -1770 0
-616 -1771 0
-611 -1772 0
-613 -1774 0
-614 -1775 0
-615 -1777 0
-616 -1778 0
-611 -1789 0
-614 -1791 0
-615 -1793 0
-616 -1794 0
-611 -1803 0
-613 -1804 0
-614 -1806 0
-615 -1808 0
-616 -1809 0
-613 -1819 0
-614 -1821 0
-615 -1822 0
-616 -1823 0
-613 -1833 0
-614 -1835 0
-615 -1837 0
-616 -1838 0
-611 -1839 0
-614 -1841 0
-615 -1843 0
-616 -1844 0
-613 -1853 0
-614 -1854 0
-615 -1856 0
-616 -1857 0
-614 -1865 0
-615 -1868 0
-616 -1869 0
-613 -1898 0
-614 -1899 0
-615 -1901 0
-616 -1902 0
-613 -1917 0
-614 -1919 0
-615 -1922 0
-616 -1923 0
-612 -1932 0
-615 -1935 0
-616 -1936 0
-611 -1944 0
-615 -1948 0
-616 -1949 0
-613 -1951 0
-615 -1955 0
-616 -1956 0
-615 -1970 0
-616 -1971 0
-613 -1979 0
-615 -1982 0
-616 -1983 0
-617 -671 0
-618 -672 0
-620 -674 0
-622 -675 0
-623 -676 0
-624 -677 0
-625 -678 0
-619 -743 0
-622 -745 0
-623 -746 0
-624 -747 0
-625 -748 0
-618 -807 0
-621 -809 0
-622 -810 0
-623 -811 0
-624 -812 0
-625 -813 0
-618 -815 0
-622 -817 0
-623 -818 0
-624 -819 0
-625 -820 0
-618 -829 0
-620 -831 0
-622 -832 0
-624 -833 0
-625 -834 0
-617 -841 0
-621 -843 0
-622 -844 0
-623 -845 0
-624 -846 0
-625 -847 0
-617 -888 0
-619 -890 0
-622 -891 0
-624 -892 0
-625 -893 0
-617 -894 0
-619 -896 0
-620 -897 0
-621 -898 0
-622 -899 0
-623 -900 0
-624 -901 0
-625 -902 0
-617 -915 0
-619 -916 0
-621 -918 0
-622 -919 0
-623 -920 0
-624 -921 0
-625 -922 0
-619 -938 0
-622 -940 0
-623 -941 0
-624 -942 0
-625 -943 0
-617 -944 0
-618 -945 0
-622 -948 0
-624 -949 0
-625 -950 0
-617 -951 0
-621 -954 0
-622 -955 0
-624 -956 0
-625 -957 0
-617 -981 0
-621 -985 0
-622 -986 0
-623 -987 0
-624 -988 0
-625 -989 0
-618 -991 0
-619 -993 0
-620 -995 0
-622 -996 0
-624 -997 0
-625 -998 0
-619 -1001 0
-622 -1002 0
-623 -1003 0
-624 -1004 0
-625 -1005 0
-619 -1008 0
-620 -1009 0
-621 -1010 0
-622 -1011 0
-624 -1012 0
-625 -1013 0
-617 -1028 0
-620 -1031 0
-621 -1032 0
-622 -1033 0
-624 -1034 0
-625 -1035 0
-618 -1036 0
-619 -1038 0
-622 -1040 0
-623 -1041 0
-624 -1042 0
-625 -1043 0
-619 -1045 0
-620 -1047 0
-622 -1048 0
-624 -1049 0
-625 -1050 0
-619 -1053 0
-621 -1055 0
-622 -1056 0
-623 -1057 0
-624 -1058 0
-625 -1059 0
-619 -1083 0
-621 -1085 0
-622 -1086 0
-624 -1087 0
-625 -1088 0
-617 -1089 0
-618 -1090 0
-620 -1092 0
-623 -1093 0
-624 -1094 0
-625 -1095 0
-617 -1096 0
-618 -1098 0
-621 -1099 0
-623 -1100 0
-624 -1101 0
-625 -1102 0
-617 -1112 0
-620 -1116 0
-621 -1117 0
-623 -1118 0
-624 -1119 0
-625 -1120 0
-617 -1153 0
-620 -1155 0
-621 -1156 0
-624 -1157 0
-625 -1158 0
-618 -1160 0
-619 -1161 0
-623 -1162 0
-624 -1163 0
-625 -1164 0
-619 -1167 0
-620 -1169 0
-624 -1170 0
-625 -1171 0
-619 -1173 0
-621 -1175 0
-623 -1176 0
-624 -1177 0
-625 -1178 0
-617 -1191 0
-620 -1193 0
-621 -1194 0
-623 -1195 0
-624 -1196 0
-625 -1197 0
-618 -1198 0
-619 -1199 0
-620 -1201 0
-623 -1202 0
-624 -1203 0
-625 -1204 0
-619 -1206 0
-620 -1207 0
-623 -1208 0
-624 -1209 0
-625 -1210 0
-619 -1212 0
-620 -1213 0
-621 -1214 0
-623 -1215 0
-624 -1216 0
-625 -1217 0
-618 -1234 0
-623 -1237 0
-624 -1238 0
-625 -1239 0
-618 -1241 0
-620 -1243 0
-624 -1244 0
-625 -1245 0
-618 -1247 0
-621 -1249 0
-623 -1250 0
-624 -1251 0
-625 -1252 0
-618 -1276 0
-621 -1278 0
-624 -1279 0
-625 -1280 0
-620 -1289 0
-621 -1290 0
-623 -1291 0
-624 -1292 0
-625 -1293 0
-618 -1312 0
-620 -1314 0
-621 -1315 0
-623 -1316 0
-624 -1317 0
-625 -1318 0
-620 -1329 0
-621 -1330 0
-624 -1331 0
-625 -1332 0
-620 -1335 0
-623 -1336 0
-624 -1337 0
-625 -1338 0
-617 -1374 0
-621 -1376 0
-622 -1377 0
-624 -1378 0
-625 -1379 0
-618 -1436 0
-622 -1438 0
-623 -1439 0
-624 -1440 0
-625 -1441 0
-621 -1445 0
-622 -1446 0
-623 -1447 0
-624 -1448 0
-625 -1449 0
-620 -1458 0
-621 -1459 0
-622 -1460 0
-624 -1461 0
-625 -1462 0
-620 -1472 0
-621 -1473 0
-622 -1474 0
-623 -1475 0
-624 -1476 0
-625 -1477 0
-618 -1506 0
-620 -1508 0
-622 -1509 0
-624 -1510 0
-625 -1511 0
-620 -1514 0
-621 -1515 0
-622 -1516 0
-624 -1517 0
-625 -1518 0
-620 -1526 0
-621 -1527 0
-622 -1528 0
-623 -1529 0
-624 -1530 0
-625 -1531 0
-617 -1549 0
-619 -1550 0
-620 -1552 0
-623 -1553 0
-624 -1554 0
-625 -1555 0
-617 -1570 0
-620 -1573 0
-624 -1574 0
-625 -1575 0
-617 -1598 0
-620 -1600 0
-621 -1601 0
-623 -1602 0
-624 -1603 0
-625 -1604 0
-618 -1605 0
-619 -1607 0
-620 -1608 0
-621 -1609 0
-624 -1610 0
-625 -1611 0
-619 -1613 0
-620 -1615 0
-621 -1616 0
-623 -1617 0
-624 -1618 0
-625 -1619 0
-619 -1622 0
-620 -1624 0
-624 -1625 0
-625 -1626 0
-619 -1637 0
-620 -1638 0
-623 -1639 0
-624 -1640 0
-625 -1641 0
-619 -1656 0
-620 -1658 0
-621 -1659 0
-624 -1660 0
-625 -1661 0
-617 -1662 0
-618 -1663 0
-620 -1665 0
-622 -1666 0
-623 -1667 0
-624 -1668 0
-625 -1669 0
-617 -1677 0
-622 -1680 0
-623 -1681 0
-624 -1682 0
-625 -1683 0
-617 -1714 0
-621 -1716 0
-622 -1717 0
-624 -1718 0
-625 -1719 0
-618 -1720 0
-619 -1721 0
-620 -1723 0
-621 -1724 0
-622 -1725 0
-623 -1726 0
-624 -1727 0
-625 -1728 0
-619 -1730 0
-621 -1732 0
-622 -1733 0
-624 -1734 0
-625 -1735 0
-619 -1737 0
-620 -1739 0
-622 -1740 0
-623 -1741 0
-624 -1742 0
-625 -1743 0
-619 -1751 0
-622 -1753 0
-623 -1754 0
-624 -1755 0
-625 -1756 0
-618 -1764 0
-620 -1766 0
-621 -1767 0
-622 -1768 0
-623 -1769 0
-624 -1770 0
-625 -1771 0
-618 -1772 0
-621 -1775 0
-622 -1776 0
-624 -1777 0
-625 -1778 0
-618 -1780 0
-620 -1783 0
-622 -1784 0
-623 -1785 0
-624 -1786 0
-625 -1787 0
-618 -1811 0
-620 -1812 0
-621 -1813 0
-622 -1814 0
-624 -1815 0
-625 -1816 0
-621 -1827 0
-622 -1828 0
-623 -1829 0
-624 -1830 0
-625 -1831 0
-620 -1834 0
-621 -1835 0
-622 -1836 0
-624 -1837 0
-625 -1838 0
-618 -1845 0
-621 -1847 0
-622 -1848 0
-623 -1849 0
-624 -1850 0
-625 -1851 0
-620 -1859 0
-621 -1860 0
-622 -1861 0
-624 -1862 0
-625 -1863 0
-621 -1865 0
-622 -1866 0
-623 -1867 0
-624 -1868 0
-625 -1869 0
-620 -1892 0
-622 -1893 0
-623 -1894 0
-624 -1895 0
-625 -1896 0
-619 -1932 0
-620 -1933 0
-623 -1934 0
-624 -1935 0
-625 -1936 0
-618 -1944 0
-622 -1946 0
-623 -1947 0
-624 -1948 0
-625 -1949 0
-620 -1952 0
-622 -1953 0
-623 -1954 0
-624 -1955 0
-625 -1956 0
-621 -1960 0
-622 -1961 0
-623 -1962 0
-624 -1963 0
-625 -1964 0
-621 -1985 0
-622 -1986 0
-623 -1987 0
-624 -1988 0
-625 -1989 0
-620 -1992 0
-621 -1993 0
-622 -1994 0
-623 -1995 0
-624 -1996 0
-625 -1997 0
-627 -737 0
-628 -738 0
-631 -740 0
-632 -741 0
-633 -742 0
-630 -803 0
-631 -804 0
-632 -805 0
-633 -806 0
-629 -837 0
-631 -838 0
-632 -839 0
-633 -840 0
-626 -848 0
-628 -850 0
-632 -852 0
-633 -853 0
-626 -854 0
-627 -857 0
-628 -858 0
-629 -859 0
-631 -860 0
-632 -861 0
-633 -862 0
-626 -878 0
-627 -881 0
-628 -882 0
-629 -884 0
-630 -885 0
-632 -886 0
-633 -887 0
-626 -903 0
-627 -905 0
-628 -906 0
-632 -907 0
-633 -908 0
-626 -915 0
-627 -916 0
-628 -917 0
-629 -918 0
-630 -919 0
-631 -920 0
-632 -921 0
-633 -922 0
-627 -931 0
-628 -932 0
-629 -934 0
-631 -935 0
-632 -936 0
-633 -937 0
-627 -938 0
-628 -939 0
-630 -940 0
-631 -941 0
-632 -942 0
-633 -943 0
-626 -944 0
-628 -947 0
-630 -948 0
-632 -949 0
-633 -950 0
-626 -958 0
-628 -961 0
-631 -963 0
-632 -964 0
-633 -965 0
-627 -969 0
-628 -970 0
-629 -971 0
-632 -972 0
-633 -973 0
-626 -981 0
-628 -984 0
-629 -985 0
-630 -986 0
-631 -987 0
-632 -988 0
-633 -989 0
-627 -993 0
-628 -994 0
-630 -996 0
-632 -997 0
-633 -998 0
-627 -1016 0
-628 -1017 0
-631 -1018 0
-632 -1019 0
-633 -1020 0
-626 -1021 0
-628 -1023 0
-630 -1024 0
-631 -1025 0
-632 -1026 0
-633 -1027 0
-627 -1045 0
-628 -1046 0
-630 -1048 0
-632 -1049 0
-633 -1050 0
-627 -1053 0
-628 -1054 0
-629 -1055 0
-630 -1056 0
-631 -1057 0
-632 -1058 0
-633 -1059 0
-627 -1068 0
-628 -1069 0
-629 -1070 0
-630 -1071 0
-632 -1072 0
-633 -1073 0
-627 -1075 0
-628 -1076 0
-630 -1078 0
-631 -1079 0
-632 -1080 0
-633 -1081 0
-626 -1089 0
-631 -1093 0
-632 -1094 0
-633 -1095 0
-626 -1096 0
-629 -1099 0
-631 -1100 0
-632 -1101 0
-633 -1102 0
-626 -1121 0
-630 -1125 0
-632 -1126 0
-633 -1127 0
-626 -1128 0
-629 -1131 0
-630 -1132 0
-631 -1133 0
-632 -1134 0
-633 -1135 0
-627 -1139 0
-629 -1141 0
-630 -1142 0
-631 -1143 0
-632 -1144 0
-633 -1145 0
-626 -1153 0
-629 -1156 0
-632 -1157 0
-633 -1158 0
-627 -1161 0
-631 -1162 0
-632 -1163 0
-633 -1164 0
-627 -1180 0
-630 -1182 0
-632 -1183 0
-633 -1184 0
-626 -1185 0
-630 -1187 0
-631 -1188 0
-632 -1189 0
-633 -1190 0
-627 -1206 0
-631 -1208 0
-632 -1209 0
-633 -1210 0
-627 -1212 0
-629 -1214 0
-631 -1215 0
-632 -1216 0
-633 -1217 0
-627 -1226 0
-629 -1228 0
-630 -1229 0
-631 -1230 0
-632 -1231 0
-633 -1232 0
-632 -1244 0
-633 -1245 0
-629 -1249 0
-631 -1250 0
-632 -1251 0
-633 -1252 0
-629 -1264 0
-630 -1265 0
-632 -1266 0
-633 -1267 0
-630 -1271 0
-631 -1272 0
-632 -1273 0
-633 -1274 0
-629 -1290 0
-631 -1291 0
-632 -1292 0
-633 -1293 0
-630 -1322 0
-631 -1323 0
-632 -1324 0
-633 -1325 0
-629 -1340 0
-630 -1341 0
-631 -1342 0
-632 -1343 0
-633 -1344 0
-627 -1422 0
-628 -1423 0
-629 -1425 0
-632 -1426 0
-633 -1427 0
-628 -1464 0
-630 -1466 0
-631 -1467 0
-632 -1468 0
-633 -1469 0
-628 -1471 0
-629 -1473 0
-630 -1474 0
-631 -1475 0
-632 -1476 0
-633 -1477 0
-629 -1480 0
-631 -1481 0
-632 -1482 0
-633 -1483 0
-629 -1502 0
-630 -1503 0
-632 -1504 0
-633 -1505 0
-626 -1543 0
-627 -1545 0
-630 -1546 0
-632 -1547 0
-633 -1548 0
-626 -1556 0
-627 -1557 0
-629 -1559 0
-630 -1560 0
-632 -1561 0
-633 -1562 0
-626 -1576 0
-629 -1578 0
-630 -1579 0
-631 -1580 0
-632 -1581 0
-633 -1582 0
-627 -1585 0
-630 -1587 0
-632 -1588 0
-633 -1589 0
-626 -1598 0
-629 -1601 0
-631 -1602 0
-632 -1603 0
-633 -1604 0
-627 -1607 0
-629 -1609 0
-632 -1610 0
-633 -1611 0
-627 -1629 0
-629 -1631 0
-630 -1632 0
-631 -1633 0
-632 -1634 0
-633 -1635 0
-627 -1637 0
-631 -1639 0
-632 -1640 0
-633 -1641 0
-627 -1649 0
-629 -1651 0
-630 -1652 0
-631 -1653 0
-632 -1654 0
-633 -1655 0
-626 -1662 0
-628 -1664 0
-630 -1666 0
-631 -1667 0
-632 -1668 0
-633 -1669 0
-626 -1684 0
-628 -1686 0
-629 -1688 0
-630 -1689 0
-632 -1690 0
-633 -1691 0
-626 -1692 0
-628 -1694 0
-630 -1695 0
-631 -1696 0
-632 -1697 0
-633 -1698 0
-627 -1701 0
-628 -1702 0
-630 -1703 0
-631 -1704 0
-632 -1705 0
-633 -1706 0
-626 -1714 0
-628 -1715 0
-629 -1716 0
-630 -1717 0
-632 -1718 0
-633 -1719 0
-627 -1721 0
-628 -1722 0
-629 -1724 0
-630 -1725 0
-631 -1726 0
-632 -1727 0
-633 -1728 0
-627 -1745 0
-628 -1746 0
-629 -1747 0
-630 -1748 0
-632 -1749 0
-633 -1750 0
-627 -1751 0
-628 -1752 0
-630 -1753 0
-631 -1754 0
-632 -1755 0
-633 -1756 0
-628 -1774 0
-629 -1775 0
-630 -1776 0
-632 -1777 0
-633 -1778 0
-628 -1782 0
-630 -1784 0
-631 -1785 0
-632 -1786 0
-633 -1787 0
-628 -1797 0
-629 -1799 0
-632 -1800 0
-633 -1801 0
-628 -1804 0
-629 -1806 0
-631 -1807 0
-632 -1808 0
-633 -1809 0
-628 -1826 0
-629 -1827 0
-630 -1828 0
-631 -1829 0
-632 -1830 0
-633 -1831 0
-628 -1833 0
-629 -1835 0
-630 -1836 0
-632 -1837 0
-633 -1838 0
-628 -1853 0
-629 -1854 0
-631 -1855 0
-632 -1856 0
-633 -1857 0
-628 -1870 0
-629 -1872 0
-630 -1873 0
-631 -1874 0
-632 -1875 0
-633 -1876 0
-628 -1911 0
-630 -1913 0
-632 -1914 0
-633 -1915 0
-627 -1925 0
-629 -1926 0
-630 -1927 0
-631 -1928 0
-632 -1929 0
-633 -1930 0
-627 -1932 0
-631 -1934 0
-632 -1935 0
-633 -1936 0
-629 -1940 0
-630 -1941 0
-632 -1942 0
-633 -1943 0
-628 -1951 0
-630 -1953 0
-631 -1954 0
-632 -1955 0
-633 -1956 0
-628 -1959 0
-629 -1960 0
-630 -1961 0
-631 -1962 0
-632 -1963 0
-633 -1964 0
-628 -1973 0
-629 -1974 0
-631 -1975 0
-632 -1976 0
-633 -1977 0
-628 -1979 0
-631 -1981 0
-632 -1982 0
-633 -1983 0
-635 -731 0
-639 -734 0
-640 -735 0
-636 -796 0
-639 -798 0
-640 -799 0
-636 -830 0
-637 -831 0
-639 -833 0
-640 -834 0
-634 -841 0
-638 -845 0
-639 -846 0
-640 -847 0
-634 -854 0
-635 -857 0
-636 -858 0
-638 -860 0
-639 -861 0
-640 -862 0
-634 -870 0
-635 -873 0
-638 -875 0
-639 -876 0
-640 -877 0
-634 -894 0
-635 -896 0
-637 -897 0
-638 -900 0
-639 -901 0
-640 -902 0
-634 -923 0
-635 -924 0
-636 -925 0
-637 -926 0
-638 -927 0
-639 -928 0
-640 -929 0
-635 -931 0
-636 -932 0
-637 -933 0
-638 -935 0
-639 -936 0
-640 -937 0
-635 -938 0
-636 -939 0
-638 -941 0
-639 -942 0
-640 -943 0
-634 -944 0
-636 -947 0
-639 -949 0
-640 -950 0
-634 -951 0
-639 -956 0
-640 -957 0
-635 -969 0
-636 -970 0
-639 -972 0
-640 -973 0
-634 -974 0
-637 -977 0
-639 -979 0
-640 -980 0
-635 -993 0
-636 -994 0
-637 -995 0
-639 -997 0
-640 -998 0
-635 -1008 0
-637 -1009 0
-639 -1012 0
-640 -1013 0
-634 -1028 0
-636 -1030 0
-637 -1031 0
-639 -1034 0
-640 -1035 0
-635 -1045 0
-636 -1046 0
-637 -1047 0
-639 -1049 0
-640 -1050 0
-635 -1062 0
-636 -1063 0
-637 -1064 0
-639 -1065 0
-640 -1066 0
-635 -1068 0
-636 -1069 0
-639 -1072 0
-640 -1073 0
-635 -1083 0
-636 -1084 0
-639 -1087 0
-640 -1088 0
-634 -1089 0
-637 -1092 0
-638 -1093 0
-639 -1094 0
-640 -1095 0
-634 -1103 0
-636 -1106 0
-637 -1107 0
-638 -1109 0
-639 -1110 0
-640 -1111 0
-634 -1112 0
-636 -1115 0
-637 -1116 0
-638 -1118 0
-639 -1119 0
-640 -1120 0
-634 -1128 0
-637 -1130 0
-638 -1133 0
-639 -1134 0
-640 -1135 0
-635 -1139 0
-637 -1140 0
-638 -1143 0
-639 -1144 0
-640 -1145 0
-634 -1146 0
-636 -1148 0
-638 -1150 0
-639 -1151 0
-640 -1152 0
-635 -1161 0
-638 -1162 0
-639 -1163 0
-640 -1164 0
-635 -1173 0
-636 -1174 0
-638 -1176 0
-639 -1177 0
-640 -1178 0
-634 -1191 0
-636 -1192 0
-637 -1193 0
-638 -1195 0
-639 -1196 0
-640 -1197 0
-635 -1206 0
-637 -1207 0
-638 -1208 0
-639 -1209 0
-640 -1210 0
-635 -1219 0
-636 -1220 0
-637 -1221 0
-638 -1223 0
-639 -1224 0
-640 -1225 0
-635 -1226 0
-637 -1227 0
-638 -1230 0
-639 -1231 0
-640 -1232 0
-637 -1243 0
-639 -1244 0
-640 -1245 0
-636 -1256 0
-637 -1257 0
-639 -1259 0
-640 -1260 0
-639 -1266 0
-640 -1267 0
-636 -1277 0
-639 -1279 0
-640 -1280 0
-636 -1283 0
-639 -1285 0
-640 -1286 0
-636 -1328 0
-637 -1329 0
-639 -1331 0
-640 -1332 0
-636 -1346 0
-637 -1347 0
-639 -1350 0
-640 -1351 0
-635 -1415 0
-637 -1416 0
-638 -1419 0
-639 -1420 0
-640 -1421 0
-637 -1458 0
-639 -1461 0
-640 -1462 0
-637 -1479 0
-638 -1481 0
-639 -1482 0
-640 -1483 0
-636 -1493 0
-637 -1494 0
-638 -1496 0
-639 -1497 0
-640 -1498 0
-636 -1525 0
-637 -1526 0
-638 -1529 0
-639 -1530 0
-640 -1531 0
-634 -1533 0
-635 -1535 0
-636 -1536 0
-637 -1537 0
-638 -1540 0
-639 -1541 0
-640 -1542 0
-634 -1549 0
-635 -1550 0
-636 -1551 0
-637 -1552 0
-638 -1553 0
-639 -1554 0
-640 -1555 0
-634 -1570 0
-636 -1572 0
-637 -1573 0
-639 -1574 0
-640 -1575 0
-635 -1585 0
-637 -1586 0
-639 -1588 0
-640 -1589 0
-634 -1590 0
-636 -1592 0
-637 -1593 0
-639 -1596 0
-640 -1597 0
-635 -1607 0
-637 -1608 0
-639 -1610 0
-640 -1611 0
-635 -1622 0
-636 -1623 0
-637 -1624 0
-639 -1625 0
-640 -1626 0
-635 -1643 0
-636 -1644 0
-639 -1647 0
-640 -1648 0
-635 -1656 0
-636 -1657 0
-637 -1658 0
-639 -1660 0
-640 -1661 0
-634 -1670 0
-638 -1674 0
-639 -1675 0
-640 -1676 0
-634 -1677 0
-636 -1679 0
-638 -1681 0
-639 -1682 0
-640 -1683 0
-634 -1692 0
-636 -1694 0
-638 -1696 0
-639 -1697 0
-640 -1698 0
-635 -1701 0
-636 -1702 0
-638 -1704 0
-639 -1705 0
-640 -1706 0
-634 -1707 0
-636 -1708 0
-637 -1709 0
-638 -1711 0
-639 -1712 0
-640 -1713 0
-635 -1721 0
-636 -1722 0
-637 -1723 0
-638 -1726 0
-639 -1727 0
-640 -1728 0
-635 -1737 0
-636 -1738 0
-637 -1739 0
-638 -1741 0
-639 -1742 0
-640 -1743 0
-635 -1757 0
-637 -1758 0
-638 -1761 0
-639 -1762 0
-640 -1763 0
-636 -1774 0
-639 -1777 0
-640 -1778 0
-639 -1793 0
-640 -1794 0
-636 -1797 0
-637 -1798 0
-639 -1800 0
-640 -1801 0
-637 -1812 0
-639 -1815 0
-640 -1816 0
-636 -1819 0
-637 -1820 0
-639 -1822 0
-640 -1823 0
-636 -1833 0
-637 -1834 0
-639 -1837 0
-640 -1838 0
-637 -1859 0
-639 -1862 0
-640 -1863 0
-636 -1904 0
-638 -1907 0
-639 -1908 0
-640 -1909 0
-635 -1925 0
-638 -1928 0
-639 -1929 0
-640 -1930 0
-635 -1932 0
-637 -1933 0
-638 -1934 0
-639 -1935 0
-640 -1936 0
-637 -1939 0
-639 -1942 0
-640 -1943 0
-636 -1951 0
-637 -1952 0
-638 -1954 0
-639 -1955 0
-640 -1956 0
-637 -1967 0
-638 -1969 0
-639 -1970 0
-640 -1971 0
-636 -1973 0
-638 -1975 0
-639 -1976 0
-640 -1977 0
-638 -1987 0
-639 -1988 0
-640 -1989 0
-645 -727 0
-646 -728 0
-647 -729 0
-641 -829 0
-643 -830 0
-646 -833 0
-647 -834 0
-641 -835 0
-644 -837 0
-645 -838 0
-646 -839 0
-647 -840 0
-644 -843 0
-645 -845 0
-646 -846 0
-647 -847 0
-643 -850 0
-646 -852 0
-647 -853 0
-642 -916 0
-643 -917 0
-644 -918 0
-645 -920 0
-646 -921 0
-647 -922 0
-642 -924 0
-643 -925 0
-645 -927 0
-646 -928 0
-647 -929 0
-641 -945 0
-643 -947 0
-646 -949 0
-647 -950 0
-644 -954 0
-646 -956 0
-647 -957 0
-643 -961 0
-645 -963 0
-646 -964 0
-647 -965 0
-646 -979 0
-647 -980 0
-643 -984 0
-644 -985 0
-645 -987 0
-646 -988 0
-647 -989 0
-641 -1036 0
-642 -1038 0
-643 -1039 0
-645 -1041 0
-646 -1042 0
-647 -1043 0
-642 -1045 0
-643 -1046 0
-646 -1049 0
-647 -1050 0
-642 -1053 0
-643 -1054 0
-644 -1055 0
-645 -1057 0
-646 -1058 0
-647 -1059 0
-642 -1062 0
-643 -1063 0
-646 -1065 0
-647 -1066 0
-642 -1068 0
-643 -1069 0
-644 -1070 0
-646 -1072 0
-647 -1073 0
-642 -1075 0
-643 -1076 0
-645 -1079 0
-646 -1080 0
-647 -1081 0
-642 -1083 0
-643 -1084 0
-644 -1085 0
-646 -1087 0
-647 -1088 0
-641 -1090 0
-645 -1093 0
-646 -1094 0
-647 -1095 0
-641 -1098 0
-644 -1099 0
-645 -1100 0
-646 -1101 0
-647 -1102 0
-641 -1105 0
-643 -1106 0
-645 -1109 0
-646 -1110 0
-647 -1111 0
-643 -1115 0
-644 -1117 0
-645 -1118 0
-646 -1119 0
-647 -1120 0
-646 -1126 0
-647 -1127 0
-644 -1131 0
-645 -1133 0
-646 -1134 0
-647 -1135 0
-643 -1148 0
-645 -1150 0
-646 -1151 0
-647 -1152 0
-644 -1156 0
-646 -1157 0
-647 -1158 0
-641 -1198 0
-642 -1199 0
-643 -1200 0
-645 -1202 0
-646 -1203 0
-647 -1204 0
-642 -1206 0
-645 -1208 0
-646 -1209 0
-647 -1210 0
-642 -1212 0
-644 -1214 0
-645 -1215 0
-646 -1216 0
-647 -1217 0
-642 -1219 0
-643 -1220 0
-645 -1223 0
-646 -1224 0
-647 -1225 0
-642 -1226 0
-644 -1228 0
-645 -1230 0
-646 -1231 0
-647 -1232 0
-641 -1234 0
-643 -1236 0
-645 -1237 0
-646 -1238 0
-647 -1239 0
-641 -1241 0
-646 -1244 0
-647 -1245 0
-641 -1247 0
-644 -1249 0
-645 -1250 0
-646 -1251 0
-647 -1252 0
-641 -1254 0
-643 -1256 0
-646 -1259 0
-647 -1260 0
-641 -1262 0
-644 -1264 0
-646 -1266 0
-647 -1267 0
-641 -1269 0
-645 -1272 0
-646 -1273 0
-647 -1274 0
-641 -1276 0
-643 -1277 0
-644 -1278 0
-646 -1279 0
-647 -1280 0
-643 -1283 0
-646 -1285 0
-647 -1286 0
-644 -1290 0
-645 -1291 0
-646 -1292 0
-647 -1293 0
-644 -1459 0
-646 -1461 0
-647 -1462 0
-643 -1464 0
-645 -1467 0
-646 -1468 0
-647 -1469 0
-643 -1471 0
-644 -1473 0
-645 -1475 0
-646 -1476 0
-647 -1477 0
-643 -1525 0
-644 -1527 0
-645 -1529 0
-646 -1530 0
-647 -1531 0
-643 -1572 0
-646 -1574 0
-647 -1575 0
-644 -1578 0
-645 -1580 0
-646 -1581 0
-647 -1582 0
-643 -1592 0
-644 -1594 0
-646 -1596 0
-647 -1597 0
-644 -1601 0
-645 -1602 0
-646 -1603 0
-647 -1604 0
-642 -1637 0
-645 -1639 0
-646 -1640 0
-647 -1641 0
-642 -1643 0
-643 -1644 0
-644 -1645 0
-646 -1647 0
-647 -1648 0
-642 -1649 0
-644 -1651 0
-645 -1653 0
-646 -1654 0
-647 -1655 0
-642 -1656 0
-643 -1657 0
-644 -1659 0
-646 -1660 0
-647 -1661 0
-641 -1663 0
-643 -1664 0
-645 -1667 0
-646 -1668 0
-647 -1669 0
-641 -1671 0
-644 -1672 0
-645 -1674 0
-646 -1675 0
-647 -1676 0
-643 -1679 0
-645 -1681 0
-646 -1682 0
-647 -1683 0
-643 -1686 0
-644 -1688 0
-646 -1690 0
-647 -1691 0
-643 -1694 0
-645 -1696 0
-646 -1697 0
-647 -1698 0
-643 -1708 0
-644 -1710 0
-645 -1711 0
-646 -1712 0
-647 -1713 0
-643 -1715 0
-644 -1716 0
-646 -1718 0
-647 -1719 0
-642 -1751 0
-643 -1752 0
-645 -1754 0
-646 -1755 0
-647 -1756 0
-642 -1757 0
-644 -1759 0
-645 -1761 0
-646 -1762 0
-647 -1763 0
-641 -1764 0
-644 -1767 0
-645 -1769 0
-646 -1770 0
-647 -1771 0
-641 -1772 0
-643 -1774 0
-644 -1775 0
-646 -1777 0
-647 -1778 0
-641 -1780 0
-643 -1782 0
-645 -1785 0
-646 -1786 0
-647 -1787 0
-641 -1789 0
-644 -1791 0
-646 -1793 0
-647 -1794 0
-641 -1795 0
-643 -1797 0
-644 -1799 0
-646 -1800 0
-647 -1801 0
-641 -1803 0
-643 -1804 0
-644 -1806 0
-645 -1807 0
-646 -1808 0
-647 -1809 0
-641 -1811 0
-644 -1813 0
-646 -1815 0
-647 -1816 0
-643 -1819 0
-644 -1821 0
-646 -1822 0
-647 -1823 0
-643 -1826 0
-644 -1827 0
-645 -1829 0
-646 -1830 0
-647 -1831 0
-643 -1833 0
-644 -1835 0
-646 -1837 0
-647 -1838 0
-644 -1940 0
-646 -1942 0
-647 -1943 0
-641 -1944 0
-645 -1947 0
-646 -1948 0
-647 -1949 0
-643 -1951 0
-645 -1954 0
-646 -1955 0
-647 -1956 0
-643 -1959 0
-644 -1960 0
-645 -1962 0
-646 -1963 0
-647 -1964 0
-645 -1969 0
-646 -1970 0
-647 -1971 0
-643 -1973 0
-644 -1974 0
-645 -1975 0
-646 -1976 0
-647 -1977 0
-643 -1979 0
-645 -1981 0
-646 -1982 0
-647 -1983 0
-644 -1985 0
-645 -1987 0
-646 -1988 0
-647 -1989 0
-648 -848 0
-650 -849 0
-651 -850 0
-655 -852 0
-656 -853 0
-648 -854 0
-649 -855 0
-650 -856 0
-651 -858 0
-652 -859 0
-654 -860 0
-655 -861 0
-656 -862 0
-648 -878 0
-650 -880 0
-651 -882 0
-652 -884 0
-653 -885 0
-655 -886 0
-656 -887 0
-648 -888 0
-650 -889 0
-653 -891 0
-655 -892 0
-656 -893 0
-648 -894 0
-652 -898 0
-653 -899 0
-654 -900 0
-655 -901 0
-656 -902 0
-650 -910 0
-652 -912 0
-655 -913 0
-656 -914 0
-648 -915 0
-651 -917 0
-652 -918 0
-653 -919 0
-654 -920 0
-655 -921 0
-656 -922 0
-650 -930 0
-651 -932 0
-652 -934 0
-654 -935 0
-655 -936 0
-656 -937 0
-648 -981 0
-650 -983 0
-651 -984 0
-652 -985 0
-653 -986 0
-654 -987 0
-655 -988 0
-656 -989 0
-649 -991 0
-650 -992 0
-651 -994 0
-653 -996 0
-655 -997 0
-656 -998 0
-650 -1015 0
-651 -1017 0
-654 -1018 0
-655 -1019 0
-656 -1020 0
-648 -1028 0
-650 -1029 0
-651 -1030 0
-652 -1032 0
-653 -1033 0
-655 -1034 0
-656 -1035 0
-649 -1036 0
-650 -1037 0
-651 -1039 0
-653 -1040 0
-654 -1041 0
-655 -1042 0
-656 -1043 0
-650 -1061 0
-651 -1063 0
-655 -1065 0
-656 -1066 0
-650 -1067 0
-651 -1069 0
-652 -1070 0
-653 -1071 0
-655 -1072 0
-656 -1073 0
-651 -1076 0
-653 -1078 0
-654 -1079 0
-655 -1080 0
-656 -1081 0
-648 -1089 0
-649 -1090 0
-650 -1091 0
-654 -1093 0
-655 -1094 0
-656 -1095 0
-648 -1096 0
-649 -1098 0
-652 -1099 0
-654 -1100 0
-655 -1101 0
-656 -1102 0
-648 -1121 0
-650 -1123 0
-653 -1125 0
-655 -1126 0
-656 -1127 0
-648 -1128 0
-652 -1131 0
-653 -1132 0
-654 -1133 0
-655 -1134 0
-656 -1135 0
-649 -1137 0
-650 -1138 0
-652 -1141 0
-653 -1142 0
-654 -1143 0
-655 -1144 0
-656 -1145 0
-648 -1146 0
-651 -1148 0
-653 -1149 0
-654 -1150 0
-655 -1151 0
-656 -1152 0
-650 -1166 0
-651 -1168 0
-655 -1170 0
-656 -1171 0
-651 -1174 0
-652 -1175 0
-654 -1176 0
-655 -1177 0
-656 -1178 0
-648 -1185 0
-653 -1187 0
-654 -1188 0
-655 -1189 0
-656 -1190 0
-650 -1205 0
-654 -1208 0
-655 -1209 0
-656 -1210 0
-652 -1214 0
-654 -1215 0
-655 -1216 0
-656 -1217 0
-649 -1234 0
-650 -1235 0
-651 -1236 0
-654 -1237 0
-655 -1238 0
-656 -1239 0
-649 -1254 0
-650 -1255 0
-651 -1256 0
-653 -1258 0
-655 -1259 0
-656 -1260 0
-649 -1262 0
-650 -1263 0
-652 -1264 0
-653 -1265 0
-655 -1266 0
-656 -1267 0
-649 -1269 0
-653 -1271 0
-654 -1272 0
-655 -1273 0
-656 -1274 0
-650 -1288 0
-652 -1290 0
-654 -1291 0
-655 -1292 0
-656 -1293 0
-649 -1295 0
-650 -1296 0
-651 -1297 0
-652 -1299 0
-653 -1300 0
-654 -1301 0
-655 -1302 0
-656 -1303 0
-649 -1305 0
-651 -1306 0
-653 -1307 0
-654 -1308 0
-655 -1309 0
-656 -1310 0
-650 -1327 0
-651 -1328 0
-652 -1330 0
-655 -1331 0
-656 -1332 0
-651 -1334 0
-654 -1336 0
-655 -1337 0
-656 -1338 0
-652 -1340 0
-653 -1341 0
-654 -1342 0
-655 -1343 0
-656 -1344 0
-648 -1380 0
-653 -1382 0
-654 -1383 0
-655 -1384 0
-656 -1385 0
-649 -1386 0
-652 -1388 0
-653 -1389 0
-655 -1390 0
-656 -1391 0
-652 -1411 0
-654 -1412 0
-655 -1413 0
-656 -1414 0
-651 -1423 0
-652 -1425 0
-655 -1426 0
-656 -1427 0
-651 -1471 0
-652 -1473 0
-653 -1474 0
-654 -1475 0
-655 -1476 0
-656 -1477 0
-649 -1478 0
-652 -1480 0
-654 -1481 0
-655 -1482 0
-656 -1483 0
-649 -1500 0
-652 -1502 0
-653 -1503 0
-655 -1504 0
-656 -1505 0
-649 -1506 0
-651 -1507 0
-653 -1509 0
-655 -1510 0
-656 -1511 0
-651 -1520 0
-654 -1522 0
-655 -1523 0
-656 -1524 0
-648 -1543 0
-650 -1544 0
-653 -1546 0
-655 -1547 0
-656 -1548 0
-648 -1549 0
-651 -1551 0
-654 -1553 0
-655 -1554 0
-656 -1555 0
-650 -1563 0
-651 -1565 0
-653 -1567 0
-655 -1568 0
-656 -1569 0
-648 -1598 0
-650 -1599 0
-652 -1601 0
-654 -1602 0
-655 -1603 0
-656 -1604 0
-649 -1605 0
-650 -1606 0
-652 -1609 0
-655 -1610 0
-656 -1611 0
-650 -1628 0
-652 -1631 0
-653 -1632 0
-654 -1633 0
-655 -1634 0
-656 -1635 0
-650 -1642 0
-651 -1644 0
-652 -1645 0
-653 -1646 0
-655 -1647 0
-656 -1648 0
-652 -1651 0
-653 -1652 0
-654 -1653 0
-655 -1654 0
-656 -1655 0
-648 -1662 0
-649 -1663 0
-651 -1664 0
-653 -1666 0
-654 -1667 0
-655 -1668 0
-656 -1669 0
-648 -1684 0
-650 -1685 0
-651 -1686 0
-652 -1688 0
-653 -1689 0
-655 -1690 0
-656 -1691 0
-648 -1692 0
-651 -1694 0
-653 -1695 0
-654 -1696 0
-655 -1697 0
-656 -1698 0
-649 -1699 0
-650 -1700 0
-651 -1702 0
-653 -1703 0
-654 -1704 0
-655 -1705 0
-656 -1706 0
-648 -1707 0
-651 -1708 0
-652 -1710 0
-654 -1711 0
-655 -1712 0
-656 -1713 0
-650 -1729 0
-651 -1731 0
-652 -1732 0
-653 -1733 0
-655 -1734 0
-656 -1735 0
-651 -1738 0
-653 -1740 0
-654 -1741 0
-655 -1742 0
-656 -1743 0
-651 -1752 0
-653 -1753 0
-654 -1754 0
-655 -1755 0
-656 -1756 0
-649 -1764 0
-650 -1765 0
-652 -1767 0
-653 -1768 0
-654 -1769 0
-655 -1770 0
-656 -1771 0
-649 -1789 0
-650 -1790 0
-652 -1791 0
-653 -1792 0
-655 -1793 0
-656 -1794 0
-649 -1795 0
-650 -1796 0
-651 -1797 0
-652 -1799 0
-655 -1800 0
-656 -1801 0
-649 -1803 0
-651 -1804 0
-652 -1806 0
-654 -1807 0
-655 -1808 0
-656 -1809 0
-650 -1825 0
-651 -1826 0
-652 -1827 0
-653 -1828 0
-654 -1829 0
-655 -1830 0
-656 -1831 0
-651 -1833 0
-652 -1835 0
-653 -1836 0
-655 -1837 0
-656 -1838 0
-649 -1839 0
-652 -1841 0
-654 -1842 0
-655 -1843 0
-656 -1844 0
-650 -1858 0
-652 -1860 0
-653 -1861 0
-655 -1862 0
-656 -1863 0
-652 -1865 0
-653 -1866 0
-654 -1867 0
-655 -1868 0
-656 -1869 0
-651 -1870 0
-652 -1872 0
-653 -1873 0
-654 -1874 0
-655 -1875 0
-656 -1876 0
-651 -1885 0
-653 -1886 0
-654 -1887 0
-655 -1888 0
-656 -1889 0
-649 -1910 0
-651 -1911 0
-653 -1913 0
-655 -1914 0
-656 -1915 0
-651 -1917 0
-652 -1919 0
-653 -1920 0
-654 -1921 0
-655 -1922 0
-656 -1923 0
-650 -1924 0
-652 -1926 0
-653 -1927 0
-654 -1928 0
-655 -1929 0
-656 -1930 0
-650 -1938 0
-652 -1940 0
-653 -1941 0
-655 -1942 0
-656 -1943 0
-650 -1950 0
-651 -1951 0
-653 -1953 0
-654 -1954 0
-655 -1955 0
-656 -1956 0
-650 -1958 0
-651 -1959 0
-652 -1960 0
-653 -1961 0
-654 -1962 0
-655 -1963 0
-656 -1964 0
-657 -841 0
-659 -842 0
-661 -845 0
-662 -846 0
-663 -847 0
-657 -854 0
-658 -855 0
-659 -856 0
-661 -860 0
-662 -861 0
-663 -862 0
-657 -870 0
-659 -872 0
-661 -875 0
-662 -876 0
-663 -877 0
-657 -888 0
-659 -889 0
-662 -892 0
-663 -893 0
-657 -903 0
-662 -907 0
-663 -908 0
-659 -910 0
-662 -913 0
-663 -914 0
-657 -923 0
-660 -926 0
-661 -927 0
-662 -928 0
-663 -929 0
-659 -930 0
-660 -933 0
-661 -935 0
-662 -936 0
-663 -937 0
-657 -974 0
-659 -976 0
-660 -977 0
-662 -979 0
-663 -980 0
-658 -991 0
-659 -992 0
-660 -995 0
-662 -997 0
-663 -998 0
-659 -1007 0
-660 -1009 0
-662 -1012 0
-663 -1013 0
-657 -1021 0
-659 -1022 0
-661 -1025 0
-662 -1026 0
-663 -1027 0
-658 -1036 0
-659 -1037 0
-661 -1041 0
-662 -1042 0
-663 -1043 0
-659 -1052 0
-661 -1057 0
-662 -1058 0
-663 -1059 0
-659 -1067 0
-662 -1072 0
-663 -1073 0
-662 -1087 0
-663 -1088 0
-657 -1089 0
-658 -1090 0
-659 -1091 0
-660 -1092 0
-661 -1093 0
-662 -1094 0
-663 -1095 0
-657 -1103 0
-658 -1105 0
-660 -1107 0
-661 -1109 0
-662 -1110 0
-663 -1111 0
-657 -1112 0
-659 -1114 0
-660 -1116 0
-661 -1118 0
-662 -1119 0
-663 -1120 0
-657 -1128 0
-660 -1130 0
-661 -1133 0
-662 -1134 0
-663 -1135 0
-658 -1137 0
-659 -1138 0
-660 -1140 0
-661 -1143 0
-662 -1144 0
-663 -1145 0
-657 -1153 0
-660 -1155 0
-662 -1157 0
-663 -1158 0
-659 -1166 0
-660 -1169 0
-662 -1170 0
-663 -1171 0
-660 -1181 0
-662 -1183 0
-663 -1184 0
-657 -1191 0
-660 -1193 0
-661 -1195 0
-662 -1196 0
-663 -1197 0
-659 -1205 0
-660 -1207 0
-661 -1208 0
-662 -1209 0
-663 -1210 0
-660 -1221 0
-661 -1223 0
-662 -1224 0
-663 -1225 0
-658 -1234 0
-659 -1235 0
-661 -1237 0
-662 -1238 0
-663 -1239 0
-658 -1247 0
-659 -1248 0
-661 -1250 0
-662 -1251 0
-663 -1252 0
-658 -1262 0
-659 -1263 0
-662 -1266 0
-663 -1267 0
-658 -1276 0
-662 -1279 0
-663 -1280 0
-659 -1282 0
-662 -1285 0
-663 -1286 0
-658 -1295 0
-659 -1296 0
-660 -1298 0
-661 -1301 0
-662 -1302 0
-663 -1303 0
-658 -1312 0
-660 -1314 0
-661 -1316 0
-662 -1317 0
-663 -1318 0
-659 -1320 0
-660 -1321 0
-661 -1323 0
-662 -1324 0
-663 -1325 0
-660 -1335 0
-661 -1336 0
-662 -1337 0
-663 -1338 0
-660 -1347 0
-662 -1350 0
-663 -1351 0
-657 -1374 0
-662 -1378 0
-663 -1379 0
-658 -1386 0
-662 -1390 0
-663 -1391 0
-662 -1406 0
-663 -1407 0
-660 -1416 0
-661 -1419 0
-662 -1420 0
-663 -1421 0
-658 -1478 0
-660 -1479 0
-661 -1481 0
-662 -1482 0
-663 -1483 0
-658 -1492 0
-660 -1494 0
-661 -1496 0
-662 -1497 0
-663 -1498 0
-658 -1506 0
-660 -1508 0
-662 -1510 0
-663 -1511 0
-660 -1514 0
-662 -1517 0
-663 -1518 0
-660 -1526 0
-661 -1529 0
-662 -1530 0
-663 -1531 0
-657 -1533 0
-659 -1534 0
-660 -1537 0
-661 -1540 0
-662 -1541 0
-663 -1542 0
-657 -1556 0
-660 -1558 0
-662 -1561 0
-663 -1562 0
-659 -1563 0
-660 -1566 0
-662 -1568 0
-663 -1569 0
-657 -1590 0
-659 -1591 0
-660 -1593 0
-662 -1596 0
-663 -1597 0
-658 -1605 0
-659 -1606 0
-660 -1608 0
-662 -1610 0
-663 -1611 0
-659 -1621 0
-660 -1624 0
-662 -1625 0
-663 -1626 0
-659 -1636 0
-660 -1638 0
-661 -1639 0
-662 -1640 0
-663 -1641 0
-660 -1658 0
-662 -1660 0
-663 -1661 0
-657 -1670 0
-658 -1671 0
-661 -1674 0
-662 -1675 0
-663 -1676 0
-657 -1677 0
-659 -1678 0
-661 -1681 0
-662 -1682 0
-663 -1683 0
-657 -1692 0
-661 -1696 0
-662 -1697 0
-663 -1698 0
-658 -1699 0
-659 -1700 0
-661 -1704 0
-662 -1705 0
-663 -1706 0
-657 -1714 0
-662 -1718 0
-663 -1719 0
-659 -1729 0
-662 -1734 0
-663 -1735 0
-662 -1749 0
-663 -1750 0
-660 -1758 0
-661 -1761 0
-662 -1762 0
-663 -1763 0
-658 -1764 0
-659 -1765 0
-660 -1766 0
-661 -1769 0
-662 -1770 0
-663 -1771 0
-658 -1780 0
-659 -1781 0
-660 -1783 0
-661 -1785 0
-662 -1786 0
-663 -1787 0
-658 -1795 0
-659 -1796 0
-660 -1798 0
-662 -1800 0
-663 -1801 0
-658 -1811 0
-660 -1812 0
-662 -1815 0
-663 -1816 0
-659 -1818 0
-660 -1820 0
-662 -1822 0
-663 -1823 0
-660 -1834 0
-662 -1837 0
-663 -1838 0
-658 -1845 0
-661 -1849 0
-662 -1850 0
-663 -1851 0
-659 -1852 0
-661 -1855 0
-662 -1856 0
-663 -1857 0
-661 -1867 0
-662 -1868 0
-663 -1869 0
-660 -1880 0
-662 -1882 0
-663 -1883 0
-658 -1903 0
-661 -1907 0
-662 -1908 0
-663 -1909 0
-659 -1924 0
-661 -1928 0
-662 -1929 0
-663 -1930 0
-659 -1938 0
-660 -1939 0
-662 -1942 0
-663 -1943 0
-659 -1950 0
-660 -1952 0
-661 -1954 0
-662 -1955 0
-663 -1956 0
-659 -1966 0
-660 -1967 0
-661 -1969 0
-662 -1970 0
-663 -1971 0
-665 -842 0
-667 -843 0
-668 -845 0
-669 -846 0
-670 -847 0
-665 -849 0
-669 -852 0
-670 -853 0
-665 -889 0
-666 -890 0
-669 -892 0
-670 -893 0
-666 -896 0
-667 -898 0
-668 -900 0
-669 -901 0
-670 -902 0
-666 -905 0
-669 -907 0
-670 -908 0
-666 -916 0
-667 -918 0
-668 -920 0
-669 -921 0
-670 -922 0
-666 -924 0
-668 -927 0
-669 -928 0
-670 -929 0
-666 -938 0
-668 -941 0
-669 -942 0
-670 -943 0
-665 -976 0
-669 -979 0
-670 -980 0
-665 -983 0
-667 -985 0
-668 -987 0
-669 -988 0
-670 -989 0
-665 -1022 0
-668 -1025 0
-669 -1026 0
-670 -1027 0
-665 -1029 0
-667 -1032 0
-669 -1034 0
-670 -1035 0
-665 -1067 0
-666 -1068 0
-667 -1070 0
-669 -1072 0
-670 -1073 0
-666 -1075 0
-668 -1079 0
-669 -1080 0
-670 -1081 0
-666 -1083 0
-667 -1085 0
-669 -1087 0
-670 -1088 0
-664 -1090 0
-665 -1091 0
-668 -1093 0
-669 -1094 0
-670 -1095 0
-664 -1098 0
-667 -1099 0
-668 -1100 0
-669 -1101 0
-670 -1102 0
-664 -1105 0
-668 -1109 0
-669 -1110 0
-670 -1111 0
-665 -1114 0
-667 -1117 0
-668 -1118 0
-669 -1119 0
-670 -1120 0
-665 -1123 0
-669 -1126 0
-670 -1127 0
-667 -1131 0
-668 -1133 0
-669 -1134 0
-670 -1135 0
-664 -1160 0
-666 -1161 0
-668 -1162 0
-669 -1163 0
-670 -1164 0
-665 -1166 0
-666 -1167 0
-669 -1170 0
-670 -1171 0
-666 -1173 0
-667 -1175 0
-668 -1176 0
-669 -1177 0
-670 -1178 0
-666 -1180 0
-669 -1183 0
-670 -1184 0
-664 -1198 0
-666 -1199 0
-668 -1202 0
-669 -1203 0
-670 -1204 0
-665 -1205 0
-666 -1206 0
-668 -1208 0
-669 -1209 0
-670 -1210 0
-666 -1212 0
-667 -1214 0
-668 -1215 0
-669 -1216 0
-670 -1217 0
-666 -1219 0
-668 -1223 0
-669 -1224 0
-670 -1225 0
-664 -1262 0
-665 -1263 0
-667 -1264 0
-669 -1266 0
-670 -1267 0
-664 -1269 0
-668 -1272 0
-669 -1273 0
-670 -1274 0
-664 -1276 0
-667 -1278 0
-669 -1279 0
-670 -1280 0
-665 -1282 0
-669 -1285 0
-670 -1286 0
-665 -1288 0
-667 -1290 0
-668 -1291 0
-669 -1292 0
-670 -1293 0
-664 -1295 0
-665 -1296 0
-667 -1299 0
-668 -1301 0
-669 -1302 0
-670 -1303 0
-664 -1305 0
-668 -1308 0
-669 -1309 0
-670 -1310 0
-664 -1312 0
-667 -1315 0
-668 -1316 0
-669 -1317 0
-670 -1318 0
-665 -1320 0
-668 -1323 0
-669 -1324 0
-670 -1325 0
-665 -1327 0
-667 -1330 0
-669 -1331 0
-670 -1332 0
-668 -1336 0
-669 -1337 0
-670 -1338 0
-667 -1376 0
-669 -1378 0
-670 -1379 0
-668 -1383 0
-669 -1384 0
-670 -1385 0
-667 -1473 0
-668 -1475 0
-669 -1476 0
-670 -1477 0
-664 -1506 0
-669 -1510 0
-670 -1511 0
-667 -1515 0
-669 -1517 0
-670 -1518 0
-668 -1522 0
-669 -1523 0
-670 -1524 0
-667 -1527 0
-668 -1529 0
-669 -1530 0
-670 -1531 0
-666 -1550 0
-668 -1553 0
-669 -1554 0
-670 -1555 0
-666 -1557 0
-667 -1559 0
-669 -1561 0
-670 -1562 0
-665 -1591 0
-667 -1594 0
-669 -1596 0
-670 -1597 0
-665 -1599 0
-667 -1601 0
-668 -1602 0
-669 -1603 0
-670 -1604 0
-666 -1649 0
-667 -1651 0
-668 -1653 0
-669 -1654 0
-670 -1655 0
-666 -1656 0
-667 -1659 0
-669 -1660 0
-670 -1661 0
-664 -1663 0
-668 -1667 0
-669 -1668 0
-670 -1669 0
-664 -1671 0
-667 -1672 0
-668 -1674 0
-669 -1675 0
-670 -1676 0
-665 -1678 0
-668 -1681 0
-669 -1682 0
-670 -1683 0
-665 -1685 0
-667 -1688 0
-669 -1690 0
-670 -1691 0
-668 -1696 0
-669 -1697 0
-670 -1698 0
-664 -1720 0
-666 -1721 0
-667 -1724 0
-668 -1726 0
-669 -1727 0
-670 -1728 0
-665 -1729 0
-666 -1730 0
-667 -1732 0
-669 -1734 0
-670 -1735 0
-666 -1737 0
-668 -1741 0
-669 -1742 0
-670 -1743 0
-666 -1745 0
-667 -1747 0
-669 -1749 0
-670 -1750 0
-666 -1751 0
-668 -1754 0
-669 -1755 0
-670 -1756 0
-666 -1757 0
-667 -1759 0
-668 -1761 0
-669 -1762 0
-670 -1763 0
-664 -1795 0
-665 -1796 0
-667 -1799 0
-669 -1800 0
-670 -1801 0
-664 -1803 0
-667 -1806 0
-668 -1807 0
-669 -1808 0
-670 -1809 0
-664 -1811 0
-667 -1813 0
-669 -1815 0
-670 -1816 0
-665 -1818 0
-667 -1821 0
-669 -1822 0
-670 -1823 0
-665 -1825 0
-667 -1827 0
-668 -1829 0
-669 -1830 0
-670 -1831 0
-667 -1835 0
-669 -1837 0
-670 -1838 0
-664 -1839 0
-667 -1841 0
-668 -1842 0
-669 -1843 0
-670 -1844 0
-664 -1845 0
-667 -1847 0
-668 -1849 0
-669 -1850 0
-670 -1851 0
-665 -1852 0
-667 -1854 0
-668 -1855 0
-669 -1856 0
-670 -1857 0
-665 -1858 0
-667 -1860 0
-669 -1862 0
-670 -1863 0
-667 -1865 0
-668 -1867 0
-669 -1868 0
-670 -1869 0
-667 -1919 0
-668 -1921 0
-669 -1922 0
-670 -1923 0
-665 -1931 0
-666 -1932 0
-668 -1934 0
-669 -1935 0
-670 -1936 0
-665 -1938 0
-667 -1940 0
-669 -1942 0
-670 -1943 0
-664 -1944 0
-665 -1945 0
-668 -1947 0
-669 -1948 0
-670 -1949 0
-665 -1950 0
-668 -1954 0
-669 -1955 0
-670 -1956 0
-665 -1958 0
-667 -1960 0
-668 -1962 0
-669 -1963 0
-670 -1964 0
-665 -1966 0
-668 -1969 0
-669 -1970 0
-670 -1971 0
-672 -736 0
-673 -738 0
-674 -739 0
-676 -740 0
-677 -741 0
-678 -742 0
-671 -763 0
-672 -764 0
-673 -765 0
-674 -766 0
-675 -767 0
-676 -768 0
-677 -769 0
-678 -770 0
-672 -771 0
-673 -773 0
-674 -774 0
-675 -776 0
-677 -777 0
-678 -778 0
-672 -801 0
-674 -802 0
-675 -803 0
-676 -804 0
-677 -805 0
-678 -806 0
-672 -835 0
-674 -836 0
-676 -838 0
-677 -839 0
-678 -840 0
-671 -848 0
-673 -850 0
-674 -851 0
-677 -852 0
-678 -853 0
-671 -854 0
-672 -855 0
-673 -858 0
-676 -860 0
-677 -861 0
-678 -862 0
-671 -863 0
-674 -866 0
-677 -868 0
-678 -869 0
-671 -870 0
-676 -875 0
-677 -876 0
-678 -877 0
-671 -903 0
-673 -906 0
-677 -907 0
-678 -908 0
-677 -913 0
-678 -914 0
-671 -915 0
-673 -917 0
-675 -919 0
-676 -920 0
-677 -921 0
-678 -922 0
-673 -939 0
-675 -940 0
-676 -941 0
-677 -942 0
-678 -943 0
-671 -958 0
-673 -961 0
-674 -962 0
-676 -963 0
-677 -964 0
-678 -965 0
-672 -967 0
-673 -970 0
-677 -972 0
-678 -973 0
-673 -1017 0
-676 -1018 0
-677 -1019 0
-678 -1020 0
-671 -1028 0
-673 -1030 0
-674 -1031 0
-675 -1033 0
-677 -1034 0
-678 -1035 0
-672 -1036 0
-673 -1039 0
-675 -1040 0
-676 -1041 0
-677 -1042 0
-678 -1043 0
-673 -1046 0
-674 -1047 0
-675 -1048 0
-677 -1049 0
-678 -1050 0
-673 -1054 0
-675 -1056 0
-676 -1057 0
-677 -1058 0
-678 -1059 0
-673 -1084 0
-675 -1086 0
-677 -1087 0
-678 -1088 0
-671 -1089 0
-672 -1090 0
-674 -1092 0
-676 -1093 0
-677 -1094 0
-678 -1095 0
-671 -1096 0
-672 -1098 0
-676 -1100 0
-677 -1101 0
-678 -1102 0
-671 -1112 0
-673 -1115 0
-674 -1116 0
-676 -1118 0
-677 -1119 0
-678 -1120 0
-671 -1153 0
-674 -1155 0
-677 -1157 0
-678 -1158 0
-672 -1160 0
-676 -1162 0
-677 -1163 0
-678 -1164 0
-673 -1168 0
-674 -1169 0
-677 -1170 0
-678 -1171 0
-673 -1174 0
-676 -1176 0
-677 -1177 0
-678 -1178 0
-671 -1185 0
-674 -1186 0
-675 -1187 0
-676 -1188 0
-677 -1189 0
-678 -1190 0
-674 -1227 0
-675 -1229 0
-676 -1230 0
-677 -1231 0
-678 -1232 0
-672 -1234 0
-673 -1236 0
-676 -1237 0
-677 -1238 0
-678 -1239 0
-672 -1241 0
-674 -1243 0
-677 -1244 0
-678 -1245 0
-672 -1247 0
-676 -1250 0
-677 -1251 0
-678 -1252 0
-672 -1276 0
-673 -1277 0
-677 -1279 0
-678 -1280 0
-674 -1289 0
-676 -1291 0
-677 -1292 0
-678 -1293 0
-672 -1295 0
-673 -1297 0
-674 -1298 0
-675 -1300 0
-676 -1301 0
-677 -1302 0
-678 -1303 0
-672 -1305 0
-673 -1306 0
-675 -1307 0
-676 -1308 0
-677 -1309 0
-678 -1310 0
-674 -1321 0
-675 -1322 0
-676 -1323 0
-677 -1324 0
-678 -1325 0
-673 -1346 0
-674 -1347 0
-675 -1349 0
-677 -1350 0
-678 -1351 0
-671 -1360 0
-674 -1362 0
-676 -1364 0
-677 -1365 0
-678 -1366 0
-672 -1367 0
-674 -1370 0
-677 -1372 0
-678 -1373 0
-674 -1410 0
-676 -1412 0
-677 -1413 0
-678 -1414 0
-674 -1416 0
-675 -1418 0
-676 -1419 0
-677 -1420 0
-678 -1421 0
-673 -1464 0
-674 -1465 0
-675 -1466 0
-676 -1467 0
-677 -1468 0
-678 -1469 0
-672 -1478 0
-674 -1479 0
-676 -1481 0
-677 -1482 0
-678 -1483 0
-672 -1484 0
-673 -1486 0
-674 -1487 0
-677 -1489 0
-678 -1490 0
-672 -1492 0
-673 -1493 0
-674 -1494 0
-676 -1496 0
-677 -1497 0
-678 -1498 0
-673 -1520 0
-674 -1521 0
-676 -1522 0
-677 -1523 0
-678 -1524 0
-673 -1525 0
-674 -1526 0
-675 -1528 0
-676 -1529 0
-677 -1530 0
-678 -1531 0
-671 -1533 0
-673 -1536 0
-674 -1537 0
-675 -1539 0
-676 -1540 0
-677 -1541 0
-678 -1542 0
-671 -1556 0
-674 -1558 0
-675 -1560 0
-677 -1561 0
-678 -1562 0
-673 -1565 0
-674 -1566 0
-675 -1567 0
-677 -1568 0
-678 -1569 0
-671 -1576 0
-675 -1579 0
-676 -1580 0
-677 -1581 0
-678 -1582 0
-672 -1583 0
-674 -1586 0
-675 -1587 0
-677 -1588 0
-678 -1589 0
-674 -1630 0
-675 -1632 0
-676 -1633 0
-677 -1634 0
-678 -1635 0
-674 -1638 0
-676 -1639 0
-677 -1640 0
-678 -1641 0
-673 -1657 0
-674 -1658 0
-677 -1660 0
-678 -1661 0
-671 -1662 0
-672 -1663 0
-673 -1664 0
-674 -1665 0
-675 -1666 0
-676 -1667 0
-677 -1668 0
-678 -1669 0
-671 -1677 0
-673 -1679 0
-675 -1680 0
-676 -1681 0
-677 -1682 0
-678 -1683 0
-671 -1714 0
-673 -1715 0
-675 -1717 0
-677 -1718 0
-678 -1719 0
-672 -1720 0
-673 -1722 0
-674 -1723 0
-675 -1725 0
-676 -1726 0
-677 -1727 0
-678 -1728 0
-673 -1731 0
-675 -1733 0
-677 -1734 0
-678 -1735 0
-673 -1738 0
-674 -1739 0
-675 -1740 0
-676 -1741 0
-677 -1742 0
-678 -1743 0
-672 -1764 0
-674 -1766 0
-675 -1768 0
-676 -1769 0
-677 -1770 0
-678 -1771 0
-672 -1772 0
-673 -1774 0
-675 -1776 0
-677 -1777 0
-678 -1778 0
-672 -1780 0
-673 -1782 0
-674 -1783 0
-675 -1784 0
-676 -1785 0
-677 -1786 0
-678 -1787 0
-672 -1811 0
-674 -1812 0
-675 -1814 0
-677 -1815 0
-678 -1816 0
-673 -1826 0
-675 -1828 0
-676 -1829 0
-677 -1830 0
-678 -1831 0
-673 -1833 0
-674 -1834 0
-675 -1836 0
-677 -1837 0
-678 -1838 0
-672 -1839 0
-674 -1840 0
-676 -1842 0
-677 -1843 0
-678 -1844 0
-673 -1853 0
-676 -1855 0
-677 -1856 0
-678 -1857 0
-673 -1885 0
-675 -1886 0
-676 -1887 0
-677 -1888 0
-678 -1889 0
-672 -1903 0
-673 -1904 0
-675 -1906 0
-676 -1907 0
-677 -1908 0
-678 -1909 0
-673 -1917 0
-674 -1918 0
-675 -1920 0
-676 -1921 0
-677 -1922 0
-678 -1923 0
-674 -1933 0
-676 -1934 0
-677 -1935 0
-678 -1936 0
-673 -1973 0
-676 -1975 0
-677 -1976 0
-678 -1977 0
-673 -1979 0
-674 -1980 0
-676 -1981 0
-677 -1982 0
-678 -1983 0
-680 -730 0
-681 -732 0
-682 -733 0
-684 -734 0
-685 -735 0
-679 -756 0
-680 -757 0
-681 -760 0
-684 -761 0
-685 -762 0
-680 -771 0
-681 -775 0
-682 -776 0
-684 -777 0
-685 -778 0
-680 -795 0
-681 -797 0
-684 -798 0
-685 -799 0
-680 -829 0
-682 -832 0
-684 -833 0
-685 -834 0
-679 -841 0
-681 -843 0
-682 -844 0
-683 -845 0
-684 -846 0
-685 -847 0
-679 -854 0
-680 -855 0
-681 -859 0
-683 -860 0
-684 -861 0
-685 -862 0
-679 -863 0
-681 -867 0
-684 -868 0
-685 -869 0
-679 -878 0
-681 -884 0
-682 -885 0
-684 -886 0
-685 -887 0
-679 -894 0
-681 -898 0
-682 -899 0
-683 -900 0
-684 -901 0
-685 -902 0
-681 -912 0
-684 -913 0
-685 -914 0
-679 -923 0
-683 -927 0
-684 -928 0
-685 -929 0
-682 -940 0
-683 -941 0
-684 -942 0
-685 -943 0
-679 -951 0
-681 -954 0
-682 -955 0
-684 -956 0
-685 -957 0
-680 -967 0
-681 -971 0
-684 -972 0
-685 -973 0
-681 -1010 0
-682 -1011 0
-684 -1012 0
-685 -1013 0
-679 -1021 0
-682 -1024 0
-683 -1025 0
-684 -1026 0
-685 -1027 0
-680 -1036 0
-682 -1040 0
-683 -1041 0
-684 -1042 0
-685 -1043 0
-682 -1048 0
-684 -1049 0
-685 -1050 0
-684 -1065 0
-685 -1066 0
-682 -1078 0
-683 -1079 0
-684 -1080 0
-685 -1081 0
-679 -1089 0
-680 -1090 0
-683 -1093 0
-684 -1094 0
-685 -1095 0
-679 -1103 0
-680 -1105 0
-682 -1108 0
-683 -1109 0
-684 -1110 0
-685 -1111 0
-679 -1121 0
-682 -1125 0
-684 -1126 0
-685 -1127 0
-679 -1146 0
-682 -1149 0
-683 -1150 0
-684 -1151 0
-685 -1152 0
-680 -1160 0
-683 -1162 0
-684 -1163 0
-685 -1164 0
-684 -1170 0
-685 -1171 0
-682 -1182 0
-684 -1183 0
-685 -1184 0
-679 -1191 0
-681 -1194 0
-683 -1195 0
-684 -1196 0
-685 -1197 0
-681 -1228 0
-682 -1229 0
-683 -1230 0
-684 -1231 0
-685 -1232 0
-680 -1234 0
-683 -1237 0
-684 -1238 0
-685 -1239 0
-680 -1241 0
-684 -1244 0
-685 -1245 0
-680 -1254 0
-682 -1258 0
-684 -1259 0
-685 -1260 0
-680 -1269 0
-682 -1271 0
-683 -1272 0
-684 -1273 0
-685 -1274 0
-682 -1284 0
-684 -1285 0
-685 -1286 0
-680 -1295 0
-681 -1299 0
-682 -1300 0
-683 -1301 0
-684 -1302 0
-685 -1303 0
-680 -1312 0
-681 -1315 0
-683 -1316 0
-684 -1317 0
-685 -1318 0
-681 -1330 0
-684 -1331 0
-685 -1332 0
-681 -1340 0
-682 -1341 0
-683 -1342 0
-684 -1343 0
-685 -1344 0
-679 -1352 0
-681 -1356 0
-682 -1357 0
-684 -1358 0
-685 -1359 0
-680 -1367 0
-681 -1371 0
-684 -1372 0
-685 -1373 0
-681 -1404 0
-682 -1405 0
-684 -1406 0
-685 -1407 0
-681 -1425 0
-684 -1426 0
-685 -1427 0
-681 -1459 0
-682 -1460 0
-684 -1461 0
-685 -1462 0
-680 -1478 0
-681 -1480 0
-683 -1481 0
-684 -1482 0
-685 -1483 0
-680 -1484 0
-681 -1488 0
-684 -1489 0
-685 -1490 0
-680 -1500 0
-681 -1502 0
-682 -1503 0
-684 -1504 0
-685 -1505 0
-681 -1515 0
-682 -1516 0
-684 -1517 0
-685 -1518 0
-679 -1543 0
-682 -1546 0
-684 -1547 0
-685 -1548 0
-679 -1549 0
-683 -1553 0
-684 -1554 0
-685 -1555 0
-682 -1567 0
-684 -1568 0
-685 -1569 0
-679 -1570 0
-684 -1574 0
-685 -1575 0
-680 -1583 0
-682 -1587 0
-684 -1588 0
-685 -1589 0
-684 -1625 0
-685 -1626 0
-681 -1645 0
-682 -1646 0
-684 -1647 0
-685 -1648 0
-681 -1651 0
-682 -1652 0
-683 -1653 0
-684 -1654 0
-685 -1655 0
-679 -1670 0
-680 -1671 0
-681 -1672 0
-682 -1673 0
-683 -1674 0
-684 -1675 0
-685 -1676 0
-679 -1684 0
-681 -1688 0
-682 -1689 0
-684 -1690 0
-685 -1691 0
-679 -1707 0
-681 -1710 0
-683 -1711 0
-684 -1712 0
-685 -1713 0
-680 -1720 0
-681 -1724 0
-682 -1725 0
-683 -1726 0
-684 -1727 0
-685 -1728 0
-681 -1732 0
-682 -1733 0
-684 -1734 0
-685 -1735 0
-681 -1747 0
-682 -1748 0
-684 -1749 0
-685 -1750 0
-680 -1764 0
-681 -1767 0
-682 -1768 0
-683 -1769 0
-684 -1770 0
-685 -1771 0
-680 -1772 0
-681 -1775 0
-682 -1776 0
-684 -1777 0
-685 -1778 0
-680 -1789 0
-681 -1791 0
-682 -1792 0
-684 -1793 0
-685 -1794 0
-680 -1803 0
-681 -1806 0
-683 -1807 0
-684 -1808 0
-685 -1809 0
-681 -1821 0
-684 -1822 0
-685 -1823 0
-681 -1835 0
-682 -1836 0
-684 -1837 0
-685 -1838 0
-680 -1845 0
-681 -1847 0
-682 -1848 0
-683 -1849 0
-684 -1850 0
-685 -1851 0
-681 -1860 0
-682 -1861 0
-684 -1862 0
-685 -1863 0
-681 -1872 0
-682 -1873 0
-683 -1874 0
-684 -1875 0
-685 -1876 0
-681 -1881 0
-684 -1882 0
-685 -1883 0
-680 -1910 0
-682 -1913 0
-684 -1914 0
-685 -1915 0
-683 -1934 0
-684 -1935 0
-685 -1936 0
-681 -1974 0
-683 -1975 0
-684 -1976 0
-685 -1977 0
-681 -1985 0
-682 -1986 0
-683 -1987 0
-684 -1988 0
-685 -1989 0
-688 -725 0
-689 -726 0
-690 -727 0
-691 -728 0
-692 -729 0
-686 -757 0
-688 -759 0
-691 -761 0
-692 -762 0
-686 -764 0
-688 -766 0
-689 -767 0
-690 -768 0
-691 -769 0
-692 -770 0
-686 -829 0
-688 -831 0
-689 -832 0
-691 -833 0
-692 -834 0
-686 -835 0
-688 -836 0
-690 -838 0
-691 -839 0
-692 -840 0
-689 -844 0
-690 -845 0
-691 -846 0
-692 -847 0
-688 -851 0
-691 -852 0
-692 -853 0
-687 -865 0
-688 -866 0
-691 -868 0
-692 -869 0
-687 -873 0
-690 -875 0
-691 -876 0
-692 -877 0
-687 -881 0
-688 -883 0
-689 -885 0
-691 -886 0
-692 -887 0
-687 -916 0
-689 -919 0
-690 -920 0
-691 -921 0
-692 -922 0
-687 -924 0
-688 -926 0
-690 -927 0
-691 -928 0
-692 -929 0
-687 -931 0
-688 -933 0
-690 -935 0
-691 -936 0
-692 -937 0
-689 -955 0
-691 -956 0
-692 -957 0
-688 -962 0
-690 -963 0
-691 -964 0
-692 -965 0
-689 -1024 0
-690 -1025 0
-691 -1026 0
-692 -1027 0
-688 -1031 0
-689 -1033 0
-691 -1034 0
-692 -1035 0
-687 -1045 0
-688 -1047 0
-689 -1048 0
-691 -1049 0
-692 -1050 0
-687 -1053 0
-689 -1056 0
-690 -1057 0
-691 -1058 0
-692 -1059 0
-687 -1062 0
-688 -1064 0
-691 -1065 0
-692 -1066 0
-686 -1090 0
-688 -1092 0
-690 -1093 0
-691 -1094 0
-692 -1095 0
-686 -1098 0
-690 -1100 0
-691 -1101 0
-692 -1102 0
-686 -1105 0
-688 -1107 0
-689 -1108 0
-690 -1109 0
-691 -1110 0
-692 -1111 0
-686 -1137 0
-687 -1139 0
-688 -1140 0
-689 -1142 0
-690 -1143 0
-691 -1144 0
-692 -1145 0
-689 -1149 0
-690 -1150 0
-691 -1151 0
-692 -1152 0
-688 -1155 0
-691 -1157 0
-692 -1158 0
-687 -1167 0
-688 -1169 0
-691 -1170 0
-692 -1171 0
-687 -1173 0
-690 -1176 0
-691 -1177 0
-692 -1178 0
-687 -1180 0
-688 -1181 0
-689 -1182 0
-691 -1183 0
-692 -1184 0
-686 -1198 0
-687 -1199 0
-688 -1201 0
-690 -1202 0
-691 -1203 0
-692 -1204 0
-687 -1226 0
-688 -1227 0
-689 -1229 0
-690 -1230 0
-691 -1231 0
-692 -1232 0
-686 -1241 0
-688 -1243 0
-691 -1244 0
-692 -1245 0
-686 -1247 0
-690 -1250 0
-691 -1251 0
-692 -1252 0
-686 -1254 0
-688 -1257 0
-689 -1258 0
-691 -1259 0
-692 -1260 0
-689 -1284 0
-691 -1285 0
-692 -1286 0
-688 -1289 0
-690 -1291 0
-691 -1292 0
-692 -1293 0
-686 -1295 0
-688 -1298 0
-689 -1300 0
-690 -1301 0
-691 -1302 0
-692 -1303 0
-686 -1305 0
-689 -1307 0
-690 -1308 0
-691 -1309 0
-692 -1310 0
-686 -1312 0
-688 -1314 0
-690 -1316 0
-691 -1317 0
-692 -1318 0
-689 -1341 0
-690 -1342 0
-691 -1343 0
-692 -1344 0
-688 -1347 0
-689 -1349 0
-691 -1350 0
-692 -1351 0
-688 -1355 0
-689 -1357 0
-691 -1358 0
-692 -1359 0
-688 -1362 0
-690 -1364 0
-691 -1365 0
-692 -1366 0
-687 -1415 0
-688 -1416 0
-689 -1418 0
-690 -1419 0
-691 -1420 0
-692 -1421 0
-687 -1422 0
-688 -1424 0
-691 -1426 0
-692 -1427 0
-688 -1458 0
-689 -1460 0
-691 -1461 0
-692 -1462 0
-688 -1465 0
-689 -1466 0
-690 -1467 0
-691 -1468 0
-692 -1469 0
-686 -1484 0
-688 -1487 0
-691 -1489 0
-692 -1490 0
-686 -1492 0
-688 -1494 0
-690 -1496 0
-691 -1497 0
-692 -1498 0
-686 -1500 0
-688 -1501 0
-689 -1503 0
-691 -1504 0
-692 -1505 0
-688 -1514 0
-689 -1516 0
-691 -1517 0
-692 -1518 0
-688 -1521 0
-690 -1522 0
-691 -1523 0
-692 -1524 0
-687 -1535 0
-688 -1537 0
-689 -1539 0
-690 -1540 0
-691 -1541 0
-692 -1542 0
-687 -1545 0
-689 -1546 0
-691 -1547 0
-692 -1548 0
-688 -1573 0
-691 -1574 0
-692 -1575 0
-689 -1579 0
-690 -1580 0
-691 -1581 0
-692 -1582 0
-687 -1637 0
-688 -1638 0
-690 -1639 0
-691 -1640 0
-692 -1641 0
-687 -1643 0
-689 -1646 0
-691 -1647 0
-692 -1648 0
-686 -1663 0
-688 -1665 0
-689 -1666 0
-690 -1667 0
-691 -1668 0
-692 -1669 0
-686 -1671 0
-689 -1673 0
-690 -1674 0
-691 -1675 0
-692 -1676 0
-686 -1699 0
-687 -1701 0
-689 -1703 0
-690 -1704 0
-691 -1705 0
-692 -1706 0
-688 -1709 0
-690 -1711 0
-691 -1712 0
-692 -1713 0
-689 -1717 0
-691 -1718 0
-692 -1719 0
-687 -1730 0
-689 -1733 0
-691 -1734 0
-692 -1735 0
-687 -1737 0
-688 -1739 0
-689 -1740 0
-690 -1741 0
-691 -1742 0
-692 -1743 0
-687 -1745 0
-689 -1748 0
-691 -1749 0
-692 -1750 0
-686 -1772 0
-689 -1776 0
-691 -1777 0
-692 -1778 0
-686 -1780 0
-688 -1783 0
-689 -1784 0
-690 -1785 0
-691 -1786 0
-692 -1787 0
-686 -1789 0
-689 -1792 0
-691 -1793 0
-692 -1794 0
-688 -1820 0
-691 -1822 0
-692 -1823 0
-689 -1828 0
-690 -1829 0
-691 -1830 0
-692 -1831 0
-688 -1834 0
-689 -1836 0
-691 -1837 0
-692 -1838 0
-686 -1839 0
-688 -1840 0
-690 -1842 0
-691 -1843 0
-692 -1844 0
-686 -1845 0
-689 -1848 0
-690 -1849 0
-691 -1850 0
-692 -1851 0
-688 -1871 0
-689 -1873 0
-690 -1874 0
-691 -1875 0
-692 -1876 0
-686 -1903 0
-689 -1906 0
-690 -1907 0
-691 -1908 0
-692 -1909 0
-686 -1910 0
-688 -1912 0
-689 -1913 0
-691 -1914 0
-692 -1915 0
-688 -1918 0
-689 -1920 0
-690 -1921 0
-691 -1922 0
-692 -1923 0
-687 -1925 0
-689 -1927 0
-690 -1928 0
-691 -1929 0
-692 -1930 0
-686 -1944 0
-689 -1946 0
-690 -1947 0
-691 -1948 0
-692 -1949 0
-690 -1975 0
-691 -1976 0
-692 -1977 0
-688 -1980 0
-690 -1981 0
-691 -1982 0
-692 -1983 0
-689 -1986 0
-690 -1987 0
-691 -1988 0
-692 -1989 0
-695 -773 0
-696 -776 0
-698 -777 0
-699 -778 0
-693 -841 0
-696 -844 0
-697 -845 0
-698 -846 0
-699 -847 0
-693 -848 0
-695 -850 0
-698 -852 0
-699 -853 0
-693 -863 0
-698 -868 0
-699 -869 0
-693 -870 0
-694 -871 0
-697 -875 0
-698 -876 0
-699 -877 0
-693 -878 0
-694 -879 0
-695 -882 0
-696 -885 0
-698 -886 0
-699 -887 0
-693 -888 0
-696 -891 0
-698 -892 0
-699 -893 0
-693 -894 0
-694 -895 0
-696 -899 0
-697 -900 0
-698 -901 0
-699 -902 0
-693 -903 0
-694 -904 0
-695 -906 0
-698 -907 0
-699 -908 0
-694 -909 0
-698 -913 0
-699 -914 0
-693 -944 0
-695 -947 0
-696 -948 0
-698 -949 0
-699 -950 0
-694 -966 0
-695 -970 0
-698 -972 0
-699 -973 0
-694 -990 0
-695 -994 0
-696 -996 0
-698 -997 0
-699 -998 0
-693 -1021 0
-695 -1023 0
-696 -1024 0
-697 -1025 0
-698 -1026 0
-699 -1027 0
-693 -1028 0
-695 -1030 0
-696 -1033 0
-698 -1034 0
-699 -1035 0
-695 -1046 0
-696 -1048 0
-698 -1049 0
-699 -1050 0
-694 -1051 0
-695 -1054 0
-696 -1056 0
-697 -1057 0
-698 -1058 0
-699 -1059 0
-694 -1060 0
-695 -1063 0
-698 -1065 0
-699 -1066 0
-695 -1069 0
-696 -1071 0
-698 -1072 0
-699 -1073 0
-694 -1074 0
-695 -1076 0
-696 -1078 0
-697 -1079 0
-698 -1080 0
-699 -1081 0
-694 -1082 0
-695 -1084 0
-696 -1086 0
-698 -1087 0
-699 -1088 0
-693 -1112 0
-694 -1113 0
-695 -1115 0
-697 -1118 0
-698 -1119 0
-699 -1120 0
-693 -1121 0
-694 -1122 0
-696 -1125 0
-698 -1126 0
-699 -1127 0
-693 -1128 0
-694 -1129 0
-696 -1132 0
-697 -1133 0
-698 -1134 0
-699 -1135 0
-693 -1146 0
-694 -1147 0
-695 -1148 0
-696 -1149 0
-697 -1150 0
-698 -1151 0
-699 -1152 0
-693 -1153 0
-694 -1154 0
-698 -1157 0
-699 -1158 0
-694 -1165 0
-695 -1168 0
-698 -1170 0
-699 -1171 0
-694 -1172 0
-695 -1174 0
-697 -1176 0
-698 -1177 0
-699 -1178 0
-694 -1179 0
-696 -1182 0
-698 -1183 0
-699 -1184 0
-694 -1240 0
-698 -1244 0
-699 -1245 0
-694 -1246 0
-697 -1250 0
-698 -1251 0
-699 -1252 0
-694 -1253 0
-695 -1256 0
-696 -1258 0
-698 -1259 0
-699 -1260 0
-694 -1261 0
-696 -1265 0
-698 -1266 0
-699 -1267 0
-694 -1268 0
-696 -1271 0
-697 -1272 0
-698 -1273 0
-699 -1274 0
-694 -1275 0
-695 -1277 0
-698 -1279 0
-699 -1280 0
-694 -1319 0
-696 -1322 0
-697 -1323 0
-698 -1324 0
-699 -1325 0
-694 -1326 0
-695 -1328 0
-698 -1331 0
-699 -1332 0
-694 -1333 0
-695 -1334 0
-697 -1336 0
-698 -1337 0
-699 -1338 0
-694 -1339 0
-696 -1341 0
-697 -1342 0
-698 -1343 0
-699 -1344 0
-694 -1345 0
-695 -1346 0
-696 -1349 0
-698 -1350 0
-699 -1351 0
-698 -1372 0
-699 -1373 0
-696 -1389 0
-698 -1390 0
-699 -1391 0
-696 -1418 0
-697 -1419 0
-698 -1420 0
-699 -1421 0
-695 -1423 0
-698 -1426 0
-699 -1427 0
-695 -1486 0
-698 -1489 0
-699 -1490 0
-694 -1491 0
-695 -1493 0
-697 -1496 0
-698 -1497 0
-699 -1498 0
-694 -1499 0
-696 -1503 0
-698 -1504 0
-699 -1505 0
-695 -1507 0
-696 -1509 0
-698 -1510 0
-699 -1511 0
-695 -1525 0
-696 -1528 0
-697 -1529 0
-698 -1530 0
-699 -1531 0
-693 -1533 0
-695 -1536 0
-696 -1539 0
-697 -1540 0
-698 -1541 0
-699 -1542 0
-693 -1543 0
-696 -1546 0
-698 -1547 0
-699 -1548 0
-693 -1549 0
-695 -1551 0
-697 -1553 0
-698 -1554 0
-699 -1555 0
-693 -1556 0
-696 -1560 0
-698 -1561 0
-699 -1562 0
-695 -1565 0
-696 -1567 0
-698 -1568 0
-699 -1569 0
-696 -1587 0
-698 -1588 0
-699 -1589 0
-698 -1610 0
-699 -1611 0
-697 -1639 0
-698 -1640 0
-699 -1641 0
-695 -1644 0
-696 -1646 0
-698 -1647 0
-699 -1648 0
-696 -1652 0
-697 -1653 0
-698 -1654 0
-699 -1655 0
-695 -1657 0
-698 -1660 0
-699 -1661 0
-693 -1677 0
-695 -1679 0
-696 -1680 0
-697 -1681 0
-698 -1682 0
-699 -1683 0
-693 -1684 0
-695 -1686 0
-696 -1689 0
-698 -1690 0
-699 -1691 0
-693 -1692 0
-694 -1693 0
-695 -1694 0
-696 -1695 0
-697 -1696 0
-698 -1697 0
-699 -1698 0
-693 -1707 0
-695 -1708 0
-697 -1711 0
-698 -1712 0
-699 -1713 0
-693 -1714 0
-695 -1715 0
-696 -1717 0
-698 -1718 0
-699 -1719 0
-695 -1731 0
-696 -1733 0
-698 -1734 0
-699 -1735 0
-694 -1736 0
-695 -1738 0
-696 -1740 0
-697 -1741 0
-698 -1742 0
-699 -1743 0
-694 -1744 0
-695 -1746 0
-696 -1748 0
-698 -1749 0
-699 -1750 0
-695 -1774 0
-696 -1776 0
-698 -1777 0
-699 -1778 0
-694 -1779 0
-695 -1782 0
-696 -1784 0
-697 -1785 0
-698 -1786 0
-699 -1787 0
-694 -1788 0
-696 -1792 0
-698 -1793 0
-699 -1794 0
-695 -1797 0
-698 -1800 0
-699 -1801 0
-694 -1802 0
-695 -1804 0
-697 -1807 0
-698 -1808 0
-699 -1809 0
-694 -1810 0
-696 -1814 0
-698 -1815 0
-699 -1816 0
-695 -1853 0
-697 -1855 0
-698 -1856 0
-699 -1857 0
-696 -1861 0
-698 -1862 0
-699 -1863 0
-694 -1864 0
-696 -1866 0
-697 -1867 0
-698 -1868 0
-699 -1869 0
-695 -1870 0
-696 -1873 0
-697 -1874 0
-698 -1875 0
-699 -1876 0
-695 -1904 0
-696 -1906 0
-697 -1907 0
-698 -1908 0
-699 -1909 0
-695 -1911 0
-696 -1913 0
-698 -1914 0
-699 -1915 0
-696 -1941 0
-698 -1942 0
-699 -1943 0
-701 -842 0
-704 -844 0
-705 -845 0
-706 -846 0
-707 -847 0
-701 -849 0
-703 -850 0
-706 -852 0
-707 -853 0
-700 -855 0
-701 -856 0
-702 -857 0
-703 -858 0
-705 -860 0
-706 -861 0
-707 -862 0
-701 -872 0
-702 -873 0
-705 -875 0
-706 -876 0
-707 -877 0
-701 -880 0
-702 -881 0
-703 -882 0
-704 -885 0
-706 -886 0
-707 -887 0
-702 -896 0
-704 -899 0
-705 -900 0
-706 -901 0
-707 -902 0
-702 -905 0
-703 -906 0
-706 -907 0
-707 -908 0
-701 -930 0
-702 -931 0
-703 -932 0
-705 -935 0
-706 -936 0
-707 -937 0
-702 -938 0
-703 -939 0
-704 -940 0
-705 -941 0
-706 -942 0
-707 -943 0
-701 -1022 0
-703 -1023 0
-704 -1024 0
-705 -1025 0
-706 -1026 0
-707 -1027 0
-701 -1029 0
-703 -1030 0
-704 -1033 0
-706 -1034 0
-707 -1035 0
-700 -1036 0
-701 -1037 0
-702 -1038 0
-703 -1039 0
-704 -1040 0
-705 -1041 0
-706 -1042 0
-707 -1043 0
-701 -1052 0
-702 -1053 0
-703 -1054 0
-704 -1056 0
-705 -1057 0
-706 -1058 0
-707 -1059 0
-701 -1061 0
-702 -1062 0
-703 -1063 0
-706 -1065 0
-707 -1066 0
-702 -1075 0
-703 -1076 0
-704 -1078 0
-705 -1079 0
-706 -1080 0
-707 -1081 0
-702 -1083 0
-703 -1084 0
-704 -1086 0
-706 -1087 0
-707 -1088 0
-700 -1090 0
-701 -1091 0
-705 -1093 0
-706 -1094 0
-707 -1095 0
-701 -1114 0
-703 -1115 0
-705 -1118 0
-706 -1119 0
-707 -1120 0
-701 -1123 0
-704 -1125 0
-706 -1126 0
-707 -1127 0
-700 -1137 0
-701 -1138 0
-702 -1139 0
-704 -1142 0
-705 -1143 0
-706 -1144 0
-707 -1145 0
-703 -1148 0
-704 -1149 0
-705 -1150 0
-706 -1151 0
-707 -1152 0
-706 -1157 0
-707 -1158 0
-700 -1160 0
-702 -1161 0
-705 -1162 0
-706 -1163 0
-707 -1164 0
-702 -1173 0
-703 -1174 0
-705 -1176 0
-706 -1177 0
-707 -1178 0
-702 -1180 0
-704 -1182 0
-706 -1183 0
-707 -1184 0
-701 -1205 0
-702 -1206 0
-705 -1208 0
-706 -1209 0
-707 -1210 0
-702 -1226 0
-704 -1229 0
-705 -1230 0
-706 -1231 0
-707 -1232 0
-700 -1234 0
-701 -1235 0
-703 -1236 0
-705 -1237 0
-706 -1238 0
-707 -1239 0
-700 -1247 0
-701 -1248 0
-705 -1250 0
-706 -1251 0
-707 -1252 0
-700 -1254 0
-701 -1255 0
-703 -1256 0
-704 -1258 0
-706 -1259 0
-707 -1260 0
-700 -1269 0
-704 -1271 0
-705 -1272 0
-706 -1273 0
-707 -1274 0
-700 -1276 0
-703 -1277 0
-706 -1279 0
-707 -1280 0
-700 -1295 0
-701 -1296 0
-703 -1297 0
-704 -1300 0
-705 -1301 0
-706 -1302 0
-707 -1303 0
-701 -1320 0
-704 -1322 0
-705 -1323 0
-706 -1324 0
-707 -1325 0
-701 -1327 0
-703 -1328 0
-706 -1331 0
-707 -1332 0
-704 -1341 0
-705 -1342 0
-706 -1343 0
-707 -1344 0
-703 -1346 0
-704 -1349 0
-706 -1350 0
-707 -1351 0
-702 -1415 0
-704 -1418 0
-705 -1419 0
-706 -1420 0
-707 -1421 0
-702 -1422 0
-703 -1423 0
-706 -1426 0
-707 -1427 0
-700 -1478 0
-705 -1481 0
-706 -1482 0
-707 -1483 0
-700 -1492 0
-703 -1493 0
-705 -1496 0
-706 -1497 0
-707 -1498 0
-700 -1500 0
-704 -1503 0
-706 -1504 0
-707 -1505 0
-703 -1525 0
-704 -1528 0
-705 -1529 0
-706 -1530 0
-707 -1531 0
-701 -1534 0
-702 -1535 0
-703 -1536 0
-704 -1539 0
-705 -1540 0
-706 -1541 0
-707 -1542 0
-701 -1544 0
-702 -1545 0
-704 -1546 0
-706 -1547 0
-707 -1548 0
-702 -1550 0
-703 -1551 0
-705 -1553 0
-706 -1554 0
-707 -1555 0
-702 -1557 0
-704 -1560 0
-706 -1561 0
-707 -1562 0
-701 -1636 0
-702 -1637 0
-705 -1639 0
-706 -1640 0
-707 -1641 0
-701 -1642 0
-702 -1643 0
-703 -1644 0
-704 -1646 0
-706 -1647 0
-707 -1648 0
-702 -1649 0
-704 -1652 0
-705 -1653 0
-706 -1654 0
-707 -1655 0
-702 -1656 0
-703 -1657 0
-706 -1660 0
-707 -1661 0
-701 -1678 0
-703 -1679 0
-704 -1680 0
-705 -1681 0
-706 -1682 0
-707 -1683 0
-701 -1685 0
-703 -1686 0
-704 -1689 0
-706 -1690 0
-707 -1691 0
-700 -1699 0
-701 -1700 0
-702 -1701 0
-703 -1702 0
-704 -1703 0
-705 -1704 0
-706 -1705 0
-707 -1706 0
-703 -1708 0
-705 -1711 0
-706 -1712 0
-707 -1713 0
-703 -1715 0
-704 -1717 0
-706 -1718 0
-707 -1719 0
-700 -1720 0
-702 -1721 0
-703 -1722 0
-704 -1725 0
-705 -1726 0
-706 -1727 0
-707 -1728 0
-702 -1737 0
-703 -1738 0
-704 -1740 0
-705 -1741 0
-706 -1742 0
-707 -1743 0
-702 -1745 0
-703 -1746 0
-704 -1748 0
-706 -1749 0
-707 -1750 0
-700 -1764 0
-701 -1765 0
-704 -1768 0
-705 -1769 0
-706 -1770 0
-707 -1771 0
-700 -1780 0
-701 -1781 0
-703 -1782 0
-704 -1784 0
-705 -1785 0
-706 -1786 0
-707 -1787 0
-700 -1789 0
-701 -1790 0
-704 -1792 0
-706 -1793 0
-707 -1794 0
-700 -1803 0
-703 -1804 0
-705 -1807 0
-706 -1808 0
-707 -1809 0
-700 -1811 0
-704 -1814 0
-706 -1815 0
-707 -1816 0
-703 -1833 0
-704 -1836 0
-706 -1837 0
-707 -1838 0
-701 -1852 0
-703 -1853 0
-705 -1855 0
-706 -1856 0
-707 -1857 0
-701 -1858 0
-704 -1861 0
-706 -1862 0
-707 -1863 0
-703 -1870 0
-704 -1873 0
-705 -1874 0
-706 -1875 0
-707 -1876 0
-700 -1903 0
-703 -1904 0
-704 -1906 0
-705 -1907 0
-706 -1908 0
-707 -1909 0
-700 -1910 0
-703 -1911 0
-704 -1913 0
-706 -1914 0
-707 -1915 0
-701 -1924 0
-702 -1925 0
-704 -1927 0
-705 -1928 0
-706 -1929 0
-707 -1930 0
-701 -1931 0
-702 -1932 0
-705 -1934 0
-706 -1935 0
-707 -1936 0
-701 -1950 0
-703 -1951 0
-704 -1953 0
-705 -1954 0
-706 -1955 0
-707 -1956 0
-701 -1972 0
-703 -1973 0
-705 -1975 0
-706 -1976 0
-707 -1977 0
-709 -764 0
-711 -765 0
-712 -766 0
-714 -767 0
-715 -768 0
-716 -769 0
-717 -770 0
-709 -835 0
-712 -836 0
-713 -837 0
-715 -838 0
-716 -839 0
-717 -840 0
-713 -843 0
-714 -844 0
-715 -845 0
-716 -846 0
-717 -847 0
-709 -855 0
-710 -857 0
-711 -858 0
-713 -859 0
-715 -860 0
-716 -861 0
-717 -862 0
-710 -865 0
-712 -866 0
-713 -867 0
-716 -868 0
-717 -869 0
-708 -879 0
-710 -881 0
-711 -882 0
-712 -883 0
-713 -884 0
-714 -885 0
-716 -886 0
-717 -887 0
-710 -890 0
-714 -891 0
-716 -892 0
-717 -893 0
-708 -904 0
-710 -905 0
-711 -906 0
-716 -907 0
-717 -908 0
-710 -916 0
-711 -917 0
-713 -918 0
-714 -919 0
-715 -920 0
-716 -921 0
-717 -922 0
-710 -931 0
-711 -932 0
-712 -933 0
-713 -934 0
-715 -935 0
-716 -936 0
-717 -937 0
-710 -938 0
-711 -939 0
-714 -940 0
-715 -941 0
-716 -942 0
-717 -943 0
-709 -945 0
-711 -947 0
-714 -948 0
-716 -949 0
-717 -950 0
-708 -959 0
-711 -961 0
-712 -962 0
-715 -963 0
-716 -964 0
-717 -965 0
-708 -982 0
-711 -984 0
-713 -985 0
-714 -986 0
-715 -987 0
-716 -988 0
-717 -989 0
-711 -1023 0
-714 -1024 0
-715 -1025 0
-716 -1026 0
-717 -1027 0
-709 -1036 0
-710 -1038 0
-711 -1039 0
-714 -1040 0
-715 -1041 0
-716 -1042 0
-717 -1043 0
-710 -1045 0
-711 -1046 0
-712 -1047 0
-714 -1048 0
-716 -1049 0
-717 -1050 0
-708 -1060 0
-710 -1062 0
-711 -1063 0
-712 -1064 0
-716 -1065 0
-717 -1066 0
-710 -1068 0
-711 -1069 0
-713 -1070 0
-714 -1071 0
-716 -1072 0
-717 -1073 0
-708 -1082 0
-710 -1083 0
-711 -1084 0
-713 -1085 0
-714 -1086 0
-716 -1087 0
-717 -1088 0
-708 -1097 0
-709 -1098 0
-713 -1099 0
-715 -1100 0
-716 -1101 0
-717 -1102 0
-708 -1113 0
-711 -1115 0
-712 -1116 0
-713 -1117 0
-715 -1118 0
-716 -1119 0
-717 -1120 0
-708 -1129 0
-712 -1130 0
-713 -1131 0
-714 -1132 0
-715 -1133 0
-716 -1134 0
-717 -1135 0
-708 -1136 0
-709 -1137 0
-710 -1139 0
-712 -1140 0
-713 -1141 0
-714 -1142 0
-715 -1143 0
-716 -1144 0
-717 -1145 0
-708 -1147 0
-711 -1148 0
-714 -1149 0
-715 -1150 0
-716 -1151 0
-717 -1152 0
-708 -1159 0
-709 -1160 0
-710 -1161 0
-715 -1162 0
-716 -1163 0
-717 -1164 0
-708 -1165 0
-710 -1167 0
-711 -1168 0
-712 -1169 0
-716 -1170 0
-717 -1171 0
-708 -1179 0
-710 -1180 0
-712 -1181 0
-714 -1182 0
-716 -1183 0
-717 -1184 0
-708 -1211 0
-710 -1212 0
-712 -1213 0
-713 -1214 0
-715 -1215 0
-716 -1216 0
-717 -1217 0
-708 -1233 0
-709 -1234 0
-711 -1236 0
-715 -1237 0
-716 -1238 0
-717 -1239 0
-708 -1240 0
-709 -1241 0
-712 -1243 0
-716 -1244 0
-717 -1245 0
-708 -1253 0
-709 -1254 0
-711 -1256 0
-712 -1257 0
-714 -1258 0
-716 -1259 0
-717 -1260 0
-708 -1261 0
-709 -1262 0
-713 -1264 0
-714 -1265 0
-716 -1266 0
-717 -1267 0
-708 -1275 0
-709 -1276 0
-711 -1277 0
-713 -1278 0
-716 -1279 0
-717 -1280 0
-708 -1287 0
-712 -1289 0
-713 -1290 0
-715 -1291 0
-716 -1292 0
-717 -1293 0
-708 -1304 0
-709 -1305 0
-711 -1306 0
-714 -1307 0
-715 -1308 0
-716 -1309 0
-717 -1310 0
-708 -1319 0
-712 -1321 0
-714 -1322 0
-715 -1323 0
-716 -1324 0
-717 -1325 0
-708 -1333 0
-711 -1334 0
-712 -1335 0
-715 -1336 0
-716 -1337 0
-717 -1338 0
-708 -1339 0
-713 -1340 0
-714 -1341 0
-715 -1342 0
-716 -1343 0
-717 -1344 0
-712 -1362 0
-713 -1363 0
-715 -1364 0
-716 -1365 0
-717 -1366 0
-712 -1381 0
-714 -1382 0
-715 -1383 0
-716 -1384 0
-717 -1385 0
-710 -1422 0
-711 -1423 0
-712 -1424 0
-713 -1425 0
-716 -1426 0
-717 -1427 0
-711 -1464 0
-712 -1465 0
-714 -1466 0
-715 -1467 0
-716 -1468 0
-717 -1469 0
-711 -1471 0
-712 -1472 0
-713 -1473 0
-714 -1474 0
-715 -1475 0
-716 -1476 0
-717 -1477 0
-709 -1478 0
-712 -1479 0
-713 -1480 0
-715 -1481 0
-716 -1482 0
-717 -1483 0
-709 -1484 0
-711 -1486 0
-712 -1487 0
-713 -1488 0
-716 -1489 0
-717 -1490 0
-708 -1499 0
-709 -1500 0
-712 -1501 0
-713 -1502 0
-714 -1503 0
-716 -1504 0
-717 -1505 0
-709 -1506 0
-711 -1507 0
-712 -1508 0
-714 -1509 0
-716 -1510 0
-717 -1511 0
-708 -1519 0
-711 -1520 0
-712 -1521 0
-715 -1522 0
-716 -1523 0
-717 -1524 0
-711 -1525 0
-712 -1526 0
-713 -1527 0
-714 -1528 0
-715 -1529 0
-716 -1530 0
-717 -1531 0
-710 -1545 0
-714 -1546 0
-716 -1547 0
-717 -1548 0
-710 -1557 0
-712 -1558 0
-713 -1559 0
-714 -1560 0
-716 -1561 0
-717 -1562 0
-713 -1578 0
-714 -1579 0
-715 -1580 0
-716 -1581 0
-717 -1582 0
-712 -1600 0
-713 -1601 0
-715 -1602 0
-716 -1603 0
-717 -1604 0
-710 -1643 0
-711 -1644 0
-713 -1645 0
-714 -1646 0
-716 -1647 0
-717 -1648 0
-710 -1656 0
-711 -1657 0
-712 -1658 0
-713 -1659 0
-716 -1660 0
-717 -1661 0
-709 -1663 0
-711 -1664 0
-712 -1665 0
-714 -1666 0
-715 -1667 0
-716 -1668 0
-717 -1669 0
-711 -1679 0
-714 -1680 0
-715 -1681 0
-716 -1682 0
-717 -1683 0
-708 -1693 0
-711 -1694 0
-714 -1695 0
-715 -1696 0
-716 -1697 0
-717 -1698 0
-709 -1699 0
-710 -1701 0
-711 -1702 0
-714 -1703 0
-715 -1704 0
-716 -1705 0
-717 -1706 0
-711 -1708 0
-712 -1709 0
-713 -1710 0
-715 -1711 0
-716 -1712 0
-717 -1713 0
-709 -1720 0
-710 -1721 0
-711 -1722 0
-712 -1723 0
-713 -1724 0
-714 -1725 0
-715 -1726 0
-716 -1727 0
-717 -1728 0
-710 -1730 0
-711 -1731 0
-713 -1732 0
-714 -1733 0
-716 -1734 0
-717 -1735 0
-708 -1744 0
-710 -1745 0
-711 -1746 0
-713 -1747 0
-714 -1748 0
-716 -1749 0
-717 -1750 0
-710 -1751 0
-711 -1752 0
-714 -1753 0
-715 -1754 0
-716 -1755 0
-717 -1756 0
-709 -1764 0
-712 -1766 0
-713 -1767 0
-714 -1768 0
-715 -1769 0
-716 -1770 0
-717 -1771 0
-709 -1772 0
-711 -1774 0
-713 -1775 0
-714 -1776 0
-716 -1777 0
-717 -1778 0
-708 -1788 0
-709 -1789 0
-713 -1791 0
-714 -1792 0
-716 -1793 0
-717 -1794 0
-709 -1795 0
-711 -1797 0
-712 -1798 0
-713 -1799 0
-716 -1800 0
-717 -1801 0
-708 -1810 0
-709 -1811 0
-712 -1812 0
-713 -1813 0
-714 -1814 0
-716 -1815 0
-717 -1816 0
-708 -1824 0
-711 -1826 0
-713 -1827 0
-714 -1828 0
-715 -1829 0
-716 -1830 0
-717 -1831 0
-709 -1839 0
-712 -1840 0
-713 -1841 0
-715 -1842 0
-716 -1843 0
-717 -1844 0
-711 -1853 0
-713 -1854 0
-715 -1855 0
-716 -1856 0
-717 -1857 0
-708 -1864 0
-713 -1865 0
-714 -1866 0
-715 -1867 0
-716 -1868 0
-717 -1869 0
-711 -1870 0
-712 -1871 0
-713 -1872 0
-714 -1873 0
-715 -1874 0
-716 -1875 0
-717 -1876 0
-709 -1910 0
-711 -1911 0
-712 -1912 0
-714 -1913 0
-716 -1914 0
-717 -1915 0
-711 -1917 0
-712 -1918 0
-713 -1919 0
-714 -1920 0
-715 -1921 0
-716 -1922 0
-717 -1923 0
-710 -1925 0
-713 -1926 0
-714 -1927 0
-715 -1928 0
-716 -1929 0
-717 -1930 0
-710 -1932 0
-712 -1933 0
-715 -1934 0
-716 -1935 0
-717 -1936 0
-712 -1939 0
-713 -1940 0
-714 -1941 0
-716 -1942 0
-717 -1943 0
-708 -1957 0
-711 -1959 0
-713 -1960 0
-714 -1961 0
-715 -1962 0
-716 -1963 0
-717 -1964 0
-708 -1978 0
-711 -1979 0
-712 -1980 0
-715 -1981 0
-716 -1982 0
-717 -1983 0
-719 -757 0
-722 -761 0
-723 -762 0
-719 -829 0
-722 -833 0
-723 -834 0
-722 -852 0
-723 -853 0
-719 -855 0
-720 -857 0
-721 -860 0
-722 -861 0
-723 -862 0
-720 -865 0
-722 -868 0
-723 -869 0
-718 -871 0
-720 -873 0
-721 -875 0
-722 -876 0
-723 -877 0
-720 -890 0
-722 -892 0
-723 -893 0
-718 -895 0
-720 -896 0
-721 -900 0
-722 -901 0
-723 -902 0
-720 -924 0
-721 -927 0
-722 -928 0
-723 -929 0
-720 -931 0
-721 -935 0
-722 -936 0
-723 -937 0
-720 -938 0
-721 -941 0
-722 -942 0
-723 -943 0
-719 -945 0
-722 -949 0
-723 -950 0
-718 -952 0
-722 -956 0
-723 -957 0
-718 -975 0
-722 -979 0
-723 -980 0
-722 -1034 0
-723 -1035 0
-719 -1036 0
-720 -1038 0
-721 -1041 0
-722 -1042 0
-723 -1043 0
-720 -1045 0
-722 -1049 0
-723 -1050 0
-718 -1051 0
-720 -1053 0
-721 -1057 0
-722 -1058 0
-723 -1059 0
-720 -1068 0
-722 -1072 0
-723 -1073 0
-718 -1074 0
-720 -1075 0
-721 -1079 0
-722 -1080 0
-723 -1081 0
-718 -1104 0
-719 -1105 0
-721 -1109 0
-722 -1110 0
-723 -1111 0
-718 -1122 0
-722 -1126 0
-723 -1127 0
-718 -1129 0
-721 -1133 0
-722 -1134 0
-723 -1135 0
-718 -1136 0
-719 -1137 0
-720 -1139 0
-721 -1143 0
-722 -1144 0
-723 -1145 0
-718 -1154 0
-722 -1157 0
-723 -1158 0
-718 -1159 0
-719 -1160 0
-720 -1161 0
-721 -1162 0
-722 -1163 0
-723 -1164 0
-718 -1165 0
-720 -1167 0
-722 -1170 0
-723 -1171 0
-718 -1172 0
-720 -1173 0
-721 -1176 0
-722 -1177 0
-723 -1178 0
-718 -1218 0
-720 -1219 0
-721 -1223 0
-722 -1224 0
-723 -1225 0
-718 -1233 0
-719 -1234 0
-721 -1237 0
-722 -1238 0
-723 -1239 0
-718 -1240 0
-719 -1241 0
-722 -1244 0
-723 -1245 0
-718 -1246 0
-719 -1247 0
-721 -1250 0
-722 -1251 0
-723 -1252 0
-718 -1261 0
-719 -1262 0
-722 -1266 0
-723 -1267 0
-718 -1268 0
-719 -1269 0
-721 -1272 0
-722 -1273 0
-723 -1274 0
-718 -1281 0
-722 -1285 0
-723 -1286 0
-718 -1311 0
-719 -1312 0
-721 -1316 0
-722 -1317 0
-723 -1318 0
-718 -1326 0
-722 -1331 0
-723 -1332 0
-718 -1333 0
-721 -1336 0
-722 -1337 0
-723 -1338 0
-718 -1345 0
-722 -1350 0
-723 -1351 0
-722 -1358 0
-723 -1359 0
-722 -1378 0
-723 -1379 0
-720 -1415 0
-721 -1419 0
-722 -1420 0
-723 -1421 0
-722 -1461 0
-723 -1462 0
-719 -1478 0
-721 -1481 0
-722 -1482 0
-723 -1483 0
-719 -1484 0
-722 -1489 0
-723 -1490 0
-718 -1491 0
-719 -1492 0
-721 -1496 0
-722 -1497 0
-723 -1498 0
-719 -1506 0
-722 -1510 0
-723 -1511 0
-718 -1512 0
-722 -1517 0
-723 -1518 0
-720 -1535 0
-721 -1540 0
-722 -1541 0
-723 -1542 0
-720 -1550 0
-721 -1553 0
-722 -1554 0
-723 -1555 0
-722 -1574 0
-723 -1575 0
-722 -1596 0
-723 -1597 0
-720 -1637 0
-721 -1639 0
-722 -1640 0
-723 -1641 0
-720 -1649 0
-721 -1653 0
-722 -1654 0
-723 -1655 0
-719 -1671 0
-721 -1674 0
-722 -1675 0
-723 -1676 0
-722 -1690 0
-723 -1691 0
-718 -1693 0
-721 -1696 0
-722 -1697 0
-723 -1698 0
-719 -1699 0
-720 -1701 0
-721 -1704 0
-722 -1705 0
-723 -1706 0
-722 -1718 0
-723 -1719 0
-719 -1720 0
-720 -1721 0
-721 -1726 0
-722 -1727 0
-723 -1728 0
-720 -1730 0
-722 -1734 0
-723 -1735 0
-718 -1736 0
-720 -1737 0
-721 -1741 0
-722 -1742 0
-723 -1743 0
-720 -1757 0
-721 -1761 0
-722 -1762 0
-723 -1763 0
-719 -1764 0
-721 -1769 0
-722 -1770 0
-723 -1771 0
-719 -1772 0
-722 -1777 0
-723 -1778 0
-718 -1779 0
-719 -1780 0
-721 -1785 0
-722 -1786 0
-723 -1787 0
-719 -1795 0
-722 -1800 0
-723 -1801 0
-718 -1802 0
-719 -1803 0
-721 -1807 0
-722 -1808 0
-723 -1809 0
-718 -1817 0
-722 -1822 0
-723 -1823 0
-719 -1845 0
-721 -1849 0
-722 -1850 0
-723 -1851 0
-722 -1862 0
-723 -1863 0
-718 -1864 0
-721 -1867 0
-722 -1868 0
-723 -1869 0
-719 -1903 0
-721 -1907 0
-722 -1908 0
-723 -1909 0
-720 -1925 0
-721 -1928 0
-722 -1929 0
-723 -1930 0
-720 -1932 0
-721 -1934 0
-722 -1935 0
-723 -1936 0
-722 -1942 0
-723 -1943 0
-718 -1965 0
-721 -1969 0
-722 -1970 0
-723 -1971 0
-718 -1984 0
-721 -1987 0
-722 -1988 0
-723 -1989 0
-725 -774 0
-726 -776 0
-728 -777 0
-729 -778 0
-725 -782 0
-727 -783 0
-728 -784 0
-729 -785 0
-726 -810 0
-727 -811 0
-728 -812 0
-729 -813 0
-724 -841 0
-726 -844 0
-727 -845 0
-728 -846 0
-729 -847 0
-724 -848 0
-725 -851 0
-728 -852 0
-729 -853 0
-724 -863 0
-725 -866 0
-728 -868 0
-729 -869 0
-724 -870 0
-727 -875 0
-728 -876 0
-729 -877 0
-724 -878 0
-725 -883 0
-726 -885 0
-728 -886 0
-729 -887 0
-724 -915 0
-726 -919 0
-727 -920 0
-728 -921 0
-729 -922 0
-724 -923 0
-725 -926 0
-727 -927 0
-728 -928 0
-729 -929 0
-725 -933 0
-727 -935 0
-728 -936 0
-729 -937 0
-724 -944 0
-726 -948 0
-728 -949 0
-729 -950 0
-728 -972 0
-729 -973 0
-724 -974 0
-725 -977 0
-726 -978 0
-728 -979 0
-729 -980 0
-724 -981 0
-726 -986 0
-727 -987 0
-728 -988 0
-729 -989 0
-726 -1002 0
-727 -1003 0
-728 -1004 0
-729 -1005 0
-725 -1009 0
-726 -1011 0
-728 -1012 0
-729 -1013 0
-727 -1018 0
-728 -1019 0
-729 -1020 0
-726 -1040 0
-727 -1041 0
-728 -1042 0
-729 -1043 0
-726 -1071 0
-728 -1072 0
-729 -1073 0
-725 -1077 0
-726 -1078 0
-727 -1079 0
-728 -1080 0
-729 -1081 0
-726 -1086 0
-728 -1087 0
-729 -1088 0
-724 -1112 0
-725 -1116 0
-727 -1118 0
-728 -1119 0
-729 -1120 0
-724 -1121 0
-725 -1124 0
-726 -1125 0
-728 -1126 0
-729 -1127 0
-724 -1128 0
-725 -1130 0
-726 -1132 0
-727 -1133 0
-728 -1134 0
-729 -1135 0
-724 -1185 0
-725 -1186 0
-726 -1187 0
-727 -1188 0
-728 -1189 0
-729 -1190 0
-724 -1191 0
-725 -1193 0
-727 -1195 0
-728 -1196 0
-729 -1197 0
-725 -1207 0
-727 -1208 0
-728 -1209 0
-729 -1210 0
-725 -1213 0
-727 -1215 0
-728 -1216 0
-729 -1217 0
-725 -1221 0
-726 -1222 0
-727 -1223 0
-728 -1224 0
-729 -1225 0
-725 -1243 0
-728 -1244 0
-729 -1245 0
-727 -1250 0
-728 -1251 0
-729 -1252 0
-725 -1257 0
-726 -1258 0
-728 -1259 0
-729 -1260 0
-726 -1284 0
-728 -1285 0
-729 -1286 0
-725 -1289 0
-727 -1291 0
-728 -1292 0
-729 -1293 0
-725 -1298 0
-726 -1300 0
-727 -1301 0
-728 -1302 0
-729 -1303 0
-726 -1307 0
-727 -1308 0
-728 -1309 0
-729 -1310 0
-725 -1314 0
-727 -1316 0
-728 -1317 0
-729 -1318 0
-726 -1341 0
-727 -1342 0
-728 -1343 0
-729 -1344 0
-725 -1347 0
-726 -1349 0
-728 -1350 0
-729 -1351 0
-725 -1370 0
-728 -1372 0
-729 -1373 0
-724 -1374 0
-726 -1377 0
-728 -1378 0
-729 -1379 0
-724 -1380 0
-725 -1381 0
-726 -1382 0
-727 -1383 0
-728 -1384 0
-729 -1385 0
-725 -1395 0
-726 -1397 0
-727 -1398 0
-728 -1399 0
-729 -1400 0
-726 -1405 0
-728 -1406 0
-729 -1407 0
-725 -1410 0
-727 -1412 0
-728 -1413 0
-729 -1414 0
-726 -1438 0
-727 -1439 0
-728 -1440 0
-729 -1441 0
-725 -1487 0
-728 -1489 0
-729 -1490 0
-725 -1494 0
-727 -1496 0
-728 -1497 0
-729 -1498 0
-725 -1501 0
-726 -1503 0
-728 -1504 0
-729 -1505 0
-725 -1514 0
-726 -1516 0
-728 -1517 0
-729 -1518 0
-725 -1521 0
-727 -1522 0
-728 -1523 0
-729 -1524 0
-724 -1533 0
-725 -1537 0
-726 -1539 0
-727 -1540 0
-728 -1541 0
-729 -1542 0
-724 -1543 0
-726 -1546 0
-728 -1547 0
-729 -1548 0
-725 -1586 0
-726 -1587 0
-728 -1588 0
-729 -1589 0
-724 -1590 0
-725 -1593 0
-726 -1595 0
-728 -1596 0
-729 -1597 0
-724 -1598 0
-725 -1600 0
-727 -1602 0
-728 -1603 0
-729 -1604 0
-725 -1615 0
-727 -1617 0
-728 -1618 0
-729 -1619 0
-725 -1624 0
-728 -1625 0
-729 -1626 0
-725 -1630 0
-726 -1632 0
-727 -1633 0
-728 -1634 0
-729 -1635 0
-725 -1650 0
-726 -1652 0
-727 -1653 0
-728 -1654 0
-729 -1655 0
-725 -1658 0
-728 -1660 0
-729 -1661 0
-724 -1677 0
-726 -1680 0
-727 -1681 0
-728 -1682 0
-729 -1683 0
-724 -1684 0
-725 -1687 0
-726 -1689 0
-728 -1690 0
-729 -1691 0
-724 -1692 0
-726 -1695 0
-727 -1696 0
-728 -1697 0
-729 -1698 0
-726 -1753 0
-727 -1754 0
-728 -1755 0
-729 -1756 0
-725 -1758 0
-726 -1760 0
-727 -1761 0
-728 -1762 0
-729 -1763 0
-726 -1776 0
-728 -1777 0
-729 -1778 0
-725 -1783 0
-726 -1784 0
-727 -1785 0
-728 -1786 0
-729 -1787 0
-726 -1792 0
-728 -1793 0
-729 -1794 0
-725 -1820 0
-728 -1822 0
-729 -1823 0
-726 -1828 0
-727 -1829 0
-728 -1830 0
-729 -1831 0
-725 -1834 0
-726 -1836 0
-728 -1837 0
-729 -1838 0
-725 -1840 0
-727 -1842 0
-728 -1843 0
-729 -1844 0
-726 -1848 0
-727 -1849 0
-728 -1850 0
-729 -1851 0
-725 -1871 0
-726 -1873 0
-727 -1874 0
-728 -1875 0
-729 -1876 0
-725 -1880 0
-728 -1882 0
-729 -1883 0
-726 -1886 0
-727 -1887 0
-728 -1888 0
-729 -1889 0
-726 -1906 0
-727 -1907 0
-728 -1908 0
-729 -1909 0
-725 -1912 0
-726 -1913 0
-728 -1914 0
-729 -1915 0
-725 -1918 0
-726 -1920 0
-727 -1921 0
-728 -1922 0
-729 -1923 0
-730 -764 0
-733 -767 0
-734 -769 0
-735 -770 0
-730 -779 0
-731 -780 0
-734 -784 0
-735 -785 0
-730 -807 0
-732 -809 0
-733 -810 0
-734 -812 0
-735 -813 0
-730 -822 0
-732 -825 0
-734 -827 0
-735 -828 0
-732 -843 0
-733 -844 0
-734 -846 0
-735 -847 0
-730 -855 0
-731 -857 0
-732 -859 0
-734 -861 0
-735 -862 0
-731 -865 0
-732 -867 0
-734 -868 0
-735 -869 0
-731 -881 0
-732 -884 0
-733 -885 0
-734 -886 0
-735 -887 0
-731 -896 0
-732 -898 0
-733 -899 0
-734 -901 0
-735 -902 0
-731 -911 0
-732 -912 0
-734 -913 0
-735 -914 0
-731 -924 0
-734 -928 0
-735 -929 0
-731 -938 0
-733 -940 0
-734 -942 0
-735 -943 0
-730 -945 0
-733 -948 0
-734 -949 0
-735 -950 0
-734 -964 0
-735 -965 0
-733 -978 0
-734 -979 0
-735 -980 0
-730 -991 0
-731 -993 0
-733 -996 0
-734 -997 0
-735 -998 0
-731 -1001 0
-733 -1002 0
-734 -1004 0
-735 -1005 0
-731 -1016 0
-734 -1019 0
-735 -1020 0
-732 -1032 0
-733 -1033 0
-734 -1034 0
-735 -1035 0
-731 -1068 0
-732 -1070 0
-733 -1071 0
-734 -1072 0
-735 -1073 0
-731 -1083 0
-732 -1085 0
-733 -1086 0
-734 -1087 0
-735 -1088 0
-730 -1098 0
-732 -1099 0
-734 -1101 0
-735 -1102 0
-732 -1117 0
-734 -1119 0
-735 -1120 0
-732 -1131 0
-733 -1132 0
-734 -1134 0
-735 -1135 0
-730 -1137 0
-731 -1139 0
-732 -1141 0
-733 -1142 0
-734 -1144 0
-735 -1145 0
-731 -1173 0
-732 -1175 0
-734 -1177 0
-735 -1178 0
-733 -1187 0
-734 -1189 0
-735 -1190 0
-730 -1198 0
-731 -1199 0
-734 -1203 0
-735 -1204 0
-731 -1206 0
-734 -1209 0
-735 -1210 0
-731 -1219 0
-733 -1222 0
-734 -1224 0
-735 -1225 0
-730 -1234 0
-734 -1238 0
-735 -1239 0
-730 -1241 0
-734 -1244 0
-735 -1245 0
-730 -1254 0
-733 -1258 0
-734 -1259 0
-735 -1260 0
-730 -1269 0
-733 -1271 0
-734 -1273 0
-735 -1274 0
-733 -1284 0
-734 -1285 0
-735 -1286 0
-730 -1295 0
-732 -1299 0
-733 -1300 0
-734 -1302 0
-735 -1303 0
-730 -1312 0
-732 -1315 0
-734 -1317 0
-735 -1318 0
-732 -1330 0
-734 -1331 0
-735 -1332 0
-732 -1340 0
-733 -1341 0
-734 -1343 0
-735 -1344 0
-732 -1363 0
-734 -1365 0
-735 -1366 0
-732 -1376 0
-733 -1377 0
-734 -1378 0
-735 -1379 0
-730 -1386 0
-731 -1387 0
-732 -1388 0
-733 -1389 0
-734 -1390 0
-735 -1391 0
-731 -1393 0
-732 -1396 0
-733 -1397 0
-734 -1399 0
-735 -1400 0
-731 -1409 0
-732 -1411 0
-734 -1413 0
-735 -1414 0
-730 -1436 0
-733 -1438 0
-734 -1440 0
-735 -1441 0
-733 -1453 0
-734 -1455 0
-735 -1456 0
-732 -1473 0
-733 -1474 0
-734 -1476 0
-735 -1477 0
-730 -1478 0
-732 -1480 0
-734 -1482 0
-735 -1483 0
-730 -1484 0
-732 -1488 0
-734 -1489 0
-735 -1490 0
-730 -1500 0
-732 -1502 0
-733 -1503 0
-734 -1504 0
-735 -1505 0
-732 -1515 0
-733 -1516 0
-734 -1517 0
-735 -1518 0
-731 -1545 0
-733 -1546 0
-734 -1547 0
-735 -1548 0
-731 -1550 0
-734 -1554 0
-735 -1555 0
-731 -1564 0
-733 -1567 0
-734 -1568 0
-735 -1569 0
-732 -1578 0
-733 -1579 0
-734 -1581 0
-735 -1582 0
-732 -1594 0
-733 -1595 0
-734 -1596 0
-735 -1597 0
-730 -1605 0
-731 -1607 0
-732 -1609 0
-734 -1610 0
-735 -1611 0
-731 -1613 0
-732 -1616 0
-734 -1618 0
-735 -1619 0
-731 -1629 0
-732 -1631 0
-733 -1632 0
-734 -1634 0
-735 -1635 0
-731 -1656 0
-732 -1659 0
-734 -1660 0
-735 -1661 0
-730 -1663 0
-733 -1666 0
-734 -1668 0
-735 -1669 0
-733 -1680 0
-734 -1682 0
-735 -1683 0
-733 -1695 0
-734 -1697 0
-735 -1698 0
-730 -1699 0
-731 -1701 0
-733 -1703 0
-734 -1705 0
-735 -1706 0
-731 -1737 0
-733 -1740 0
-734 -1742 0
-735 -1743 0
-731 -1757 0
-732 -1759 0
-733 -1760 0
-734 -1762 0
-735 -1763 0
-730 -1764 0
-732 -1767 0
-733 -1768 0
-734 -1770 0
-735 -1771 0
-730 -1772 0
-732 -1775 0
-733 -1776 0
-734 -1777 0
-735 -1778 0
-730 -1789 0
-732 -1791 0
-733 -1792 0
-734 -1793 0
-735 -1794 0
-730 -1803 0
-732 -1806 0
-734 -1808 0
-735 -1809 0
-732 -1821 0
-734 -1822 0
-735 -1823 0
-732 -1835 0
-733 -1836 0
-734 -1837 0
-735 -1838 0
-730 -1845 0
-732 -1847 0
-733 -1848 0
-734 -1850 0
-735 -1851 0
-732 -1860 0
-733 -1861 0
-734 -1862 0
-735 -1863 0
-732 -1872 0
-733 -1873 0
-734 -1875 0
-735 -1876 0
-731 -1884 0
-733 -1886 0
-734 -1888 0
-735 -1889 0
-732 -1899 0
-734 -1901 0
-735 -1902 0
-730 -1910 0
-733 -1913 0
-734 -1914 0
-735 -1915 0
-731 -1925 0
-732 -1926 0
-733 -1927 0
-734 -1929 0
-735 -1930 0
-732 -1960 0
-733 -1961 0
-734 -1963 0
-735 -1964 0
-736 -757 0
-738 -758 0
-739 -759 0
-741 -761 0
-742 -762 0
-736 -779 0
-737 -780 0
-738 -781 0
-739 -782 0
-740 -783 0
-741 -784 0
-742 -785 0
-736 -807 0
-738 -808 0
-740 -811 0
-741 -812 0
-742 -813 0
-736 -815 0
-738 -816 0
-740 -818 0
-741 -819 0
-742 -820 0
-738 -850 0
-739 -851 0
-741 -852 0
-742 -853 0
-736 -855 0
-737 -857 0
-738 -858 0
-740 -860 0
-741 -861 0
-742 -862 0
-737 -865 0
-739 -866 0
-741 -868 0
-742 -869 0
-737 -873 0
-740 -875 0
-741 -876 0
-742 -877 0
-737 -905 0
-738 -906 0
-741 -907 0
-742 -908 0
-737 -911 0
-741 -913 0
-742 -914 0
-737 -916 0
-738 -917 0
-740 -920 0
-741 -921 0
-742 -922 0
-737 -938 0
-738 -939 0
-740 -941 0
-741 -942 0
-742 -943 0
-736 -945 0
-738 -947 0
-741 -949 0
-742 -950 0
-741 -956 0
-742 -957 0
-738 -984 0
-740 -987 0
-741 -988 0
-742 -989 0
-736 -991 0
-737 -993 0
-738 -994 0
-739 -995 0
-741 -997 0
-742 -998 0
-737 -1001 0
-740 -1003 0
-741 -1004 0
-742 -1005 0
-737 -1008 0
-739 -1009 0
-741 -1012 0
-742 -1013 0
-738 -1023 0
-740 -1025 0
-741 -1026 0
-742 -1027 0
-737 -1068 0
-738 -1069 0
-741 -1072 0
-742 -1073 0
-737 -1075 0
-738 -1076 0
-739 -1077 0
-740 -1079 0
-741 -1080 0
-742 -1081 0
-736 -1105 0
-738 -1106 0
-739 -1107 0
-740 -1109 0
-741 -1110 0
-742 -1111 0
-739 -1124 0
-741 -1126 0
-742 -1127 0
-739 -1130 0
-740 -1133 0
-741 -1134 0
-742 -1135 0
-736 -1137 0
-737 -1139 0
-739 -1140 0
-740 -1143 0
-741 -1144 0
-742 -1145 0
-737 -1180 0
-739 -1181 0
-741 -1183 0
-742 -1184 0
-738 -1192 0
-739 -1193 0
-740 -1195 0
-741 -1196 0
-742 -1197 0
-736 -1198 0
-737 -1199 0
-738 -1200 0
-739 -1201 0
-740 -1202 0
-741 -1203 0
-742 -1204 0
-737 -1206 0
-739 -1207 0
-740 -1208 0
-741 -1209 0
-742 -1210 0
-737 -1212 0
-739 -1213 0
-740 -1215 0
-741 -1216 0
-742 -1217 0
-736 -1234 0
-738 -1236 0
-740 -1237 0
-741 -1238 0
-742 -1239 0
-736 -1241 0
-739 -1243 0
-741 -1244 0
-742 -1245 0
-736 -1247 0
-740 -1250 0
-741 -1251 0
-742 -1252 0
-736 -1276 0
-738 -1277 0
-741 -1279 0
-742 -1280 0
-739 -1289 0
-740 -1291 0
-741 -1292 0
-742 -1293 0
-736 -1295 0
-738 -1297 0
-739 -1298 0
-740 -1301 0
-741 -1302 0
-742 -1303 0
-736 -1305 0
-738 -1306 0
-740 -1308 0
-741 -1309 0
-742 -1310 0
-739 -1321 0
-740 -1323 0
-741 -1324 0
-742 -1325 0
-738 -1346 0
-739 -1347 0
-741 -1350 0
-742 -1351 0
-738 -1354 0
-739 -1355 0
-741 -1358 0
-742 -1359 0
-739 -1381 0
-740 -1383 0
-741 -1384 0
-742 -1385 0
-736 -1386 0
-737 -1387 0
-741 -1390 0
-742 -1391 0
-737 -1393 0
-738 -1394 0
-739 -1395 0
-740 -1398 0
-741 -1399 0
-742 -1400 0
-737 -1402 0
-738 -1403 0
-741 -1406 0
-742 -1407 0
-736 -1436 0
-740 -1439 0
-741 -1440 0
-742 -1441 0
-738 -1444 0
-740 -1447 0
-741 -1448 0
-742 -1449 0
-736 -1478 0
-739 -1479 0
-740 -1481 0
-741 -1482 0
-742 -1483 0
-736 -1484 0
-738 -1486 0
-739 -1487 0
-741 -1489 0
-742 -1490 0
-736 -1492 0
-738 -1493 0
-739 -1494 0
-740 -1496 0
-741 -1497 0
-742 -1498 0
-738 -1520 0
-739 -1521 0
-740 -1522 0
-741 -1523 0
-742 -1524 0
-738 -1525 0
-739 -1526 0
-740 -1529 0
-741 -1530 0
-742 -1531 0
-737 -1535 0
-738 -1536 0
-739 -1537 0
-740 -1540 0
-741 -1541 0
-742 -1542 0
-737 -1557 0
-739 -1558 0
-741 -1561 0
-742 -1562 0
-737 -1564 0
-738 -1565 0
-739 -1566 0
-741 -1568 0
-742 -1569 0
-738 -1572 0
-739 -1573 0
-741 -1574 0
-742 -1575 0
-739 -1600 0
-740 -1602 0
-741 -1603 0
-742 -1604 0
-736 -1605 0
-737 -1607 0
-739 -1608 0
-741 -1610 0
-742 -1611 0
-737 -1613 0
-738 -1614 0
-739 -1615 0
-740 -1617 0
-741 -1618 0
-742 -1619 0
-737 -1622 0
-738 -1623 0
-739 -1624 0
-741 -1625 0
-742 -1626 0
-737 -1649 0
-739 -1650 0
-740 -1653 0
-741 -1654 0
-742 -1655 0
-736 -1671 0
-740 -1674 0
-741 -1675 0
-742 -1676 0
-738 -1686 0
-739 -1687 0
-741 -1690 0
-742 -1691 0
-738 -1694 0
-740 -1696 0
-741 -1697 0
-742 -1698 0
-736 -1699 0
-737 -1701 0
-738 -1702 0
-740 -1704 0
-741 -1705 0
-742 -1706 0
-737 -1745 0
-738 -1746 0
-741 -1749 0
-742 -1750 0
-737 -1751 0
-738 -1752 0
-740 -1754 0
-741 -1755 0
-742 -1756 0
-736 -1764 0
-739 -1766 0
-740 -1769 0
-741 -1770 0
-742 -1771 0
-736 -1772 0
-738 -1774 0
-741 -1777 0
-742 -1778 0
-736 -1780 0
-738 -1782 0
-739 -1783 0
-740 -1785 0
-741 -1786 0
-742 -1787 0
-736 -1811 0
-739 -1812 0
-741 -1815 0
-742 -1816 0
-738 -1826 0
-740 -1829 0
-741 -1830 0
-742 -1831 0
-738 -1833 0
-739 -1834 0
-741 -1837 0
-742 -1838 0
-736 -1839 0
-739 -1840 0
-740 -1842 0
-741 -1843 0
-742 -1844 0
-738 -1853 0
-740 -1855 0
-741 -1856 0
-742 -1857 0
-737 -1878 0
-738 -1879 0
-739 -1880 0
-741 -1882 0
-742 -1883 0
-738 -1891 0
-739 -1892 0
-740 -1894 0
-741 -1895 0
-742 -1896 0
-736 -1903 0
-738 -1904 0
-740 -1907 0
-741 -1908 0
-742 -1909 0
-738 -1917 0
-739 -1918 0
-740 -1921 0
-741 -1922 0
-742 -1923 0
-737 -1925 0
-740 -1928 0
-741 -1929 0
-742 -1930 0
-739 -1967 0
-740 -1969 0
-741 -1970 0
-742 -1971 0
-738 -1991 0
-739 -1992 0
-740 -1995 0
-741 -1996 0
-742 -1997 0
-744 -765 0
-745 -767 0
-746 -768 0
-747 -769 0
-748 -770 0
-743 -772 0
-744 -773 0
-745 -776 0
-747 -777 0
-748 -778 0
-745 -803 0
-746 -804 0
-747 -805 0
-748 -806 0
-745 -844 0
-746 -845 0
-747 -846 0
-748 -847 0
-743 -865 0
-747 -868 0
-748 -869 0
-743 -873 0
-746 -875 0
-747 -876 0
-748 -877 0
-743 -890 0
-745 -891 0
-747 -892 0
-748 -893 0
-743 -896 0
-745 -899 0
-746 -900 0
-747 -901 0
-748 -902 0
-743 -911 0
-747 -913 0
-748 -914 0
-743 -916 0
-744 -917 0
-745 -919 0
-746 -920 0
-747 -921 0
-748 -922 0
-743 -931 0
-744 -932 0
-746 -935 0
-747 -936 0
-748 -937 0
-743 -938 0
-744 -939 0
-745 -940 0
-746 -941 0
-747 -942 0
-748 -943 0
-744 -947 0
-745 -948 0
-747 -949 0
-748 -950 0
-744 -961 0
-746 -963 0
-747 -964 0
-748 -965 0
-743 -969 0
-744 -970 0
-747 -972 0
-748 -973 0
-744 -984 0
-745 -986 0
-746 -987 0
-747 -988 0
-748 -989 0
-743 -993 0
-744 -994 0
-745 -996 0
-747 -997 0
-748 -998 0
-743 -1016 0
-744 -1017 0
-746 -1018 0
-747 -1019 0
-748 -1020 0
-744 -1030 0
-745 -1033 0
-747 -1034 0
-748 -1035 0
-743 -1038 0
-744 -1039 0
-745 -1040 0
-746 -1041 0
-747 -1042 0
-748 -1043 0
-743 -1062 0
-744 -1063 0
-747 -1065 0
-748 -1066 0
-743 -1083 0
-744 -1084 0
-745 -1086 0
-747 -1087 0
-748 -1088 0
-744 -1115 0
-746 -1118 0
-747 -1119 0
-748 -1120 0
-744 -1148 0
-745 -1149 0
-746 -1150 0
-747 -1151 0
-748 -1152 0
-743 -1167 0
-744 -1168 0
-747 -1170 0
-748 -1171 0
-743 -1173 0
-744 -1174 0
-746 -1176 0
-747 -1177 0
-748 -1178 0
-745 -1187 0
-746 -1188 0
-747 -1189 0
-748 -1190 0
-743 -1206 0
-746 -1208 0
-747 -1209 0
-748 -1210 0
-743 -1212 0
-746 -1215 0
-747 -1216 0
-748 -1217 0
-743 -1226 0
-745 -1229 0
-746 -1230 0
-747 -1231 0
-748 -1232 0
-747 -1244 0
-748 -1245 0
-746 -1250 0
-747 -1251 0
-748 -1252 0
-745 -1265 0
-747 -1266 0
-748 -1267 0
-745 -1271 0
-746 -1272 0
-747 -1273 0
-748 -1274 0
-746 -1291 0
-747 -1292 0
-748 -1293 0
-744 -1297 0
-745 -1300 0
-746 -1301 0
-747 -1302 0
-748 -1303 0
-744 -1306 0
-745 -1307 0
-746 -1308 0
-747 -1309 0
-748 -1310 0
-744 -1328 0
-747 -1331 0
-748 -1332 0
-744 -1334 0
-746 -1336 0
-747 -1337 0
-748 -1338 0
-744 -1346 0
-745 -1349 0
-747 -1350 0
-748 -1351 0
-746 -1364 0
-747 -1365 0
-748 -1366 0
-743 -1369 0
-747 -1372 0
-748 -1373 0
-745 -1382 0
-746 -1383 0
-747 -1384 0
-748 -1385 0
-743 -1387 0
-745 -1389 0
-747 -1390 0
-748 -1391 0
-743 -1409 0
-746 -1412 0
-747 -1413 0
-748 -1414 0
-743 -1422 0
-744 -1423 0
-747 -1426 0
-748 -1427 0
-744 -1486 0
-747 -1489 0
-748 -1490 0
-744 -1493 0
-746 -1496 0
-747 -1497 0
-748 -1498 0
-744 -1507 0
-745 -1509 0
-747 -1510 0
-748 -1511 0
-744 -1520 0
-746 -1522 0
-747 -1523 0
-748 -1524 0
-743 -1535 0
-744 -1536 0
-745 -1539 0
-746 -1540 0
-747 -1541 0
-748 -1542 0
-743 -1550 0
-744 -1551 0
-746 -1553 0
-747 -1554 0
-748 -1555 0
-743 -1564 0
-744 -1565 0
-745 -1567 0
-747 -1568 0
-748 -1569 0
-745 -1579 0
-746 -1580 0
-747 -1581 0
-748 -1582 0
-743 -1585 0
-745 -1587 0
-747 -1588 0
-748 -1589 0
-746 -1602 0
-747 -1603 0
-748 -1604 0
-743 -1607 0
-747 -1610 0
-748 -1611 0
-743 -1629 0
-745 -1632 0
-746 -1633 0
-747 -1634 0
-748 -1635 0
-743 -1643 0
-744 -1644 0
-745 -1646 0
-747 -1647 0
-748 -1648 0
-743 -1656 0
-744 -1657 0
-747 -1660 0
-748 -1661 0
-744 -1679 0
-745 -1680 0
-746 -1681 0
-747 -1682 0
-748 -1683 0
-744 -1708 0
-746 -1711 0
-747 -1712 0
-748 -1713 0
-743 -1730 0
-744 -1731 0
-745 -1733 0
-747 -1734 0
-748 -1735 0
-743 -1737 0
-744 -1738 0
-745 -1740 0
-746 -1741 0
-747 -1742 0
-748 -1743 0
-743 -1751 0
-744 -1752 0
-745 -1753 0
-746 -1754 0
-747 -1755 0
-748 -1756 0
-744 -1774 0
-745 -1776 0
-747 -1777 0
-748 -1778 0
-744 -1782 0
-745 -1784 0
-746 -1785 0
-747 -1786 0
-748 -1787 0
-744 -1797 0
-747 -1800 0
-748 -1801 0
-744 -1804 0
-746 -1807 0
-747 -1808 0
-748 -1809 0
-744 -1826 0
-745 -1828 0
-746 -1829 0
-747 -1830 0
-748 -1831 0
-744 -1833 0
-745 -1836 0
-747 -1837 0
-748 -1838 0
-746 -1842 0
-747 -1843 0
-748 -1844 0
-745 -1861 0
-747 -1862 0
-748 -1863 0
-745 -1866 0
-746 -1867 0
-747 -1868 0
-748 -1869 0
-743 -1884 0
-744 -1885 0
-745 -1886 0
-746 -1887 0
-747 -1888 0
-748 -1889 0
-744 -1904 0
-745 -1906 0
-746 -1907 0
-747 -1908 0
-748 -1909 0
-744 -1917 0
-745 -1920 0
-746 -1921 0
-747 -1922 0
-748 -1923 0
-745 -1941 0
-747 -1942 0
-748 -1943 0
-750 -759 0
-751 -760 0
-754 -761 0
-755 -762 0
-749 -772 0
-750 -774 0
-751 -775 0
-752 -776 0
-754 -777 0
-755 -778 0
-751 -797 0
-754 -798 0
-755 -799 0
-750 -851 0
-754 -852 0
-755 -853 0
-749 -865 0
-750 -866 0
-751 -867 0
-754 -868 0
-755 -869 0
-749 -881 0
-750 -883 0
-751 -884 0
-752 -885 0
-754 -886 0
-755 -887 0
-749 -890 0
-752 -891 0
-754 -892 0
-755 -893 0
-749 -905 0
-754 -907 0
-755 -908 0
-749 -911 0
-751 -912 0
-754 -913 0
-755 -914 0
-749 -924 0
-750 -926 0
-753 -927 0
-754 -928 0
-755 -929 0
-749 -931 0
-750 -933 0
-751 -934 0
-753 -935 0
-754 -936 0
-755 -937 0
-749 -938 0
-752 -940 0
-753 -941 0
-754 -942 0
-755 -943 0
-752 -948 0
-754 -949 0
-755 -950 0
-751 -954 0
-752 -955 0
-754 -956 0
-755 -957 0
-749 -969 0
-751 -971 0
-754 -972 0
-755 -973 0
-750 -977 0
-752 -978 0
-754 -979 0
-755 -980 0
-749 -993 0
-750 -995 0
-752 -996 0
-754 -997 0
-755 -998 0
-749 -1008 0
-750 -1009 0
-751 -1010 0
-752 -1011 0
-754 -1012 0
-755 -1013 0
-752 -1024 0
-753 -1025 0
-754 -1026 0
-755 -1027 0
-749 -1038 0
-752 -1040 0
-753 -1041 0
-754 -1042 0
-755 -1043 0
-749 -1053 0
-751 -1055 0
-752 -1056 0
-753 -1057 0
-754 -1058 0
-755 -1059 0
-749 -1075 0
-750 -1077 0
-752 -1078 0
-753 -1079 0
-754 -1080 0
-755 -1081 0
-750 -1124 0
-752 -1125 0
-754 -1126 0
-755 -1127 0
-750 -1155 0
-751 -1156 0
-754 -1157 0
-755 -1158 0
-749 -1167 0
-750 -1169 0
-754 -1170 0
-755 -1171 0
-749 -1180 0
-750 -1181 0
-752 -1182 0
-754 -1183 0
-755 -1184 0
-750 -1193 0
-751 -1194 0
-753 -1195 0
-754 -1196 0
-755 -1197 0
-749 -1206 0
-750 -1207 0
-753 -1208 0
-754 -1209 0
-755 -1210 0
-749 -1219 0
-750 -1221 0
-752 -1222 0
-753 -1223 0
-754 -1224 0
-755 -1225 0
-749 -1226 0
-750 -1227 0
-751 -1228 0
-752 -1229 0
-753 -1230 0
-754 -1231 0
-755 -1232 0
-750 -1243 0
-754 -1244 0
-755 -1245 0
-750 -1257 0
-752 -1258 0
-754 -1259 0
-755 -1260 0
-751 -1264 0
-752 -1265 0
-754 -1266 0
-755 -1267 0
-751 -1278 0
-754 -1279 0
-755 -1280 0
-752 -1284 0
-754 -1285 0
-755 -1286 0
-750 -1298 0
-751 -1299 0
-752 -1300 0
-753 -1301 0
-754 -1302 0
-755 -1303 0
-750 -1314 0
-751 -1315 0
-753 -1316 0
-754 -1317 0
-755 -1318 0
-750 -1321 0
-752 -1322 0
-753 -1323 0
-754 -1324 0
-755 -1325 0
-750 -1335 0
-753 -1336 0
-754 -1337 0
-755 -1338 0
-751 -1340 0
-752 -1341 0
-753 -1342 0
-754 -1343 0
-755 -1344 0
-750 -1355 0
-751 -1356 0
-752 -1357 0
-754 -1358 0
-755 -1359 0
-749 -1369 0
-750 -1370 0
-751 -1371 0
-754 -1372 0
-755 -1373 0
-751 -1376 0
-752 -1377 0
-754 -1378 0
-755 -1379 0
-749 -1387 0
-751 -1388 0
-752 -1389 0
-754 -1390 0
-755 -1391 0
-749 -1402 0
-751 -1404 0
-752 -1405 0
-754 -1406 0
-755 -1407 0
-749 -1415 0
-750 -1416 0
-751 -1417 0
-752 -1418 0
-753 -1419 0
-754 -1420 0
-755 -1421 0
-750 -1487 0
-751 -1488 0
-754 -1489 0
-755 -1490 0
-750 -1501 0
-751 -1502 0
-752 -1503 0
-754 -1504 0
-755 -1505 0
-750 -1508 0
-752 -1509 0
-754 -1510 0
-755 -1511 0
-750 -1514 0
-751 -1515 0
-752 -1516 0
-754 -1517 0
-755 -1518 0
-750 -1526 0
-751 -1527 0
-752 -1528 0
-753 -1529 0
-754 -1530 0
-755 -1531 0
-749 -1545 0
-752 -1546 0
-754 -1547 0
-755 -1548 0
-749 -1557 0
-750 -1558 0
-751 -1559 0
-752 -1560 0
-754 -1561 0
-755 -1562 0
-749 -1564 0
-750 -1566 0
-752 -1567 0
-754 -1568 0
-755 -1569 0
-750 -1573 0
-754 -1574 0
-755 -1575 0
-749 -1585 0
-750 -1586 0
-752 -1587 0
-754 -1588 0
-755 -1589 0
-750 -1593 0
-751 -1594 0
-752 -1595 0
-754 -1596 0
-755 -1597 0
-749 -1607 0
-750 -1608 0
-751 -1609 0
-754 -1610 0
-755 -1611 0
-749 -1622 0
-750 -1624 0
-754 -1625 0
-755 -1626 0
-749 -1637 0
-750 -1638 0
-753 -1639 0
-754 -1640 0
-755 -1641 0
-749 -1649 0
-750 -1650 0
-751 -1651 0
-752 -1652 0
-753 -1653 0
-754 -1654 0
-755 -1655 0
-750 -1687 0
-751 -1688 0
-752 -1689 0
-754 -1690 0
-755 -1691 0
-751 -1716 0
-752 -1717 0
-754 -1718 0
-755 -1719 0
-749 -1730 0
-751 -1732 0
-752 -1733 0
-754 -1734 0
-755 -1735 0
-749 -1745 0
-751 -1747 0
-752 -1748 0
-754 -1749 0
-755 -1750 0
-749 -1757 0
-750 -1758 0
-751 -1759 0
-752 -1760 0
-753 -1761 0
-754 -1762 0
-755 -1763 0
-751 -1775 0
-752 -1776 0
-754 -1777 0
-755 -1778 0
-751 -1791 0
-752 -1792 0
-754 -1793 0
-755 -1794 0
-750 -1798 0
-751 -1799 0
-754 -1800 0
-755 -1801 0
-750 -1812 0
-751 -1813 0
-752 -1814 0
-754 -1815 0
-755 -1816 0
-750 -1820 0
-751 -1821 0
-754 -1822 0
-755 -1823 0
-750 -1834 0
-751 -1835 0
-752 -1836 0
-754 -1837 0
-755 -1838 0
-751 -1847 0
-752 -1848 0
-753 -1849 0
-754 -1850 0
-755 -1851 0
-751 -1854 0
-753 -1855 0
-754 -1856 0
-755 -1857 0
-751 -1865 0
-752 -1866 0
-753 -1867 0
-754 -1868 0
-755 -1869 0
-750 -1871 0
-751 -1872 0
-752 -1873 0
-753 -1874 0
-754 -1875 0
-755 -1876 0
-749 -1878 0
-750 -1880 0
-751 -1881 0
-754 -1882 0
-755 -1883 0
-750 -1912 0
-752 -1913 0
-754 -1914 0
-755 -1915 0
-750 -1939 0
-751 -1940 0
-752 -1941 0
-754 -1942 0
-755 -1943 0
-756 -848 0
-758 -850 0
-759 -851 0
-761 -852 0
-762 -853 0
-756 -854 0
-757 -855 0
-758 -858 0
-760 -859 0
-761 -861 0
-762 -862 0
-756 -878 0
-758 -882 0
-759 -883 0
-760 -884 0
-761 -886 0
-762 -887 0
-756 -888 0
-761 -892 0
-762 -893 0
-756 -894 0
-759 -897 0
-760 -898 0
-761 -901 0
-762 -902 0
-760 -912 0
-761 -913 0
-762 -914 0
-756 -915 0
-758 -917 0
-760 -918 0
-761 -921 0
-762 -922 0
-758 -932 0
-759 -933 0
-760 -934 0
-761 -936 0
-762 -937 0
-756 -944 0
-757 -945 0
-758 -947 0
-761 -949 0
-762 -950 0
-756 -958 0
-758 -961 0
-759 -962 0
-761 -964 0
-762 -965 0
-757 -967 0
-758 -970 0
-760 -971 0
-761 -972 0
-762 -973 0
-756 -974 0
-759 -977 0
-761 -979 0
-762 -980 0
-761 -1004 0
-762 -1005 0
-759 -1009 0
-760 -1010 0
-761 -1012 0
-762 -1013 0
-756 -1021 0
-758 -1023 0
-761 -1026 0
-762 -1027 0
-758 -1046 0
-759 -1047 0
-761 -1049 0
-762 -1050 0
-758 -1054 0
-760 -1055 0
-761 -1058 0
-762 -1059 0
-756 -1103 0
-757 -1105 0
-758 -1106 0
-759 -1107 0
-761 -1110 0
-762 -1111 0
-756 -1153 0
-759 -1155 0
-760 -1156 0
-761 -1157 0
-762 -1158 0
-757 -1160 0
-761 -1163 0
-762 -1164 0
-759 -1181 0
-761 -1183 0
-762 -1184 0
-756 -1191 0
-758 -1192 0
-759 -1193 0
-760 -1194 0
-761 -1196 0
-762 -1197 0
-757 -1198 0
-758 -1200 0
-759 -1201 0
-761 -1203 0
-762 -1204 0
-758 -1220 0
-759 -1221 0
-761 -1224 0
-762 -1225 0
-759 -1227 0
-760 -1228 0
-761 -1231 0
-762 -1232 0
-757 -1234 0
-758 -1236 0
-761 -1238 0
-762 -1239 0
-757 -1254 0
-758 -1256 0
-759 -1257 0
-761 -1259 0
-762 -1260 0
-757 -1262 0
-760 -1264 0
-761 -1266 0
-762 -1267 0
-757 -1269 0
-759 -1270 0
-761 -1273 0
-762 -1274 0
-759 -1289 0
-760 -1290 0
-761 -1292 0
-762 -1293 0
-757 -1295 0
-758 -1297 0
-759 -1298 0
-760 -1299 0
-761 -1302 0
-762 -1303 0
-757 -1305 0
-758 -1306 0
-761 -1309 0
-762 -1310 0
-758 -1328 0
-759 -1329 0
-760 -1330 0
-761 -1331 0
-762 -1332 0
-758 -1334 0
-759 -1335 0
-761 -1337 0
-762 -1338 0
-760 -1340 0
-761 -1343 0
-762 -1344 0
-756 -1380 0
-759 -1381 0
-761 -1384 0
-762 -1385 0
-757 -1386 0
-760 -1388 0
-761 -1390 0
-762 -1391 0
-759 -1410 0
-760 -1411 0
-761 -1413 0
-762 -1414 0
-758 -1423 0
-759 -1424 0
-760 -1425 0
-761 -1426 0
-762 -1427 0
-757 -1436 0
-761 -1440 0
-762 -1441 0
-759 -1452 0
-761 -1455 0
-762 -1456 0
-758 -1464 0
-759 -1465 0
-761 -1468 0
-762 -1469 0
-756 -1543 0
-761 -1547 0
-762 -1548 0
-756 -1549 0
-758 -1551 0
-759 -1552 0
-761 -1554 0
-762 -1555 0
-758 -1565 0
-759 -1566 0
-761 -1568 0
-762 -1569 0
-756 -1576 0
-760 -1578 0
-761 -1581 0
-762 -1582 0
-757 -1583 0
-759 -1586 0
-761 -1588 0
-762 -1589 0
-756 -1590 0
-758 -1592 0
-759 -1593 0
-760 -1594 0
-761 -1596 0
-762 -1597 0
-758 -1614 0
-759 -1615 0
-760 -1616 0
-761 -1618 0
-762 -1619 0
-758 -1623 0
-759 -1624 0
-761 -1625 0
-762 -1626 0
-759 -1638 0
-761 -1640 0
-762 -1641 0
-756 -1670 0
-757 -1671 0
-760 -1672 0
-761 -1675 0
-762 -1676 0
-756 -1714 0
-758 -1715 0
-760 -1716 0
-761 -1718 0
-762 -1719 0
-757 -1720 0
-758 -1722 0
-759 -1723 0
-760 -1724 0
-761 -1727 0
-762 -1728 0
-758 -1746 0
-760 -1747 0
-761 -1749 0
-762 -1750 0
-759 -1758 0
-760 -1759 0
-761 -1762 0
-762 -1763 0
-757 -1764 0
-759 -1766 0
-760 -1767 0
-761 -1770 0
-762 -1771 0
-757 -1789 0
-760 -1791 0
-761 -1793 0
-762 -1794 0
-757 -1795 0
-758 -1797 0
-759 -1798 0
-760 -1799 0
-761 -1800 0
-762 -1801 0
-757 -1803 0
-758 -1804 0
-759 -1805 0
-760 -1806 0
-761 -1808 0
-762 -1809 0
-758 -1826 0
-760 -1827 0
-761 -1830 0
-762 -1831 0
-758 -1833 0
-759 -1834 0
-760 -1835 0
-761 -1837 0
-762 -1838 0
-757 -1839 0
-759 -1840 0
-760 -1841 0
-761 -1843 0
-762 -1844 0
-759 -1859 0
-760 -1860 0
-761 -1862 0
-762 -1863 0
-760 -1865 0
-761 -1868 0
-762 -1869 0
-758 -1870 0
-759 -1871 0
-760 -1872 0
-761 -1875 0
-762 -1876 0
-758 -1885 0
-761 -1888 0
-762 -1889 0
-758 -1898 0
-760 -1899 0
-761 -1901 0
-762 -1902 0
-760 -1926 0
-761 -1929 0
-762 -1930 0
-757 -1944 0
-761 -1948 0
-762 -1949 0
-759 -1967 0
-761 -1970 0
-762 -1971 0
-758 -1973 0
-760 -1974 0
-761 -1976 0
-762 -1977 0
-758 -1979 0
-759 -1980 0
-761 -1982 0
-762 -1983 0
-763 -841 0
-767 -844 0
-768 -845 0
-769 -846 0
-770 -847 0
-763 -854 0
-764 -855 0
-765 -858 0
-768 -860 0
-769 -861 0
-770 -862 0
-763 -870 0
-768 -875 0
-769 -876 0
-770 -877 0
-763 -888 0
-767 -891 0
-769 -892 0
-770 -893 0
-763 -903 0
-765 -906 0
-769 -907 0
-770 -908 0
-769 -913 0
-770 -914 0
-763 -923 0
-765 -925 0
-766 -926 0
-768 -927 0
-769 -928 0
-770 -929 0
-765 -932 0
-766 -933 0
-768 -935 0
-769 -936 0
-770 -937 0
-763 -944 0
-764 -945 0
-765 -947 0
-767 -948 0
-769 -949 0
-770 -950 0
-763 -951 0
-767 -955 0
-769 -956 0
-770 -957 0
-764 -967 0
-765 -970 0
-769 -972 0
-770 -973 0
-763 -981 0
-765 -984 0
-767 -986 0
-768 -987 0
-769 -988 0
-770 -989 0
-767 -1002 0
-768 -1003 0
-769 -1004 0
-770 -1005 0
-765 -1017 0
-768 -1018 0
-769 -1019 0
-770 -1020 0
-763 -1028 0
-765 -1030 0
-766 -1031 0
-767 -1033 0
-769 -1034 0
-770 -1035 0
-765 -1046 0
-766 -1047 0
-767 -1048 0
-769 -1049 0
-770 -1050 0
-765 -1063 0
-766 -1064 0
-769 -1065 0
-770 -1066 0
-763 -1096 0
-764 -1098 0
-768 -1100 0
-769 -1101 0
-770 -1102 0
-763 -1146 0
-765 -1148 0
-767 -1149 0
-768 -1150 0
-769 -1151 0
-770 -1152 0
-764 -1160 0
-768 -1162 0
-769 -1163 0
-770 -1164 0
-765 -1174 0
-768 -1176 0
-769 -1177 0
-770 -1178 0
-763 -1185 0
-766 -1186 0
-767 -1187 0
-768 -1188 0
-769 -1189 0
-770 -1190 0
-764 -1198 0
-765 -1200 0
-766 -1201 0
-768 -1202 0
-769 -1203 0
-770 -1204 0
-766 -1213 0
-768 -1215 0
-769 -1216 0
-770 -1217 0
-766 -1227 0
-767 -1229 0
-768 -1230 0
-769 -1231 0
-770 -1232 0
-764 -1234 0
-765 -1236 0
-768 -1237 0
-769 -1238 0
-770 -1239 0
-764 -1247 0
-768 -1250 0
-769 -1251 0
-770 -1252 0
-764 -1262 0
-767 -1265 0
-769 -1266 0
-770 -1267 0
-764 -1276 0
-765 -1277 0
-769 -1279 0
-770 -1280 0
-765 -1283 0
-767 -1284 0
-769 -1285 0
-770 -1286 0
-764 -1295 0
-765 -1297 0
-766 -1298 0
-767 -1300 0
-768 -1301 0
-769 -1302 0
-770 -1303 0
-764 -1312 0
-765 -1313 0
-766 -1314 0
-768 -1316 0
-769 -1317 0
-770 -1318 0
-766 -1321 0
-767 -1322 0
-768 -1323 0
-769 -1324 0
-770 -1325 0
-765 -1334 0
-766 -1335 0
-768 -1336 0
-769 -1337 0
-770 -1338 0
-765 -1346 0
-766 -1347 0
-767 -1349 0
-769 -1350 0
-770 -1351 0
-763 -1374 0
-765 -1375 0
-767 -1377 0
-769 -1378 0
-770 -1379 0
-764 -1386 0
-767 -1389 0
-769 -1390 0
-770 -1391 0
-765 -1403 0
-767 -1405 0
-769 -1406 0
-770 -1407 0
-766 -1416 0
-767 -1418 0
-768 -1419 0
-769 -1420 0
-770 -1421 0
-764 -1436 0
-767 -1438 0
-768 -1439 0
-769 -1440 0
-770 -1441 0
-765 -1444 0
-767 -1446 0
-768 -1447 0
-769 -1448 0
-770 -1449 0
-766 -1458 0
-767 -1460 0
-769 -1461 0
-770 -1462 0
-765 -1471 0
-766 -1472 0
-767 -1474 0
-768 -1475 0
-769 -1476 0
-770 -1477 0
-763 -1533 0
-765 -1536 0
-766 -1537 0
-767 -1539 0
-768 -1540 0
-769 -1541 0
-770 -1542 0
-763 -1556 0
-766 -1558 0
-767 -1560 0
-769 -1561 0
-770 -1562 0
-765 -1565 0
-766 -1566 0
-767 -1567 0
-769 -1568 0
-770 -1569 0
-763 -1570 0
-765 -1572 0
-766 -1573 0
-769 -1574 0
-770 -1575 0
-764 -1583 0
-766 -1586 0
-767 -1587 0
-769 -1588 0
-770 -1589 0
-763 -1598 0
-766 -1600 0
-768 -1602 0
-769 -1603 0
-770 -1604 0
-765 -1614 0
-766 -1615 0
-768 -1617 0
-769 -1618 0
-770 -1619 0
-766 -1630 0
-767 -1632 0
-768 -1633 0
-769 -1634 0
-770 -1635 0
-765 -1644 0
-767 -1646 0
-769 -1647 0
-770 -1648 0
-763 -1662 0
-764 -1663 0
-765 -1664 0
-766 -1665 0
-767 -1666 0
-768 -1667 0
-769 -1668 0
-770 -1669 0
-763 -1707 0
-765 -1708 0
-766 -1709 0
-768 -1711 0
-769 -1712 0
-770 -1713 0
-764 -1720 0
-765 -1722 0
-766 -1723 0
-767 -1725 0
-768 -1726 0
-769 -1727 0
-770 -1728 0
-765 -1738 0
-766 -1739 0
-767 -1740 0
-768 -1741 0
-769 -1742 0
-770 -1743 0
-765 -1752 0
-767 -1753 0
-768 -1754 0
-769 -1755 0
-770 -1756 0
-764 -1764 0
-766 -1766 0
-767 -1768 0
-768 -1769 0
-769 -1770 0
-770 -1771 0
-764 -1780 0
-765 -1782 0
-766 -1783 0
-767 -1784 0
-768 -1785 0
-769 -1786 0
-770 -1787 0
-764 -1795 0
-765 -1797 0
-766 -1798 0
-769 -1800 0
-770 -1801 0
-764 -1811 0
-766 -1812 0
-767 -1814 0
-769 -1815 0
-770 -1816 0
-765 -1819 0
-766 -1820 0
-769 -1822 0
-770 -1823 0
-765 -1833 0
-766 -1834 0
-767 -1836 0
-769 -1837 0
-770 -1838 0
-764 -1845 0
-765 -1846 0
-767 -1848 0
-768 -1849 0
-769 -1850 0
-770 -1851 0
-765 -1853 0
-768 -1855 0
-769 -1856 0
-770 -1857 0
-767 -1866 0
-768 -1867 0
-769 -1868 0
-770 -1869 0
-765 -1879 0
-766 -1880 0
-769 -1882 0
-770 -1883 0
-765 -1891 0
-766 -1892 0
-767 -1893 0
-768 -1894 0
-769 -1895 0
-770 -1896 0
-767 -1927 0
-768 -1928 0
-769 -1929 0
-770 -1930 0
-764 -1944 0
-767 -1946 0
-768 -1947 0
-769 -1948 0
-770 -1949 0
-765 -1959 0
-767 -1961 0
-768 -1962 0
-769 -1963 0
-770 -1964 0
-765 -1973 0
-768 -1975 0
-769 -1976 0
-770 -1977 0
-767 -1986 0
-768 -1987 0
-769 -1988 0
-770 -1989 0
-765 -1991 0
-766 -1992 0
-767 -1994 0
-768 -1995 0
-769 -1996 0
-770 -1997 0
-775 -843 0
-776 -844 0
-777 -846 0
-778 -847 0
-773 -850 0
-774 -851 0
-777 -852 0
-778 -853 0
-772 -890 0
-776 -891 0
-777 -892 0
-778 -893 0
-772 -896 0
-774 -897 0
-775 -898 0
-776 -899 0
-777 -901 0
-778 -902 0
-772 -905 0
-773 -906 0
-777 -907 0
-778 -908 0
-772 -916 0
-773 -917 0
-775 -918 0
-776 -919 0
-777 -921 0
-778 -922 0
-772 -924 0
-773 -925 0
-774 -926 0
-777 -928 0
-778 -929 0
-772 -938 0
-773 -939 0
-776 -940 0
-777 -942 0
-778 -943 0
-771 -945 0
-773 -947 0
-776 -948 0
-777 -949 0
-778 -950 0
-775 -954 0
-776 -955 0
-777 -956 0
-778 -957 0
-773 -961 0
-774 -962 0
-777 -964 0
-778 -965 0
-771 -991 0
-772 -993 0
-773 -994 0
-774 -995 0
-776 -996 0
-777 -997 0
-778 -998 0
-772 -1001 0
-776 -1002 0
-777 -1004 0
-778 -1005 0
-772 -1008 0
-774 -1009 0
-775 -1010 0
-776 -1011 0
-777 -1012 0
-778 -1013 0
-772 -1016 0
-773 -1017 0
-777 -1019 0
-778 -1020 0
-771 -1036 0
-772 -1038 0
-773 -1039 0
-776 -1040 0
-777 -1042 0
-778 -1043 0
-772 -1045 0
-773 -1046 0
-774 -1047 0
-776 -1048 0
-777 -1049 0
-778 -1050 0
-772 -1053 0
-773 -1054 0
-775 -1055 0
-776 -1056 0
-777 -1058 0
-778 -1059 0
-772 -1062 0
-773 -1063 0
-774 -1064 0
-777 -1065 0
-778 -1066 0
-773 -1148 0
-776 -1149 0
-777 -1151 0
-778 -1152 0
-774 -1155 0
-775 -1156 0
-777 -1157 0
-778 -1158 0
-774 -1186 0
-776 -1187 0
-777 -1189 0
-778 -1190 0
-773 -1192 0
-774 -1193 0
-775 -1194 0
-777 -1196 0
-778 -1197 0
-772 -1226 0
-774 -1227 0
-775 -1228 0
-776 -1229 0
-777 -1231 0
-778 -1232 0
-771 -1262 0
-775 -1264 0
-776 -1265 0
-777 -1266 0
-778 -1267 0
-771 -1269 0
-774 -1270 0
-776 -1271 0
-777 -1273 0
-778 -1274 0
-771 -1276 0
-773 -1277 0
-775 -1278 0
-777 -1279 0
-778 -1280 0
-773 -1283 0
-776 -1284 0
-777 -1285 0
-778 -1286 0
-774 -1289 0
-775 -1290 0
-777 -1292 0
-778 -1293 0
-771 -1295 0
-773 -1297 0
-774 -1298 0
-775 -1299 0
-776 -1300 0
-777 -1302 0
-778 -1303 0
-771 -1305 0
-773 -1306 0
-776 -1307 0
-777 -1309 0
-778 -1310 0
-771 -1312 0
-773 -1313 0
-774 -1314 0
-775 -1315 0
-777 -1317 0
-778 -1318 0
-774 -1321 0
-776 -1322 0
-777 -1324 0
-778 -1325 0
-773 -1328 0
-774 -1329 0
-775 -1330 0
-777 -1331 0
-778 -1332 0
-773 -1334 0
-774 -1335 0
-777 -1337 0
-778 -1338 0
-773 -1375 0
-775 -1376 0
-776 -1377 0
-777 -1378 0
-778 -1379 0
-774 -1381 0
-776 -1382 0
-777 -1384 0
-778 -1385 0
-771 -1436 0
-776 -1438 0
-777 -1440 0
-778 -1441 0
-773 -1444 0
-775 -1445 0
-776 -1446 0
-777 -1448 0
-778 -1449 0
-774 -1452 0
-776 -1453 0
-777 -1455 0
-778 -1456 0
-774 -1458 0
-775 -1459 0
-776 -1460 0
-777 -1461 0
-778 -1462 0
-773 -1464 0
-774 -1465 0
-776 -1466 0
-777 -1468 0
-778 -1469 0
-772 -1550 0
-773 -1551 0
-774 -1552 0
-777 -1554 0
-778 -1555 0
-772 -1557 0
-774 -1558 0
-775 -1559 0
-776 -1560 0
-777 -1561 0
-778 -1562 0
-773 -1572 0
-774 -1573 0
-777 -1574 0
-778 -1575 0
-775 -1578 0
-776 -1579 0
-777 -1581 0
-778 -1582 0
-771 -1605 0
-772 -1607 0
-774 -1608 0
-775 -1609 0
-777 -1610 0
-778 -1611 0
-772 -1613 0
-773 -1614 0
-774 -1615 0
-775 -1616 0
-777 -1618 0
-778 -1619 0
-772 -1622 0
-773 -1623 0
-774 -1624 0
-777 -1625 0
-778 -1626 0
-772 -1629 0
-774 -1630 0
-775 -1631 0
-776 -1632 0
-777 -1634 0
-778 -1635 0
-772 -1637 0
-774 -1638 0
-777 -1640 0
-778 -1641 0
-772 -1643 0
-773 -1644 0
-775 -1645 0
-776 -1646 0
-777 -1647 0
-778 -1648 0
-773 -1708 0
-774 -1709 0
-775 -1710 0
-777 -1712 0
-778 -1713 0
-773 -1715 0
-775 -1716 0
-776 -1717 0
-777 -1718 0
-778 -1719 0
-771 -1795 0
-773 -1797 0
-774 -1798 0
-775 -1799 0
-777 -1800 0
-778 -1801 0
-771 -1803 0
-773 -1804 0
-774 -1805 0
-775 -1806 0
-777 -1808 0
-778 -1809 0
-771 -1811 0
-774 -1812 0
-775 -1813 0
-776 -1814 0
-777 -1815 0
-778 -1816 0
-773 -1819 0
-774 -1820 0
-775 -1821 0
-777 -1822 0
-778 -1823 0
-773 -1826 0
-775 -1827 0
-776 -1828 0
-777 -1830 0
-778 -1831 0
-773 -1833 0
-774 -1834 0
-775 -1835 0
-776 -1836 0
-777 -1837 0
-778 -1838 0
-771 -1839 0
-774 -1840 0
-775 -1841 0
-777 -1843 0
-778 -1844 0
-771 -1845 0
-773 -1846 0
-775 -1847 0
-776 -1848 0
-777 -1850 0
-778 -1851 0
-773 -1853 0
-775 -1854 0
-777 -1856 0
-778 -1857 0
-774 -1859 0
-775 -1860 0
-776 -1861 0
-777 -1862 0
-778 -1863 0
-775 -1865 0
-776 -1866 0
-777 -1868 0
-778 -1869 0
-773 -1891 0
-774 -1892 0
-776 -1893 0
-777 -1895 0
-778 -1896 0
-773 -1898 0
-775 -1899 0
-777 -1901 0
-778 -1902 0
-772 -1932 0
-774 -1933 0
-777 -1935 0
-778 -1936 0
-773 -1973 0
-775 -1974 0
-777 -1976 0
-778 -1977 0
-773 -1979 0
-774 -1980 0
-777 -1982 0
-778 -1983 0
-775 -1985 0
-776 -1986 0
-777 -1988 0
-778 -1989 0
-773 -1991 0
-774 -1992 0
-775 -1993 0
-776 -1994 0
-777 -1996 0
-778 -1997 0
-783 -845 0
-784 -846 0
-785 -847 0
-781 -850 0
-782 -851 0
-784 -852 0
-785 -853 0
-779 -855 0
-780 -857 0
-781 -858 0
-783 -860 0
-784 -861 0
-785 -862 0
-780 -873 0
-783 -875 0
-784 -876 0
-785 -877 0
-780 -881 0
-781 -882 0
-782 -883 0
-784 -886 0
-785 -887 0
-780 -896 0
-782 -897 0
-783 -900 0
-784 -901 0
-785 -902 0
-780 -905 0
-781 -906 0
-784 -907 0
-785 -908 0
-780 -931 0
-781 -932 0
-782 -933 0
-783 -935 0
-784 -936 0
-785 -937 0
-780 -938 0
-781 -939 0
-783 -941 0
-784 -942 0
-785 -943 0
-779 -945 0
-781 -947 0
-784 -949 0
-785 -950 0
-784 -956 0
-785 -957 0
-781 -961 0
-782 -962 0
-783 -963 0
-784 -964 0
-785 -965 0
-779 -967 0
-780 -969 0
-781 -970 0
-784 -972 0
-785 -973 0
-782 -977 0
-784 -979 0
-785 -980 0
-781 -984 0
-783 -987 0
-784 -988 0
-785 -989 0
-779 -991 0
-780 -993 0
-781 -994 0
-782 -995 0
-784 -997 0
-785 -998 0
-780 -1008 0
-782 -1009 0
-784 -1012 0
-785 -1013 0
-780 -1016 0
-781 -1017 0
-783 -1018 0
-784 -1019 0
-785 -1020 0
-780 -1045 0
-781 -1046 0
-782 -1047 0
-784 -1049 0
-785 -1050 0
-780 -1068 0
-781 -1069 0
-784 -1072 0
-785 -1073 0
-779 -1098 0
-783 -1100 0
-784 -1101 0
-785 -1102 0
-779 -1105 0
-781 -1106 0
-782 -1107 0
-783 -1109 0
-784 -1110 0
-785 -1111 0
-782 -1130 0
-783 -1133 0
-784 -1134 0
-785 -1135 0
-782 -1186 0
-783 -1188 0
-784 -1189 0
-785 -1190 0
-781 -1192 0
-782 -1193 0
-783 -1195 0
-784 -1196 0
-785 -1197 0
-779 -1198 0
-780 -1199 0
-781 -1200 0
-782 -1201 0
-783 -1202 0
-784 -1203 0
-785 -1204 0
-780 -1212 0
-782 -1213 0
-783 -1215 0
-784 -1216 0
-785 -1217 0
-780 -1219 0
-781 -1220 0
-782 -1221 0
-783 -1223 0
-784 -1224 0
-785 -1225 0
-779 -1234 0
-781 -1236 0
-783 -1237 0
-784 -1238 0
-785 -1239 0
-779 -1247 0
-783 -1250 0
-784 -1251 0
-785 -1252 0
-779 -1254 0
-781 -1256 0
-782 -1257 0
-784 -1259 0
-785 -1260 0
-779 -1269 0
-782 -1270 0
-783 -1272 0
-784 -1273 0
-785 -1274 0
-779 -1276 0
-781 -1277 0
-784 -1279 0
-785 -1280 0
-779 -1295 0
-781 -1297 0
-782 -1298 0
-783 -1301 0
-784 -1302 0
-785 -1303 0
-782 -1321 0
-783 -1323 0
-784 -1324 0
-785 -1325 0
-781 -1328 0
-782 -1329 0
-784 -1331 0
-785 -1332 0
-783 -1342 0
-784 -1343 0
-785 -1344 0
-781 -1346 0
-782 -1347 0
-784 -1350 0
-785 -1351 0
-780 -1415 0
-782 -1416 0
-783 -1419 0
-784 -1420 0
-785 -1421 0
-780 -1422 0
-781 -1423 0
-782 -1424 0
-784 -1426 0
-785 -1427 0
-782 -1458 0
-784 -1461 0
-785 -1462 0
-781 -1464 0
-782 -1465 0
-783 -1467 0
-784 -1468 0
-785 -1469 0
-781 -1471 0
-782 -1472 0
-783 -1475 0
-784 -1476 0
-785 -1477 0
-780 -1535 0
-781 -1536 0
-782 -1537 0
-783 -1540 0
-784 -1541 0
-785 -1542 0
-780 -1545 0
-784 -1547 0
-785 -1548 0
-780 -1550 0
-781 -1551 0
-782 -1552 0
-783 -1553 0
-784 -1554 0
-785 -1555 0
-780 -1557 0
-782 -1558 0
-784 -1561 0
-785 -1562 0
-781 -1572 0
-782 -1573 0
-784 -1574 0
-785 -1575 0
-783 -1580 0
-784 -1581 0
-785 -1582 0
-779 -1583 0
-780 -1585 0
-782 -1586 0
-784 -1588 0
-785 -1589 0
-781 -1592 0
-782 -1593 0
-784 -1596 0
-785 -1597 0
-782 -1600 0
-783 -1602 0
-784 -1603 0
-785 -1604 0
-779 -1605 0
-780 -1607 0
-782 -1608 0
-784 -1610 0
-785 -1611 0
-780 -1622 0
-781 -1623 0
-782 -1624 0
-784 -1625 0
-785 -1626 0
-780 -1629 0
-782 -1630 0
-783 -1633 0
-784 -1634 0
-785 -1635 0
-779 -1663 0
-781 -1664 0
-782 -1665 0
-783 -1667 0
-784 -1668 0
-785 -1669 0
-779 -1671 0
-783 -1674 0
-784 -1675 0
-785 -1676 0
-781 -1694 0
-783 -1696 0
-784 -1697 0
-785 -1698 0
-780 -1751 0
-781 -1752 0
-783 -1754 0
-784 -1755 0
-785 -1756 0
-780 -1757 0
-782 -1758 0
-783 -1761 0
-784 -1762 0
-785 -1763 0
-779 -1764 0
-782 -1766 0
-783 -1769 0
-784 -1770 0
-785 -1771 0
-779 -1780 0
-781 -1782 0
-782 -1783 0
-783 -1785 0
-784 -1786 0
-785 -1787 0
-779 -1789 0
-784 -1793 0
-785 -1794 0
-779 -1803 0
-781 -1804 0
-782 -1805 0
-783 -1807 0
-784 -1808 0
-785 -1809 0
-779 -1811 0
-782 -1812 0
-784 -1815 0
-785 -1816 0
-781 -1833 0
-782 -1834 0
-784 -1837 0
-785 -1838 0
-781 -1853 0
-783 -1855 0
-784 -1856 0
-785 -1857 0
-782 -1859 0
-784 -1862 0
-785 -1863 0
-781 -1870 0
-782 -1871 0
-783 -1874 0
-784 -1875 0
-785 -1876 0
-780 -1925 0
-783 -1928 0
-784 -1929 0
-785 -1930 0
-780 -1932 0
-782 -1933 0
-783 -1934 0
-784 -1935 0
-785 -1936 0
-782 -1939 0
-784 -1942 0
-785 -1943 0
-779 -1944 0
-783 -1947 0
-784 -1948 0
-785 -1949 0
-781 -1959 0
-783 -1962 0
-784 -1963 0
-785 -1964 0
-782 -1967 0
-783 -1969 0
-784 -1970 0
-785 -1971 0
-781 -1979 0
-782 -1980 0
-783 -1981 0
-784 -1982 0
-785 -1983 0
-783 -1987 0
-784 -1988 0
-785 -1989 0
-788 -842 0
-791 -845 0
-792 -846 0
-793 -847 0
-788 -849 0
-789 -850 0
-790 -851 0
-792 -852 0
-793 -853 0
-787 -855 0
-788 -856 0
-789 -858 0
-791 -860 0
-792 -861 0
-793 -862 0
-788 -872 0
-791 -875 0
-792 -876 0
-793 -877 0
-788 -880 0
-789 -882 0
-790 -883 0
-792 -886 0
-793 -887 0
-788 -889 0
-792 -892 0
-793 -893 0
-788 -910 0
-792 -913 0
-793 -914 0
-788 -930 0
-789 -932 0
-790 -933 0
-791 -935 0
-792 -936 0
-793 -937 0
-788 -976 0
-790 -977 0
-792 -979 0
-793 -980 0
-788 -983 0
-789 -984 0
-791 -987 0
-792 -988 0
-793 -989 0
-787 -991 0
-788 -992 0
-789 -994 0
-790 -995 0
-792 -997 0
-793 -998 0
-788 -1007 0
-790 -1009 0
-792 -1012 0
-793 -1013 0
-788 -1015 0
-789 -1017 0
-791 -1018 0
-792 -1019 0
-793 -1020 0
-788 -1022 0
-789 -1023 0
-791 -1025 0
-792 -1026 0
-793 -1027 0
-788 -1029 0
-789 -1030 0
-790 -1031 0
-792 -1034 0
-793 -1035 0
-787 -1036 0
-788 -1037 0
-789 -1039 0
-791 -1041 0
-792 -1042 0
-793 -1043 0
-788 -1052 0
-789 -1054 0
-791 -1057 0
-792 -1058 0
-793 -1059 0
-788 -1061 0
-789 -1063 0
-790 -1064 0
-792 -1065 0
-793 -1066 0
-788 -1067 0
-789 -1069 0
-792 -1072 0
-793 -1073 0
-787 -1098 0
-791 -1100 0
-792 -1101 0
-793 -1102 0
-787 -1105 0
-789 -1106 0
-790 -1107 0
-791 -1109 0
-792 -1110 0
-793 -1111 0
-790 -1130 0
-791 -1133 0
-792 -1134 0
-793 -1135 0
-789 -1148 0
-791 -1150 0
-792 -1151 0
-793 -1152 0
-790 -1155 0
-792 -1157 0
-793 -1158 0
-787 -1160 0
-791 -1162 0
-792 -1163 0
-793 -1164 0
-789 -1174 0
-791 -1176 0
-792 -1177 0
-793 -1178 0
-790 -1181 0
-792 -1183 0
-793 -1184 0
-790 -1186 0
-791 -1188 0
-792 -1189 0
-793 -1190 0
-789 -1192 0
-790 -1193 0
-791 -1195 0
-792 -1196 0
-793 -1197 0
-787 -1198 0
-789 -1200 0
-790 -1201 0
-791 -1202 0
-792 -1203 0
-793 -1204 0
-790 -1213 0
-791 -1215 0
-792 -1216 0
-793 -1217 0
-789 -1220 0
-790 -1221 0
-791 -1223 0
-792 -1224 0
-793 -1225 0
-790 -1227 0
-791 -1230 0
-792 -1231 0
-793 -1232 0
-787 -1269 0
-790 -1270 0
-791 -1272 0
-792 -1273 0
-793 -1274 0
-787 -1276 0
-789 -1277 0
-792 -1279 0
-793 -1280 0
-787 -1305 0
-789 -1306 0
-791 -1308 0
-792 -1309 0
-793 -1310 0
-787 -1312 0
-789 -1313 0
-790 -1314 0
-791 -1316 0
-792 -1317 0
-793 -1318 0
-789 -1334 0
-790 -1335 0
-791 -1336 0
-792 -1337 0
-793 -1338 0
-791 -1342 0
-792 -1343 0
-793 -1344 0
-789 -1346 0
-790 -1347 0
-792 -1350 0
-793 -1351 0
-789 -1375 0
-792 -1378 0
-793 -1379 0
-790 -1381 0
-791 -1383 0
-792 -1384 0
-793 -1385 0
-787 -1386 0
-792 -1390 0
-793 -1391 0
-789 -1403 0
-792 -1406 0
-793 -1407 0
-790 -1410 0
-791 -1412 0
-792 -1413 0
-793 -1414 0
-790 -1416 0
-791 -1419 0
-792 -1420 0
-793 -1421 0
-789 -1423 0
-790 -1424 0
-792 -1426 0
-793 -1427 0
-789 -1471 0
-790 -1472 0
-791 -1475 0
-792 -1476 0
-793 -1477 0
-788 -1534 0
-789 -1536 0
-790 -1537 0
-791 -1540 0
-792 -1541 0
-793 -1542 0
-788 -1544 0
-792 -1547 0
-793 -1548 0
-788 -1563 0
-789 -1565 0
-790 -1566 0
-792 -1568 0
-793 -1569 0
-788 -1591 0
-789 -1592 0
-790 -1593 0
-792 -1596 0
-793 -1597 0
-788 -1599 0
-790 -1600 0
-791 -1602 0
-792 -1603 0
-793 -1604 0
-787 -1605 0
-788 -1606 0
-790 -1608 0
-792 -1610 0
-793 -1611 0
-788 -1621 0
-789 -1623 0
-790 -1624 0
-792 -1625 0
-793 -1626 0
-788 -1628 0
-790 -1630 0
-791 -1633 0
-792 -1634 0
-793 -1635 0
-788 -1636 0
-790 -1638 0
-791 -1639 0
-792 -1640 0
-793 -1641 0
-788 -1642 0
-789 -1644 0
-792 -1647 0
-793 -1648 0
-787 -1663 0
-789 -1664 0
-790 -1665 0
-791 -1667 0
-792 -1668 0
-793 -1669 0
-787 -1671 0
-791 -1674 0
-792 -1675 0
-793 -1676 0
-789 -1694 0
-791 -1696 0
-792 -1697 0
-793 -1698 0
-789 -1708 0
-790 -1709 0
-791 -1711 0
-792 -1712 0
-793 -1713 0
-789 -1715 0
-792 -1718 0
-793 -1719 0
-787 -1720 0
-789 -1722 0
-790 -1723 0
-791 -1726 0
-792 -1727 0
-793 -1728 0
-789 -1738 0
-790 -1739 0
-791 -1741 0
-792 -1742 0
-793 -1743 0
-789 -1746 0
-792 -1749 0
-793 -1750 0
-789 -1752 0
-791 -1754 0
-792 -1755 0
-793 -1756 0
-790 -1758 0
-791 -1761 0
-792 -1762 0
-793 -1763 0
-787 -1803 0
-789 -1804 0
-790 -1805 0
-791 -1807 0
-792 -1808 0
-793 -1809 0
-787 -1811 0
-790 -1812 0
-792 -1815 0
-793 -1816 0
-789 -1833 0
-790 -1834 0
-792 -1837 0
-793 -1838 0
-787 -1839 0
-790 -1840 0
-791 -1842 0
-792 -1843 0
-793 -1844 0
-787 -1845 0
-789 -1846 0
-791 -1849 0
-792 -1850 0
-793 -1851 0
-791 -1867 0
-792 -1868 0
-793 -1869 0
-789 -1870 0
-790 -1871 0
-791 -1874 0
-792 -1875 0
-793 -1876 0
-789 -1879 0
-790 -1880 0
-792 -1882 0
-793 -1883 0
-789 -1885 0
-791 -1887 0
-792 -1888 0
-793 -1889 0
-788 -1924 0
-791 -1928 0
-792 -1929 0
-793 -1930 0
-788 -1938 0
-790 -1939 0
-792 -1942 0
-793 -1943 0
-787 -1944 0
-788 -1945 0
-791 -1947 0
-792 -1948 0
-793 -1949 0
-788 -1958 0
-789 -1959 0
-791 -1962 0
-792 -1963 0
-793 -1964 0
-788 -1966 0
-790 -1967 0
-791 -1969 0
-792 -1970 0
-793 -1971 0
-788 -1972 0
-789 -1973 0
-791 -1975 0
-792 -1976 0
-793 -1977 0
-797 -843 0
-798 -846 0
-799 -847 0
-795 -855 0
-796 -858 0
-797 -859 0
-798 -861 0
-799 -862 0
-797 -867 0
-798 -868 0
-799 -869 0
-794 -879 0
-796 -882 0
-797 -884 0
-798 -886 0
-799 -887 0
-794 -895 0
-797 -898 0
-798 -901 0
-799 -902 0
-794 -909 0
-797 -912 0
-798 -913 0
-799 -914 0
-796 -917 0
-797 -918 0
-798 -921 0
-799 -922 0
-796 -932 0
-797 -934 0
-798 -936 0
-799 -937 0
-795 -945 0
-796 -947 0
-798 -949 0
-799 -950 0
-794 -959 0
-796 -961 0
-798 -964 0
-799 -965 0
-794 -975 0
-798 -979 0
-799 -980 0
-794 -990 0
-795 -991 0
-796 -994 0
-798 -997 0
-799 -998 0
-794 -999 0
-798 -1004 0
-799 -1005 0
-794 -1014 0
-796 -1017 0
-798 -1019 0
-799 -1020 0
-796 -1023 0
-798 -1026 0
-799 -1027 0
-795 -1036 0
-796 -1039 0
-798 -1042 0
-799 -1043 0
-796 -1046 0
-798 -1049 0
-799 -1050 0
-794 -1060 0
-796 -1063 0
-798 -1065 0
-799 -1066 0
-794 -1074 0
-796 -1076 0
-798 -1080 0
-799 -1081 0
-795 -1090 0
-798 -1094 0
-799 -1095 0
-794 -1104 0
-795 -1105 0
-796 -1106 0
-798 -1110 0
-799 -1111 0
-794 -1122 0
-798 -1126 0
-799 -1127 0
-794 -1147 0
-796 -1148 0
-798 -1151 0
-799 -1152 0
-794 -1159 0
-795 -1160 0
-798 -1163 0
-799 -1164 0
-794 -1165 0
-796 -1168 0
-798 -1170 0
-799 -1171 0
-794 -1179 0
-798 -1183 0
-799 -1184 0
-798 -1189 0
-799 -1190 0
-795 -1198 0
-796 -1200 0
-798 -1203 0
-799 -1204 0
-798 -1209 0
-799 -1210 0
-794 -1218 0
-796 -1220 0
-798 -1224 0
-799 -1225 0
-794 -1261 0
-795 -1262 0
-797 -1264 0
-798 -1266 0
-799 -1267 0
-794 -1275 0
-795 -1276 0
-796 -1277 0
-797 -1278 0
-798 -1279 0
-799 -1280 0
-794 -1287 0
-797 -1290 0
-798 -1292 0
-799 -1293 0
-795 -1295 0
-796 -1297 0
-797 -1299 0
-798 -1302 0
-799 -1303 0
-794 -1311 0
-795 -1312 0
-796 -1313 0
-797 -1315 0
-798 -1317 0
-799 -1318 0
-794 -1326 0
-796 -1328 0
-797 -1330 0
-798 -1331 0
-799 -1332 0
-794 -1339 0
-797 -1340 0
-798 -1343 0
-799 -1344 0
-797 -1363 0
-798 -1365 0
-799 -1366 0
-796 -1375 0
-797 -1376 0
-798 -1378 0
-799 -1379 0
-795 -1386 0
-797 -1388 0
-798 -1390 0
-799 -1391 0
-796 -1394 0
-797 -1396 0
-798 -1399 0
-799 -1400 0
-794 -1408 0
-797 -1411 0
-798 -1413 0
-799 -1414 0
-796 -1423 0
-797 -1425 0
-798 -1426 0
-799 -1427 0
-795 -1436 0
-798 -1440 0
-799 -1441 0
-794 -1450 0
-798 -1455 0
-799 -1456 0
-796 -1464 0
-798 -1468 0
-799 -1469 0
-795 -1506 0
-796 -1507 0
-798 -1510 0
-799 -1511 0
-794 -1519 0
-796 -1520 0
-798 -1523 0
-799 -1524 0
-798 -1547 0
-799 -1548 0
-796 -1551 0
-798 -1554 0
-799 -1555 0
-796 -1565 0
-798 -1568 0
-799 -1569 0
-797 -1578 0
-798 -1581 0
-799 -1582 0
-796 -1592 0
-797 -1594 0
-798 -1596 0
-799 -1597 0
-795 -1605 0
-797 -1609 0
-798 -1610 0
-799 -1611 0
-796 -1614 0
-797 -1616 0
-798 -1618 0
-799 -1619 0
-794 -1627 0
-797 -1631 0
-798 -1634 0
-799 -1635 0
-796 -1644 0
-797 -1645 0
-798 -1647 0
-799 -1648 0
-797 -1651 0
-798 -1654 0
-799 -1655 0
-795 -1671 0
-797 -1672 0
-798 -1675 0
-799 -1676 0
-796 -1686 0
-797 -1688 0
-798 -1690 0
-799 -1691 0
-796 -1708 0
-797 -1710 0
-798 -1712 0
-799 -1713 0
-795 -1720 0
-796 -1722 0
-797 -1724 0
-798 -1727 0
-799 -1728 0
-796 -1731 0
-797 -1732 0
-798 -1734 0
-799 -1735 0
-794 -1744 0
-796 -1746 0
-797 -1747 0
-798 -1749 0
-799 -1750 0
-797 -1759 0
-798 -1762 0
-799 -1763 0
-795 -1795 0
-796 -1797 0
-797 -1799 0
-798 -1800 0
-799 -1801 0
-794 -1810 0
-795 -1811 0
-797 -1813 0
-798 -1815 0
-799 -1816 0
-794 -1824 0
-796 -1826 0
-797 -1827 0
-798 -1830 0
-799 -1831 0
-795 -1845 0
-796 -1846 0
-797 -1847 0
-798 -1850 0
-799 -1851 0
-797 -1860 0
-798 -1862 0
-799 -1863 0
-796 -1870 0
-797 -1872 0
-798 -1875 0
-799 -1876 0
-796 -1885 0
-798 -1888 0
-799 -1889 0
-796 -1898 0
-797 -1899 0
-798 -1901 0
-799 -1902 0
-796 -1917 0
-797 -1919 0
-798 -1922 0
-799 -1923 0
-797 -1926 0
-798 -1929 0
-799 -1930 0
-795 -1944 0
-798 -1948 0
-799 -1949 0
-796 -1951 0
-798 -1955 0
-799 -1956 0
-794 -1965 0
-798 -1970 0
-799 -1971 0
-794 -1978 0
-796 -1979 0
-798 -1982 0
-799 -1983 0
-802 -851 0
-805 -852 0
-806 -853 0
-801 -855 0
-804 -860 0
-805 -861 0
-806 -862 0
-802 -866 0
-805 -868 0
-806 -869 0
-800 -871 0
-804 -875 0
-805 -876 0
-806 -877 0
-800 -904 0
-805 -907 0
-806 -908 0
-800 -909 0
-805 -913 0
-806 -914 0
-802 -926 0
-804 -927 0
-805 -928 0
-806 -929 0
-802 -933 0
-804 -935 0
-805 -936 0
-806 -937 0
-801 -945 0
-803 -948 0
-805 -949 0
-806 -950 0
-800 -952 0
-803 -955 0
-805 -956 0
-806 -957 0
-800 -982 0
-803 -986 0
-804 -987 0
-805 -988 0
-806 -989 0
-800 -990 0
-801 -991 0
-802 -995 0
-803 -996 0
-805 -997 0
-806 -998 0
-800 -999 0
-803 -1002 0
-804 -1003 0
-805 -1004 0
-806 -1005 0
-800 -1006 0
-802 -1009 0
-803 -1011 0
-805 -1012 0
-806 -1013 0
-802 -1031 0
-803 -1033 0
-805 -1034 0
-806 -1035 0
-801 -1036 0
-803 -1040 0
-804 -1041 0
-805 -1042 0
-806 -1043 0
-802 -1047 0
-803 -1048 0
-805 -1049 0
-806 -1050 0
-800 -1051 0
-803 -1056 0
-804 -1057 0
-805 -1058 0
-806 -1059 0
-800 -1082 0
-803 -1086 0
-805 -1087 0
-806 -1088 0
-801 -1090 0
-802 -1092 0
-804 -1093 0
-805 -1094 0
-806 -1095 0
-800 -1097 0
-801 -1098 0
-804 -1100 0
-805 -1101 0
-806 -1102 0
-800 -1113 0
-802 -1116 0
-804 -1118 0
-805 -1119 0
-806 -1120 0
-800 -1154 0
-802 -1155 0
-805 -1157 0
-806 -1158 0
-800 -1159 0
-801 -1160 0
-804 -1162 0
-805 -1163 0
-806 -1164 0
-800 -1165 0
-802 -1169 0
-805 -1170 0
-806 -1171 0
-800 -1172 0
-804 -1176 0
-805 -1177 0
-806 -1178 0
-802 -1193 0
-804 -1195 0
-805 -1196 0
-806 -1197 0
-801 -1198 0
-802 -1201 0
-804 -1202 0
-805 -1203 0
-806 -1204 0
-802 -1207 0
-804 -1208 0
-805 -1209 0
-806 -1210 0
-800 -1211 0
-802 -1213 0
-804 -1215 0
-805 -1216 0
-806 -1217 0
-800 -1261 0
-801 -1262 0
-803 -1265 0
-805 -1266 0
-806 -1267 0
-800 -1268 0
-801 -1269 0
-802 -1270 0
-803 -1271 0
-804 -1272 0
-805 -1273 0
-806 -1274 0
-800 -1281 0
-803 -1284 0
-805 -1285 0
-806 -1286 0
-801 -1295 0
-802 -1298 0
-803 -1300 0
-804 -1301 0
-805 -1302 0
-806 -1303 0
-800 -1304 0
-801 -1305 0
-803 -1307 0
-804 -1308 0
-805 -1309 0
-806 -1310 0
-800 -1319 0
-802 -1321 0
-803 -1322 0
-804 -1323 0
-805 -1324 0
-806 -1325 0
-800 -1345 0
-802 -1347 0
-803 -1349 0
-805 -1350 0
-806 -1351 0
-802 -1355 0
-803 -1357 0
-805 -1358 0
-806 -1359 0
-802 -1381 0
-803 -1382 0
-804 -1383 0
-805 -1384 0
-806 -1385 0
-801 -1386 0
-803 -1389 0
-805 -1390 0
-806 -1391 0
-802 -1395 0
-803 -1397 0
-804 -1398 0
-805 -1399 0
-806 -1400 0
-800 -1401 0
-803 -1405 0
-805 -1406 0
-806 -1407 0
-802 -1416 0
-803 -1418 0
-804 -1419 0
-805 -1420 0
-806 -1421 0
-801 -1436 0
-803 -1438 0
-804 -1439 0
-805 -1440 0
-806 -1441 0
-800 -1442 0
-803 -1446 0
-804 -1447 0
-805 -1448 0
-806 -1449 0
-802 -1458 0
-803 -1460 0
-805 -1461 0
-806 -1462 0
-802 -1472 0
-803 -1474 0
-804 -1475 0
-805 -1476 0
-806 -1477 0
-801 -1506 0
-802 -1508 0
-803 -1509 0
-805 -1510 0
-806 -1511 0
-800 -1512 0
-802 -1514 0
-803 -1516 0
-805 -1517 0
-806 -1518 0
-802 -1526 0
-803 -1528 0
-804 -1529 0
-805 -1530 0
-806 -1531 0
-802 -1537 0
-803 -1539 0
-804 -1540 0
-805 -1541 0
-806 -1542 0
-802 -1558 0
-803 -1560 0
-805 -1561 0
-806 -1562 0
-802 -1566 0
-803 -1567 0
-805 -1568 0
-806 -1569 0
-802 -1573 0
-805 -1574 0
-806 -1575 0
-802 -1600 0
-804 -1602 0
-805 -1603 0
-806 -1604 0
-801 -1605 0
-802 -1608 0
-805 -1610 0
-806 -1611 0
-802 -1615 0
-804 -1617 0
-805 -1618 0
-806 -1619 0
-800 -1620 0
-802 -1624 0
-805 -1625 0
-806 -1626 0
-802 -1638 0
-804 -1639 0
-805 -1640 0
-806 -1641 0
-802 -1658 0
-805 -1660 0
-806 -1661 0
-801 -1663 0
-802 -1665 0
-803 -1666 0
-804 -1667 0
-805 -1668 0
-806 -1669 0
-803 -1680 0
-804 -1681 0
-805 -1682 0
-806 -1683 0
-803 -1717 0
-805 -1718 0
-806 -1719 0
-801 -1720 0
-802 -1723 0
-803 -1725 0
-804 -1726 0
-805 -1727 0
-806 -1728 0
-803 -1733 0
-805 -1734 0
-806 -1735 0
-800 -1736 0
-802 -1739 0
-803 -1740 0
-804 -1741 0
-805 -1742 0
-806 -1743 0
-803 -1753 0
-804 -1754 0
-805 -1755 0
-806 -1756 0
-801 -1795 0
-802 -1798 0
-805 -1800 0
-806 -1801 0
-800 -1802 0
-801 -1803 0
-802 -1805 0
-804 -1807 0
-805 -1808 0
-806 -1809 0
-800 -1817 0
-802 -1820 0
-805 -1822 0
-806 -1823 0
-801 -1839 0
-802 -1840 0
-804 -1842 0
-805 -1843 0
-806 -1844 0
-804 -1855 0
-805 -1856 0
-806 -1857 0
-802 -1880 0
-805 -1882 0
-806 -1883 0
-802 -1892 0
-803 -1893 0
-804 -1894 0
-805 -1895 0
-806 -1896 0
-803 -1927 0
-804 -1928 0
-805 -1929 0
-806 -1930 0
-801 -1944 0
-803 -1946 0
-804 -1947 0
-805 -1948 0
-806 -1949 0
-802 -1952 0
-803 -1953 0
-804 -1954 0
-805 -1955 0
-806 -1956 0
-800 -1957 0
-803 -1961 0
-804 -1962 0
-805 -1963 0
-806 -1964 0
-800 -1984 0
-803 -1986 0
-804 -1987 0
-805 -1988 0
-806 -1989 0
-802 -1992 0
-803 -1994 0
-804 -1995 0
-805 -1996 0
-806 -1997 0
-809 -843 0
-810 -844 0
-811 -845 0
-812 -846 0
-813 -847 0
-808 -850 0
-812 -852 0
-813 -853 0
-807 -855 0
-808 -858 0
-809 -859 0
-811 -860 0
-812 -861 0
-813 -862 0
-809 -867 0
-812 -868 0
-813 -869 0
-809 -898 0
-810 -899 0
-811 -900 0
-812 -901 0
-813 -902 0
-808 -906 0
-812 -907 0
-813 -908 0
-809 -912 0
-812 -913 0
-813 -914 0
-808 -939 0
-810 -940 0
-811 -941 0
-812 -942 0
-813 -943 0
-809 -954 0
-810 -955 0
-812 -956 0
-813 -957 0
-808 -961 0
-811 -963 0
-812 -964 0
-813 -965 0
-807 -967 0
-808 -970 0
-809 -971 0
-812 -972 0
-813 -973 0
-809 -1010 0
-810 -1011 0
-812 -1012 0
-813 -1013 0
-808 -1017 0
-811 -1018 0
-812 -1019 0
-813 -1020 0
-808 -1023 0
-810 -1024 0
-811 -1025 0
-812 -1026 0
-813 -1027 0
-808 -1030 0
-809 -1032 0
-810 -1033 0
-812 -1034 0
-813 -1035 0
-807 -1036 0
-808 -1039 0
-810 -1040 0
-811 -1041 0
-812 -1042 0
-813 -1043 0
-808 -1046 0
-810 -1048 0
-812 -1049 0
-813 -1050 0
-808 -1076 0
-810 -1078 0
-811 -1079 0
-812 -1080 0
-813 -1081 0
-808 -1084 0
-809 -1085 0
-810 -1086 0
-812 -1087 0
-813 -1088 0
-807 -1098 0
-809 -1099 0
-811 -1100 0
-812 -1101 0
-813 -1102 0
-807 -1105 0
-808 -1106 0
-810 -1108 0
-811 -1109 0
-812 -1110 0
-813 -1111 0
-808 -1115 0
-809 -1117 0
-811 -1118 0
-812 -1119 0
-813 -1120 0
-810 -1125 0
-812 -1126 0
-813 -1127 0
-807 -1137 0
-809 -1141 0
-810 -1142 0
-811 -1143 0
-812 -1144 0
-813 -1145 0
-808 -1174 0
-809 -1175 0
-811 -1176 0
-812 -1177 0
-813 -1178 0
-810 -1182 0
-812 -1183 0
-813 -1184 0
-810 -1187 0
-811 -1188 0
-812 -1189 0
-813 -1190 0
-808 -1192 0
-809 -1194 0
-811 -1195 0
-812 -1196 0
-813 -1197 0
-807 -1198 0
-808 -1200 0
-811 -1202 0
-812 -1203 0
-813 -1204 0
-811 -1208 0
-812 -1209 0
-813 -1210 0
-807 -1247 0
-809 -1249 0
-811 -1250 0
-812 -1251 0
-813 -1252 0
-807 -1254 0
-808 -1256 0
-810 -1258 0
-812 -1259 0
-813 -1260 0
-807 -1305 0
-808 -1306 0
-810 -1307 0
-811 -1308 0
-812 -1309 0
-813 -1310 0
-807 -1312 0
-808 -1313 0
-809 -1315 0
-811 -1316 0
-812 -1317 0
-813 -1318 0
-810 -1322 0
-811 -1323 0
-812 -1324 0
-813 -1325 0
-808 -1328 0
-809 -1330 0
-812 -1331 0
-813 -1332 0
-808 -1354 0
-809 -1356 0
-810 -1357 0
-812 -1358 0
-813 -1359 0
-809 -1363 0
-811 -1364 0
-812 -1365 0
-813 -1366 0
-807 -1367 0
-809 -1371 0
-812 -1372 0
-813 -1373 0
-808 -1403 0
-809 -1404 0
-810 -1405 0
-812 -1406 0
-813 -1407 0
-809 -1411 0
-811 -1412 0
-812 -1413 0
-813 -1414 0
-809 -1459 0
-810 -1460 0
-812 -1461 0
-813 -1462 0
-808 -1464 0
-810 -1466 0
-811 -1467 0
-812 -1468 0
-813 -1469 0
-807 -1492 0
-808 -1493 0
-809 -1495 0
-811 -1496 0
-812 -1497 0
-813 -1498 0
-807 -1500 0
-809 -1502 0
-810 -1503 0
-812 -1504 0
-813 -1505 0
-808 -1525 0
-809 -1527 0
-810 -1528 0
-811 -1529 0
-812 -1530 0
-813 -1531 0
-808 -1551 0
-811 -1553 0
-812 -1554 0
-813 -1555 0
-809 -1559 0
-810 -1560 0
-812 -1561 0
-813 -1562 0
-808 -1565 0
-810 -1567 0
-812 -1568 0
-813 -1569 0
-808 -1572 0
-812 -1574 0
-813 -1575 0
-809 -1578 0
-810 -1579 0
-811 -1580 0
-812 -1581 0
-813 -1582 0
-807 -1583 0
-810 -1587 0
-812 -1588 0
-813 -1589 0
-808 -1623 0
-812 -1625 0
-813 -1626 0
-809 -1631 0
-810 -1632 0
-811 -1633 0
-812 -1634 0
-813 -1635 0
-809 -1651 0
-810 -1652 0
-811 -1653 0
-812 -1654 0
-813 -1655 0
-808 -1657 0
-809 -1659 0
-812 -1660 0
-813 -1661 0
-807 -1663 0
-808 -1664 0
-810 -1666 0
-811 -1667 0
-812 -1668 0
-813 -1669 0
-807 -1671 0
-809 -1672 0
-810 -1673 0
-811 -1674 0
-812 -1675 0
-813 -1676 0
-808 -1679 0
-810 -1680 0
-811 -1681 0
-812 -1682 0
-813 -1683 0
-808 -1686 0
-809 -1688 0
-810 -1689 0
-812 -1690 0
-813 -1691 0
-807 -1699 0
-808 -1702 0
-810 -1703 0
-811 -1704 0
-812 -1705 0
-813 -1706 0
-808 -1738 0
-810 -1740 0
-811 -1741 0
-812 -1742 0
-813 -1743 0
-808 -1746 0
-809 -1747 0
-810 -1748 0
-812 -1749 0
-813 -1750 0
-807 -1780 0
-808 -1782 0
-810 -1784 0
-811 -1785 0
-812 -1786 0
-813 -1787 0
-807 -1789 0
-809 -1791 0
-810 -1792 0
-812 -1793 0
-813 -1794 0
-808 -1833 0
-809 -1835 0
-810 -1836 0
-812 -1837 0
-813 -1838 0
-807 -1839 0
-809 -1841 0
-811 -1842 0
-812 -1843 0
-813 -1844 0
-807 -1845 0
-808 -1846 0
-809 -1847 0
-810 -1848 0
-811 -1849 0
-812 -1850 0
-813 -1851 0
-808 -1853 0
-809 -1854 0
-811 -1855 0
-812 -1856 0
-813 -1857 0
-809 -1860 0
-810 -1861 0
-812 -1862 0
-813 -1863 0
-808 -1879 0
-809 -1881 0
-812 -1882 0
-813 -1883 0
-808 -1885 0
-810 -1886 0
-811 -1887 0
-812 -1888 0
-813 -1889 0
-807 -1903 0
-808 -1904 0
-809 -1905 0
-810 -1906 0
-811 -1907 0
-812 -1908 0
-813 -1909 0
-807 -1910 0
-808 -1911 0
-810 -1913 0
-812 -1914 0
-813 -1915 0
-811 -1934 0
-812 -1935 0
-813 -1936 0
-807 -1944 0
-810 -1946 0
-811 -1947 0
-812 -1948 0
-813 -1949 0
-808 -1951 0
-810 -1953 0
-811 -1954 0
-812 -1955 0
-813 -1956 0
-808 -1979 0
-811 -1981 0
-812 -1982 0
-813 -1983 0
-809 -1985 0
-810 -1986 0
-811 -1987 0
-812 -1988 0
-813 -1989 0
-817 -844 0
-818 -845 0
-819 -846 0
-820 -847 0
-819 -868 0
-820 -869 0
-814 -871 0
-818 -875 0
-819 -876 0
-820 -877 0
-817 -891 0
-819 -892 0
-820 -893 0
-814 -895 0
-817 -899 0
-818 -900 0
-819 -901 0
-820 -902 0
-814 -909 0
-819 -913 0
-820 -914 0
-815 -945 0
-816 -947 0
-817 -948 0
-819 -949 0
-820 -950 0
-814 -959 0
-816 -961 0
-818 -963 0
-819 -964 0
-820 -965 0
-814 -966 0
-815 -967 0
-816 -970 0
-819 -972 0
-820 -973 0
-814 -982 0
-816 -984 0
-817 -986 0
-818 -987 0
-819 -988 0
-820 -989 0
-814 -990 0
-815 -991 0
-816 -994 0
-817 -996 0
-819 -997 0
-820 -998 0
-814 -1014 0
-816 -1017 0
-818 -1018 0
-819 -1019 0
-820 -1020 0
-816 -1023 0
-817 -1024 0
-818 -1025 0
-819 -1026 0
-820 -1027 0
-816 -1046 0
-817 -1048 0
-819 -1049 0
-820 -1050 0
-814 -1051 0
-816 -1054 0
-817 -1056 0
-818 -1057 0
-819 -1058 0
-820 -1059 0
-816 -1069 0
-817 -1071 0
-819 -1072 0
-820 -1073 0
-814 -1074 0
-816 -1076 0
-817 -1078 0
-818 -1079 0
-819 -1080 0
-820 -1081 0
-815 -1090 0
-818 -1093 0
-819 -1094 0
-820 -1095 0
-814 -1097 0
-815 -1098 0
-818 -1100 0
-819 -1101 0
-820 -1102 0
-814 -1122 0
-817 -1125 0
-819 -1126 0
-820 -1127 0
-814 -1129 0
-817 -1132 0
-818 -1133 0
-819 -1134 0
-820 -1135 0
-814 -1136 0
-815 -1137 0
-817 -1142 0
-818 -1143 0
-819 -1144 0
-820 -1145 0
-814 -1154 0
-819 -1157 0
-820 -1158 0
-814 -1159 0
-815 -1160 0
-818 -1162 0
-819 -1163 0
-820 -1164 0
-814 -1179 0
-817 -1182 0
-819 -1183 0
-820 -1184 0
-817 -1187 0
-818 -1188 0
-819 -1189 0
-820 -1190 0
-818 -1208 0
-819 -1209 0
-820 -1210 0
-814 -1211 0
-818 -1215 0
-819 -1216 0
-820 -1217 0
-817 -1229 0
-818 -1230 0
-819 -1231 0
-820 -1232 0
-814 -1233 0
-815 -1234 0
-816 -1236 0
-818 -1237 0
-819 -1238 0
-820 -1239 0
-814 -1253 0
-815 -1254 0
-816 -1256 0
-817 -1258 0
-819 -1259 0
-820 -1260 0
-814 -1275 0
-815 -1276 0
-816 -1277 0
-819 -1279 0
-820 -1280 0
-815 -1295 0
-816 -1297 0
-817 -1300 0
-818 -1301 0
-819 -1302 0
-820 -1303 0
-814 -1304 0
-815 -1305 0
-816 -1306 0
-817 -1307 0
-818 -1308 0
-819 -1309 0
-820 -1310 0
-814 -1326 0
-816 -1328 0
-819 -1331 0
-820 -1332 0
-814 -1333 0
-816 -1334 0
-818 -1336 0
-819 -1337 0
-820 -1338 0
-814 -1345 0
-816 -1346 0
-817 -1349 0
-819 -1350 0
-820 -1351 0
-818 -1364 0
-819 -1365 0
-820 -1366 0
-815 -1367 0
-819 -1372 0
-820 -1373 0
-817 -1382 0
-818 -1383 0
-819 -1384 0
-820 -1385 0
-815 -1386 0
-817 -1389 0
-819 -1390 0
-820 -1391 0
-814 -1408 0
-818 -1412 0
-819 -1413 0
-820 -1414 0
-817 -1418 0
-818 -1419 0
-819 -1420 0
-820 -1421 0
-816 -1464 0
-817 -1466 0
-818 -1467 0
-819 -1468 0
-820 -1469 0
-816 -1471 0
-817 -1474 0
-818 -1475 0
-819 -1476 0
-820 -1477 0
-815 -1478 0
-818 -1481 0
-819 -1482 0
-820 -1483 0
-814 -1499 0
-815 -1500 0
-817 -1503 0
-819 -1504 0
-820 -1505 0
-816 -1536 0
-817 -1539 0
-818 -1540 0
-819 -1541 0
-820 -1542 0
-816 -1551 0
-818 -1553 0
-819 -1554 0
-820 -1555 0
-816 -1565 0
-817 -1567 0
-819 -1568 0
-820 -1569 0
-817 -1579 0
-818 -1580 0
-819 -1581 0
-820 -1582 0
-815 -1583 0
-817 -1587 0
-819 -1588 0
-820 -1589 0
-818 -1602 0
-819 -1603 0
-820 -1604 0
-815 -1605 0
-819 -1610 0
-820 -1611 0
-814 -1627 0
-817 -1632 0
-818 -1633 0
-819 -1634 0
-820 -1635 0
-818 -1639 0
-819 -1640 0
-820 -1641 0
-817 -1652 0
-818 -1653 0
-819 -1654 0
-820 -1655 0
-815 -1663 0
-816 -1664 0
-817 -1666 0
-818 -1667 0
-819 -1668 0
-820 -1669 0
-816 -1686 0
-817 -1689 0
-819 -1690 0
-820 -1691 0
-814 -1693 0
-816 -1694 0
-817 -1695 0
-818 -1696 0
-819 -1697 0
-820 -1698 0
-815 -1699 0
-816 -1702 0
-817 -1703 0
-818 -1704 0
-819 -1705 0
-820 -1706 0
-816 -1715 0
-817 -1717 0
-819 -1718 0
-820 -1719 0
-815 -1720 0
-816 -1722 0
-817 -1725 0
-818 -1726 0
-819 -1727 0
-820 -1728 0
-814 -1744 0
-816 -1746 0
-817 -1748 0
-819 -1749 0
-820 -1750 0
-816 -1752 0
-817 -1753 0
-818 -1754 0
-819 -1755 0
-820 -1756 0
-815 -1764 0
-817 -1768 0
-818 -1769 0
-819 -1770 0
-820 -1771 0
-814 -1788 0
-815 -1789 0
-817 -1792 0
-819 -1793 0
-820 -1794 0
-814 -1810 0
-815 -1811 0
-817 -1814 0
-819 -1815 0
-820 -1816 0
-815 -1839 0
-818 -1842 0
-819 -1843 0
-820 -1844 0
-817 -1861 0
-819 -1862 0
-820 -1863 0
-814 -1864 0
-817 -1866 0
-818 -1867 0
-819 -1868 0
-820 -1869 0
-816 -1885 0
-817 -1886 0
-818 -1887 0
-819 -1888 0
-820 -1889 0
-815 -1910 0
-816 -1911 0
-817 -1913 0
-819 -1914 0
-820 -1915 0
-817 -1941 0
-819 -1942 0
-820 -1943 0
-816 -1951 0
-817 -1953 0
-818 -1954 0
-819 -1955 0
-820 -1956 0
-814 -1957 0
-816 -1959 0
-817 -1961 0
-818 -1962 0
-819 -1963 0
-820 -1964 0
-816 -1973 0
-818 -1975 0
-819 -1976 0
-820 -1977 0
-814 -1978 0
-816 -1979 0
-818 -1981 0
-819 -1982 0
-820 -1983 0
-823 -850 0
-824 -851 0
-827 -852 0
-828 -853 0
-824 -866 0
-825 -867 0
-827 -868 0
-828 -869 0
-821 -879 0
-823 -882 0
-824 -883 0
-825 -884 0
-827 -886 0
-828 -887 0
-827 -892 0
-828 -893 0
-821 -904 0
-823 -906 0
-827 -907 0
-828 -908 0
-821 -909 0
-825 -912 0
-827 -913 0
-828 -914 0
-822 -945 0
-823 -947 0
-827 -949 0
-828 -950 0
-821 -952 0
-825 -954 0
-827 -956 0
-828 -957 0
-821 -966 0
-822 -967 0
-823 -970 0
-825 -971 0
-827 -972 0
-828 -973 0
-821 -975 0
-824 -977 0
-827 -979 0
-828 -980 0
-821 -990 0
-822 -991 0
-823 -994 0
-824 -995 0
-827 -997 0
-828 -998 0
-821 -1006 0
-824 -1009 0
-825 -1010 0
-827 -1012 0
-828 -1013 0
-823 -1030 0
-824 -1031 0
-825 -1032 0
-827 -1034 0
-828 -1035 0
-823 -1046 0
-824 -1047 0
-827 -1049 0
-828 -1050 0
-821 -1060 0
-823 -1063 0
-824 -1064 0
-827 -1065 0
-828 -1066 0
-823 -1069 0
-825 -1070 0
-827 -1072 0
-828 -1073 0
-821 -1082 0
-823 -1084 0
-825 -1085 0
-827 -1087 0
-828 -1088 0
-822 -1090 0
-824 -1092 0
-826 -1093 0
-827 -1094 0
-828 -1095 0
-821 -1104 0
-822 -1105 0
-823 -1106 0
-824 -1107 0
-826 -1109 0
-827 -1110 0
-828 -1111 0
-821 -1113 0
-823 -1115 0
-824 -1116 0
-825 -1117 0
-826 -1118 0
-827 -1119 0
-828 -1120 0
-821 -1129 0
-824 -1130 0
-825 -1131 0
-826 -1133 0
-827 -1134 0
-828 -1135 0
-821 -1136 0
-822 -1137 0
-824 -1140 0
-825 -1141 0
-826 -1143 0
-827 -1144 0
-828 -1145 0
-821 -1147 0
-823 -1148 0
-826 -1150 0
-827 -1151 0
-828 -1152 0
-821 -1159 0
-822 -1160 0
-826 -1162 0
-827 -1163 0
-828 -1164 0
-821 -1172 0
-823 -1174 0
-825 -1175 0
-826 -1176 0
-827 -1177 0
-828 -1178 0
-823 -1192 0
-824 -1193 0
-825 -1194 0
-826 -1195 0
-827 -1196 0
-828 -1197 0
-824 -1207 0
-826 -1208 0
-827 -1209 0
-828 -1210 0
-821 -1218 0
-823 -1220 0
-824 -1221 0
-826 -1223 0
-827 -1224 0
-828 -1225 0
-824 -1227 0
-825 -1228 0
-826 -1230 0
-827 -1231 0
-828 -1232 0
-821 -1233 0
-822 -1234 0
-823 -1236 0
-826 -1237 0
-827 -1238 0
-828 -1239 0
-821 -1246 0
-822 -1247 0
-825 -1249 0
-826 -1250 0
-827 -1251 0
-828 -1252 0
-821 -1268 0
-822 -1269 0
-824 -1270 0
-826 -1272 0
-827 -1273 0
-828 -1274 0
-822 -1295 0
-823 -1297 0
-824 -1298 0
-825 -1299 0
-826 -1301 0
-827 -1302 0
-828 -1303 0
-821 -1311 0
-822 -1312 0
-823 -1313 0
-824 -1314 0
-825 -1315 0
-826 -1316 0
-827 -1317 0
-828 -1318 0
-821 -1319 0
-824 -1321 0
-826 -1323 0
-827 -1324 0
-828 -1325 0
-821 -1333 0
-823 -1334 0
-824 -1335 0
-826 -1336 0
-827 -1337 0
-828 -1338 0
-821 -1339 0
-825 -1340 0
-826 -1342 0
-827 -1343 0
-828 -1344 0
-823 -1354 0
-824 -1355 0
-825 -1356 0
-827 -1358 0
-828 -1359 0
-822 -1367 0
-824 -1370 0
-825 -1371 0
-827 -1372 0
-828 -1373 0
-823 -1375 0
-825 -1376 0
-827 -1378 0
-828 -1379 0
-822 -1386 0
-825 -1388 0
-827 -1390 0
-828 -1391 0
-821 -1401 0
-823 -1403 0
-825 -1404 0
-827 -1406 0
-828 -1407 0
-823 -1423 0
-824 -1424 0
-825 -1425 0
-827 -1426 0
-828 -1427 0
-824 -1458 0
-825 -1459 0
-827 -1461 0
-828 -1462 0
-822 -1478 0
-824 -1479 0
-825 -1480 0
-826 -1481 0
-827 -1482 0
-828 -1483 0
-821 -1491 0
-822 -1492 0
-823 -1493 0
-824 -1494 0
-825 -1495 0
-826 -1496 0
-827 -1497 0
-828 -1498 0
-823 -1525 0
-824 -1526 0
-825 -1527 0
-826 -1529 0
-827 -1530 0
-828 -1531 0
-827 -1547 0
-828 -1548 0
-824 -1558 0
-825 -1559 0
-827 -1561 0
-828 -1562 0
-823 -1565 0
-824 -1566 0
-827 -1568 0
-828 -1569 0
-823 -1572 0
-824 -1573 0
-827 -1574 0
-828 -1575 0
-822 -1583 0
-824 -1586 0
-827 -1588 0
-828 -1589 0
-823 -1592 0
-824 -1593 0
-825 -1594 0
-827 -1596 0
-828 -1597 0
-822 -1605 0
-824 -1608 0
-825 -1609 0
-827 -1610 0
-828 -1611 0
-821 -1620 0
-823 -1623 0
-824 -1624 0
-827 -1625 0
-828 -1626 0
-823 -1644 0
-825 -1645 0
-827 -1647 0
-828 -1648 0
-823 -1657 0
-824 -1658 0
-825 -1659 0
-827 -1660 0
-828 -1661 0
-822 -1671 0
-825 -1672 0
-826 -1674 0
-827 -1675 0
-828 -1676 0
-823 -1679 0
-826 -1681 0
-827 -1682 0
-828 -1683 0
-821 -1693 0
-823 -1694 0
-826 -1696 0
-827 -1697 0
-828 -1698 0
-822 -1699 0
-823 -1702 0
-826 -1704 0
-827 -1705 0
-828 -1706 0
-823 -1708 0
-824 -1709 0
-825 -1710 0
-826 -1711 0
-827 -1712 0
-828 -1713 0
-822 -1720 0
-823 -1722 0
-824 -1723 0
-825 -1724 0
-826 -1726 0
-827 -1727 0
-828 -1728 0
-821 -1736 0
-823 -1738 0
-824 -1739 0
-826 -1741 0
-827 -1742 0
-828 -1743 0
-824 -1758 0
-825 -1759 0
-826 -1761 0
-827 -1762 0
-828 -1763 0
-822 -1764 0
-824 -1766 0
-825 -1767 0
-826 -1769 0
-827 -1770 0
-828 -1771 0
-821 -1779 0
-822 -1780 0
-823 -1782 0
-824 -1783 0
-826 -1785 0
-827 -1786 0
-828 -1787 0
-821 -1802 0
-822 -1803 0
-823 -1804 0
-824 -1805 0
-825 -1806 0
-826 -1807 0
-827 -1808 0
-828 -1809 0
-822 -1845 0
-823 -1846 0
-825 -1847 0
-826 -1849 0
-827 -1850 0
-828 -1851 0
-823 -1853 0
-825 -1854 0
-826 -1855 0
-827 -1856 0
-828 -1857 0
-821 -1864 0
-825 -1865 0
-826 -1867 0
-827 -1868 0
-828 -1869 0
-823 -1870 0
-824 -1871 0
-825 -1872 0
-826 -1874 0
-827 -1875 0
-828 -1876 0
-823 -1879 0
-824 -1880 0
-825 -1881 0
-827 -1882 0
-828 -1883 0
-822 -1903 0
-823 -1904 0
-825 -1905 0
-826 -1907 0
-827 -1908 0
-828 -1909 0
-824 -1939 0
-825 -1940 0
-827 -1942 0
-828 -1943 0
-823 -1951 0
-824 -1952 0
-826 -1954 0
-827 -1955 0
-828 -1956 0
-821 -1965 0
-824 -1967 0
-826 -1969 0
-827 -1970 0
-828 -1971 0
-823 -1973 0
-825 -1974 0
-826 -1975 0
-827 -1976 0
-828 -1977 0
-821 -1984 0
-825 -1985 0
-826 -1987 0
-827 -1988 0
-828 -1989 0
-832 -844 0
-833 -846 0
-834 -847 0
-831 -866 0
-833 -868 0
-834 -869 0
-833 -876 0
-834 -877 0
-830 -917 0
-832 -919 0
-833 -921 0
-834 -922 0
-830 -932 0
-831 -933 0
-833 -936 0
-834 -937 0
-829 -945 0
-830 -947 0
-832 -948 0
-833 -949 0
-834 -950 0
-830 -961 0
-831 -962 0
-833 -964 0
-834 -965 0
-829 -967 0
-830 -970 0
-833 -972 0
-834 -973 0
-831 -977 0
-832 -978 0
-833 -979 0
-834 -980 0
-832 -1002 0
-833 -1004 0
-834 -1005 0
-831 -1009 0
-832 -1011 0
-833 -1012 0
-834 -1013 0
-830 -1030 0
-831 -1031 0
-832 -1033 0
-833 -1034 0
-834 -1035 0
-829 -1036 0
-830 -1039 0
-832 -1040 0
-833 -1042 0
-834 -1043 0
-830 -1063 0
-831 -1064 0
-833 -1065 0
-834 -1066 0
-830 -1069 0
-832 -1071 0
-833 -1072 0
-834 -1073 0
-830 -1076 0
-831 -1077 0
-832 -1078 0
-833 -1080 0
-834 -1081 0
-829 -1090 0
-831 -1092 0
-833 -1094 0
-834 -1095 0
-829 -1098 0
-833 -1101 0
-834 -1102 0
-831 -1124 0
-832 -1125 0
-833 -1126 0
-834 -1127 0
-831 -1130 0
-832 -1132 0
-833 -1134 0
-834 -1135 0
-829 -1137 0
-831 -1140 0
-832 -1142 0
-833 -1144 0
-834 -1145 0
-830 -1148 0
-832 -1149 0
-833 -1151 0
-834 -1152 0
-830 -1168 0
-831 -1169 0
-833 -1170 0
-834 -1171 0
-830 -1174 0
-833 -1177 0
-834 -1178 0
-830 -1192 0
-831 -1193 0
-833 -1196 0
-834 -1197 0
-829 -1198 0
-830 -1200 0
-831 -1201 0
-833 -1203 0
-834 -1204 0
-830 -1220 0
-831 -1221 0
-832 -1222 0
-833 -1224 0
-834 -1225 0
-831 -1227 0
-832 -1229 0
-833 -1231 0
-834 -1232 0
-829 -1234 0
-830 -1236 0
-833 -1238 0
-834 -1239 0
-829 -1254 0
-830 -1256 0
-831 -1257 0
-832 -1258 0
-833 -1259 0
-834 -1260 0
-829 -1262 0
-832 -1265 0
-833 -1266 0
-834 -1267 0
-829 -1269 0
-831 -1270 0
-832 -1271 0
-833 -1273 0
-834 -1274 0
-831 -1289 0
-833 -1292 0
-834 -1293 0
-829 -1312 0
-830 -1313 0
-831 -1314 0
-833 -1317 0
-834 -1318 0
-830 -1346 0
-831 -1347 0
-832 -1349 0
-833 -1350 0
-834 -1351 0
-831 -1362 0
-833 -1365 0
-834 -1366 0
-829 -1367 0
-831 -1370 0
-833 -1372 0
-834 -1373 0
-830 -1375 0
-832 -1377 0
-833 -1378 0
-834 -1379 0
-830 -1394 0
-831 -1395 0
-832 -1397 0
-833 -1399 0
-834 -1400 0
-830 -1403 0
-832 -1405 0
-833 -1406 0
-834 -1407 0
-830 -1423 0
-831 -1424 0
-833 -1426 0
-834 -1427 0
-829 -1436 0
-832 -1438 0
-833 -1440 0
-834 -1441 0
-831 -1452 0
-832 -1453 0
-833 -1455 0
-834 -1456 0
-830 -1471 0
-831 -1472 0
-832 -1474 0
-833 -1476 0
-834 -1477 0
-829 -1478 0
-831 -1479 0
-833 -1482 0
-834 -1483 0
-829 -1500 0
-831 -1501 0
-832 -1503 0
-833 -1504 0
-834 -1505 0
-829 -1506 0
-830 -1507 0
-831 -1508 0
-832 -1509 0
-833 -1510 0
-834 -1511 0
-830 -1520 0
-831 -1521 0
-833 -1523 0
-834 -1524 0
-830 -1536 0
-831 -1537 0
-832 -1539 0
-833 -1541 0
-834 -1542 0
-832 -1579 0
-833 -1581 0
-834 -1582 0
-829 -1583 0
-831 -1586 0
-832 -1587 0
-833 -1588 0
-834 -1589 0
-830 -1592 0
-831 -1593 0
-832 -1595 0
-833 -1596 0
-834 -1597 0
-830 -1614 0
-831 -1615 0
-833 -1618 0
-834 -1619 0
-830 -1623 0
-831 -1624 0
-833 -1625 0
-834 -1626 0
-830 -1644 0
-832 -1646 0
-833 -1647 0
-834 -1648 0
-831 -1650 0
-832 -1652 0
-833 -1654 0
-834 -1655 0
-829 -1663 0
-830 -1664 0
-831 -1665 0
-832 -1666 0
-833 -1668 0
-834 -1669 0
-830 -1686 0
-831 -1687 0
-832 -1689 0
-833 -1690 0
-834 -1691 0
-830 -1694 0
-832 -1695 0
-833 -1697 0
-834 -1698 0
-829 -1699 0
-830 -1702 0
-832 -1703 0
-833 -1705 0
-834 -1706 0
-830 -1708 0
-831 -1709 0
-833 -1712 0
-834 -1713 0
-830 -1731 0
-832 -1733 0
-833 -1734 0
-834 -1735 0
-830 -1738 0
-831 -1739 0
-832 -1740 0
-833 -1742 0
-834 -1743 0
-831 -1758 0
-832 -1760 0
-833 -1762 0
-834 -1763 0
-829 -1764 0
-831 -1766 0
-832 -1768 0
-833 -1770 0
-834 -1771 0
-829 -1789 0
-832 -1792 0
-833 -1793 0
-834 -1794 0
-829 -1795 0
-830 -1797 0
-831 -1798 0
-833 -1800 0
-834 -1801 0
-829 -1803 0
-830 -1804 0
-831 -1805 0
-833 -1808 0
-834 -1809 0
-830 -1826 0
-832 -1828 0
-833 -1830 0
-834 -1831 0
-830 -1833 0
-831 -1834 0
-832 -1836 0
-833 -1837 0
-834 -1838 0
-829 -1845 0
-830 -1846 0
-832 -1848 0
-833 -1850 0
-834 -1851 0
-830 -1879 0
-831 -1880 0
-833 -1882 0
-834 -1883 0
-830 -1898 0
-833 -1901 0
-834 -1902 0
-829 -1910 0
-830 -1911 0
-831 -1912 0
-832 -1913 0
-833 -1914 0
-834 -1915 0
-830 -1917 0
-831 -1918 0
-832 -1920 0
-833 -1922 0
-834 -1923 0
-830 -1951 0
-831 -1952 0
-832 -1953 0
-833 -1955 0
-834 -1956 0
-830 -1959 0
-832 -1961 0
-833 -1963 0
-834 -1964 0
-836 -851 0
-839 -852 0
-840 -853 0
-836 -866 0
-837 -867 0
-839 -868 0
-840 -869 0
-836 -883 0
-837 -884 0
-839 -886 0
-840 -887 0
-836 -926 0
-838 -927 0
-839 -928 0
-840 -929 0
-836 -933 0
-837 -934 0
-838 -935 0
-839 -936 0
-840 -937 0
-835 -945 0
-839 -949 0
-840 -950 0
-837 -954 0
-839 -956 0
-840 -957 0
-835 -967 0
-837 -971 0
-839 -972 0
-840 -973 0
-837 -985 0
-838 -987 0
-839 -988 0
-840 -989 0
-838 -1003 0
-839 -1004 0
-840 -1005 0
-838 -1018 0
-839 -1019 0
-840 -1020 0
-838 -1025 0
-839 -1026 0
-840 -1027 0
-835 -1036 0
-838 -1041 0
-839 -1042 0
-840 -1043 0
-837 -1055 0
-838 -1057 0
-839 -1058 0
-840 -1059 0
-837 -1070 0
-839 -1072 0
-840 -1073 0
-837 -1085 0
-839 -1087 0
-840 -1088 0
-835 -1090 0
-836 -1092 0
-838 -1093 0
-839 -1094 0
-840 -1095 0
-835 -1105 0
-836 -1107 0
-838 -1109 0
-839 -1110 0
-840 -1111 0
-836 -1116 0
-837 -1117 0
-838 -1118 0
-839 -1119 0
-840 -1120 0
-836 -1130 0
-837 -1131 0
-838 -1133 0
-839 -1134 0
-840 -1135 0
-835 -1137 0
-836 -1140 0
-837 -1141 0
-838 -1143 0
-839 -1144 0
-840 -1145 0
-836 -1155 0
-837 -1156 0
-839 -1157 0
-840 -1158 0
-836 -1169 0
-839 -1170 0
-840 -1171 0
-836 -1181 0
-839 -1183 0
-840 -1184 0
-836 -1186 0
-838 -1188 0
-839 -1189 0
-840 -1190 0
-835 -1198 0
-836 -1201 0
-838 -1202 0
-839 -1203 0
-840 -1204 0
-836 -1213 0
-837 -1214 0
-838 -1215 0
-839 -1216 0
-840 -1217 0
-836 -1227 0
-837 -1228 0
-838 -1230 0
-839 -1231 0
-840 -1232 0
-835 -1234 0
-838 -1237 0
-839 -1238 0
-840 -1239 0
-835 -1247 0
-837 -1249 0
-838 -1250 0
-839 -1251 0
-840 -1252 0
-835 -1262 0
-837 -1264 0
-839 -1266 0
-840 -1267 0
-835 -1276 0
-837 -1278 0
-839 -1279 0
-840 -1280 0
-839 -1285 0
-840 -1286 0
-835 -1305 0
-838 -1308 0
-839 -1309 0
-840 -1310 0
-837 -1340 0
-838 -1342 0
-839 -1343 0
-840 -1344 0
-836 -1355 0
-837 -1356 0
-839 -1358 0
-840 -1359 0
-835 -1367 0
-836 -1370 0
-837 -1371 0
-839 -1372 0
-840 -1373 0
-836 -1381 0
-838 -1383 0
-839 -1384 0
-840 -1385 0
-836 -1395 0
-837 -1396 0
-838 -1398 0
-839 -1399 0
-840 -1400 0
-836 -1410 0
-837 -1411 0
-838 -1412 0
-839 -1413 0
-840 -1414 0
-836 -1416 0
-837 -1417 0
-838 -1419 0
-839 -1420 0
-840 -1421 0
-835 -1436 0
-838 -1439 0
-839 -1440 0
-840 -1441 0
-837 -1445 0
-838 -1447 0
-839 -1448 0
-840 -1449 0
-835 -1478 0
-836 -1479 0
-837 -1480 0
-838 -1481 0
-839 -1482 0
-840 -1483 0
-835 -1492 0
-836 -1494 0
-837 -1495 0
-838 -1496 0
-839 -1497 0
-840 -1498 0
-835 -1506 0
-836 -1508 0
-839 -1510 0
-840 -1511 0
-836 -1514 0
-837 -1515 0
-839 -1517 0
-840 -1518 0
-839 -1547 0
-840 -1548 0
-836 -1573 0
-839 -1574 0
-840 -1575 0
-835 -1583 0
-836 -1586 0
-839 -1588 0
-840 -1589 0
-836 -1600 0
-837 -1601 0
-838 -1602 0
-839 -1603 0
-840 -1604 0
-836 -1615 0
-837 -1616 0
-838 -1617 0
-839 -1618 0
-840 -1619 0
-836 -1630 0
-837 -1631 0
-838 -1633 0
-839 -1634 0
-840 -1635 0
-836 -1638 0
-838 -1639 0
-839 -1640 0
-840 -1641 0
-836 -1658 0
-837 -1659 0
-839 -1660 0
-840 -1661 0
-835 -1671 0
-837 -1672 0
-838 -1674 0
-839 -1675 0
-840 -1676 0
-838 -1681 0
-839 -1682 0
-840 -1683 0
-838 -1696 0
-839 -1697 0
-840 -1698 0
-835 -1699 0
-838 -1704 0
-839 -1705 0
-840 -1706 0
-837 -1716 0
-839 -1718 0
-840 -1719 0
-837 -1732 0
-839 -1734 0
-840 -1735 0
-837 -1747 0
-839 -1749 0
-840 -1750 0
-838 -1754 0
-839 -1755 0
-840 -1756 0
-835 -1764 0
-836 -1766 0
-837 -1767 0
-838 -1769 0
-839 -1770 0
-840 -1771 0
-835 -1780 0
-836 -1783 0
-838 -1785 0
-839 -1786 0
-840 -1787 0
-835 -1795 0
-836 -1798 0
-837 -1799 0
-839 -1800 0
-840 -1801 0
-835 -1811 0
-836 -1812 0
-837 -1813 0
-839 -1815 0
-840 -1816 0
-836 -1820 0
-837 -1821 0
-839 -1822 0
-840 -1823 0
-836 -1834 0
-837 -1835 0
-839 -1837 0
-840 -1838 0
-835 -1839 0
-836 -1840 0
-837 -1841 0
-838 -1842 0
-839 -1843 0
-840 -1844 0
-836 -1871 0
-837 -1872 0
-838 -1874 0
-839 -1875 0
-840 -1876 0
-838 -1887 0
-839 -1888 0
-840 -1889 0
-836 -1892 0
-838 -1894 0
-839 -1895 0
-840 -1896 0
-835 -1903 0
-837 -1905 0
-838 -1907 0
-839 -1908 0
-840 -1909 0
-836 -1952 0
-838 -1954 0
-839 -1955 0
-840 -1956 0
-836 -1967 0
-838 -1969 0
-839 -1970 0
-840 -1971 0
-836 -1992 0
-837 -1993 0
-838 -1995 0
-839 -1996 0
-840 -1997 0
-842 -1015 0
-845 -1018 0
-846 -1019 0
-847 -1020 0
-842 -1061 0
-846 -1065 0
-847 -1066 0
-843 -1085 0
-844 -1086 0
-846 -1087 0
-847 -1088 0
-844 -1182 0
-846 -1183 0
-847 -1184 0
-844 -1222 0
-845 -1223 0
-846 -1224 0
-847 -1225 0
-842 -1255 0
-844 -1258 0
-846 -1259 0
-847 -1260 0
-843 -1278 0
-846 -1279 0
-847 -1280 0
-842 -1288 0
-843 -1290 0
-845 -1291 0
-846 -1292 0
-847 -1293 0
-843 -1315 0
-845 -1316 0
-846 -1317 0
-847 -1318 0
-842 -1327 0
-843 -1330 0
-846 -1331 0
-847 -1332 0
-845 -1336 0
-846 -1337 0
-847 -1338 0
-843 -1348 0
-844 -1349 0
-846 -1350 0
-847 -1351 0
-843 -1411 0
-845 -1412 0
-846 -1413 0
-847 -1414 0
-843 -1425 0
-846 -1426 0
-847 -1427 0
-842 -1451 0
-844 -1453 0
-845 -1454 0
-846 -1455 0
-847 -1456 0
-842 -1463 0
-844 -1466 0
-845 -1467 0
-846 -1468 0
-847 -1469 0
-843 -1473 0
-844 -1474 0
-845 -1475 0
-846 -1476 0
-847 -1477 0
-843 -1502 0
-844 -1503 0
-846 -1504 0
-847 -1505 0
-845 -1522 0
-846 -1523 0
-847 -1524 0
-841 -1543 0
-842 -1544 0
-844 -1546 0
-846 -1547 0
-847 -1548 0
-841 -1556 0
-843 -1559 0
-844 -1560 0
-846 -1561 0
-847 -1562 0
-842 -1563 0
-844 -1567 0
-846 -1568 0
-847 -1569 0
-841 -1576 0
-842 -1577 0
-843 -1578 0
-844 -1579 0
-845 -1580 0
-846 -1581 0
-847 -1582 0
-842 -1584 0
-844 -1587 0
-846 -1588 0
-847 -1589 0
-841 -1598 0
-842 -1599 0
-843 -1601 0
-845 -1602 0
-846 -1603 0
-847 -1604 0
-842 -1606 0
-843 -1609 0
-846 -1610 0
-847 -1611 0
-842 -1612 0
-843 -1616 0
-845 -1617 0
-846 -1618 0
-847 -1619 0
-842 -1621 0
-846 -1625 0
-847 -1626 0
-842 -1636 0
-845 -1639 0
-846 -1640 0
-847 -1641 0
-843 -1651 0
-844 -1652 0
-845 -1653 0
-846 -1654 0
-847 -1655 0
-841 -1670 0
-843 -1672 0
-844 -1673 0
-845 -1674 0
-846 -1675 0
-847 -1676 0
-841 -1684 0
-842 -1685 0
-843 -1688 0
-844 -1689 0
-846 -1690 0
-847 -1691 0
-841 -1692 0
-844 -1695 0
-845 -1696 0
-846 -1697 0
-847 -1698 0
-842 -1700 0
-844 -1703 0
-845 -1704 0
-846 -1705 0
-847 -1706 0
-841 -1714 0
-843 -1716 0
-844 -1717 0
-846 -1718 0
-847 -1719 0
-843 -1724 0
-844 -1725 0
-845 -1726 0
-846 -1727 0
-847 -1728 0
-842 -1729 0
-843 -1732 0
-844 -1733 0
-846 -1734 0
-847 -1735 0
-844 -1740 0
-845 -1741 0
-846 -1742 0
-847 -1743 0
-844 -1753 0
-845 -1754 0
-846 -1755 0
-847 -1756 0
-842 -1765 0
-843 -1767 0
-844 -1768 0
-845 -1769 0
-846 -1770 0
-847 -1771 0
-842 -1773 0
-843 -1775 0
-844 -1776 0
-846 -1777 0
-847 -1778 0
-842 -1781 0
-844 -1784 0
-845 -1785 0
-846 -1786 0
-847 -1787 0
-842 -1796 0
-843 -1799 0
-846 -1800 0
-847 -1801 0
-843 -1806 0
-845 -1807 0
-846 -1808 0
-847 -1809 0
-842 -1818 0
-843 -1821 0
-846 -1822 0
-847 -1823 0
-843 -1841 0
-845 -1842 0
-846 -1843 0
-847 -1844 0
-842 -1852 0
-843 -1854 0
-845 -1855 0
-846 -1856 0
-847 -1857 0
-843 -1872 0
-844 -1873 0
-845 -1874 0
-846 -1875 0
-847 -1876 0
-843 -1881 0
-846 -1882 0
-847 -1883 0
-842 -1890 0
-844 -1893 0
-845 -1894 0
-846 -1895 0
-847 -1896 0
-843 -1905 0
-844 -1906 0
-845 -1907 0
-846 -1908 0
-847 -1909 0
-842 -1966 0
-844 -1968 0
-845 -1969 0
-846 -1970 0
-847 -1971 0
-843 -1985 0
-844 -1986 0
-845 -1987 0
-846 -1988 0
-847 -1989 0
-843 -1993 0
-844 -1994 0
-845 -1995 0
-846 -1996 0
-847 -1997 0
-849 -1007 0
-851 -1009 0
-852 -1012 0
-853 -1013 0
-849 -1052 0
-850 -1054 0
-852 -1058 0
-853 -1059 0
-850 -1076 0
-851 -1077 0
-852 -1080 0
-853 -1081 0
-850 -1174 0
-852 -1177 0
-853 -1178 0
-851 -1213 0
-852 -1216 0
-853 -1217 0
-849 -1248 0
-852 -1251 0
-853 -1252 0
-851 -1270 0
-852 -1273 0
-853 -1274 0
-849 -1282 0
-850 -1283 0
-852 -1285 0
-853 -1286 0
-850 -1306 0
-852 -1309 0
-853 -1310 0
-849 -1320 0
-851 -1321 0
-852 -1324 0
-853 -1325 0
-850 -1334 0
-851 -1335 0
-852 -1337 0
-853 -1338 0
-852 -1343 0
-853 -1344 0
-850 -1403 0
-852 -1406 0
-853 -1407 0
-851 -1416 0
-852 -1420 0
-853 -1421 0
-849 -1443 0
-850 -1444 0
-852 -1448 0
-853 -1449 0
-849 -1457 0
-851 -1458 0
-852 -1461 0
-853 -1462 0
-850 -1493 0
-851 -1494 0
-852 -1497 0
-853 -1498 0
-850 -1513 0
-851 -1514 0
-852 -1517 0
-853 -1518 0
-850 -1525 0
-851 -1526 0
-852 -1530 0
-853 -1531 0
-848 -1533 0
-849 -1534 0
-850 -1536 0
-851 -1537 0
-852 -1541 0
-853 -1542 0
-848 -1549 0
-850 -1551 0
-851 -1552 0
-852 -1554 0
-853 -1555 0
-849 -1563 0
-850 -1565 0
-851 -1566 0
-852 -1568 0
-853 -1569 0
-848 -1570 0
-849 -1571 0
-850 -1572 0
-851 -1573 0
-852 -1574 0
-853 -1575 0
-849 -1584 0
-851 -1586 0
-852 -1588 0
-853 -1589 0
-848 -1590 0
-849 -1591 0
-850 -1592 0
-851 -1593 0
-852 -1596 0
-853 -1597 0
-849 -1606 0
-851 -1608 0
-852 -1610 0
-853 -1611 0
-849 -1612 0
-850 -1614 0
-851 -1615 0
-852 -1618 0
-853 -1619 0
-849 -1628 0
-851 -1630 0
-852 -1634 0
-853 -1635 0
-849 -1642 0
-850 -1644 0
-852 -1647 0
-853 -1648 0
-850 -1657 0
-851 -1658 0
-852 -1660 0
-853 -1661 0
-848 -1662 0
-850 -1664 0
-851 -1665 0
-852 -1668 0
-853 -1669 0
-848 -1677 0
-849 -1678 0
-850 -1679 0
-852 -1682 0
-853 -1683 0
-848 -1692 0
-850 -1694 0
-852 -1697 0
-853 -1698 0
-849 -1700 0
-850 -1702 0
-852 -1705 0
-853 -1706 0
-848 -1707 0
-850 -1708 0
-851 -1709 0
-852 -1712 0
-853 -1713 0
-850 -1722 0
-851 -1723 0
-852 -1727 0
-853 -1728 0
-849 -1729 0
-850 -1731 0
-852 -1734 0
-853 -1735 0
-850 -1746 0
-852 -1749 0
-853 -1750 0
-851 -1758 0
-852 -1762 0
-853 -1763 0
-849 -1765 0
-851 -1766 0
-852 -1770 0
-853 -1771 0
-849 -1773 0
-850 -1774 0
-852 -1777 0
-853 -1778 0
-849 -1790 0
-852 -1793 0
-853 -1794 0
-849 -1796 0
-850 -1797 0
-851 -1798 0
-852 -1800 0
-853 -1801 0
-851 -1812 0
-852 -1815 0
-853 -1816 0
-849 -1825 0
-850 -1826 0
-852 -1830 0
-853 -1831 0
-850 -1846 0
-852 -1850 0
-853 -1851 0
-849 -1858 0
-851 -1859 0
-852 -1862 0
-853 -1863 0
-850 -1885 0
-852 -1888 0
-853 -1889 0
-849 -1897 0
-850 -1898 0
-852 -1901 0
-853 -1902 0
-850 -1911 0
-851 -1912 0
-852 -1914 0
-853 -1915 0
-850 -1917 0
-851 -1918 0
-852 -1922 0
-853 -1923 0
-849 -1958 0
-850 -1959 0
-852 -1963 0
-853 -1964 0
-850 -1979 0
-851 -1980 0
-852 -1982 0
-853 -1983 0
-856 -1282 0
-858 -1283 0
-861 -1285 0
-862 -1286 0
-856 -1288 0
-859 -1290 0
-860 -1291 0
-861 -1292 0
-862 -1293 0
-856 -1320 0
-860 -1323 0
-861 -1324 0
-862 -1325 0
-856 -1327 0
-858 -1328 0
-859 -1330 0
-861 -1331 0
-862 -1332 0
-858 -1334 0
-860 -1336 0
-861 -1337 0
-862 -1338 0
-859 -1340 0
-860 -1342 0
-861 -1343 0
-862 -1344 0
-858 -1346 0
-859 -1348 0
-861 -1350 0
-862 -1351 0
-856 -1443 0
-858 -1444 0
-859 -1445 0
-860 -1447 0
-861 -1448 0
-862 -1449 0
-856 -1451 0
-860 -1454 0
-861 -1455 0
-862 -1456 0
-856 -1457 0
-859 -1459 0
-861 -1461 0
-862 -1462 0
-856 -1463 0
-858 -1464 0
-860 -1467 0
-861 -1468 0
-862 -1469 0
-858 -1471 0
-859 -1473 0
-860 -1475 0
-861 -1476 0
-862 -1477 0
-858 -1513 0
-859 -1515 0
-861 -1517 0
-862 -1518 0
-858 -1520 0
-860 -1522 0
-861 -1523 0
-862 -1524 0
-858 -1525 0
-859 -1527 0
-860 -1529 0
-861 -1530 0
-862 -1531 0
-854 -1570 0
-856 -1571 0
-858 -1572 0
-861 -1574 0
-862 -1575 0
-854 -1576 0
-856 -1577 0
-859 -1578 0
-860 -1580 0
-861 -1581 0
-862 -1582 0
-854 -1590 0
-856 -1591 0
-858 -1592 0
-859 -1594 0
-861 -1596 0
-862 -1597 0
-854 -1598 0
-856 -1599 0
-859 -1601 0
-860 -1602 0
-861 -1603 0
-862 -1604 0
-856 -1612 0
-857 -1613 0
-858 -1614 0
-859 -1616 0
-860 -1617 0
-861 -1618 0
-862 -1619 0
-856 -1621 0
-857 -1622 0
-858 -1623 0
-861 -1625 0
-862 -1626 0
-856 -1628 0
-857 -1629 0
-859 -1631 0
-860 -1633 0
-861 -1634 0
-862 -1635 0
-856 -1636 0
-857 -1637 0
-860 -1639 0
-861 -1640 0
-862 -1641 0
-856 -1642 0
-857 -1643 0
-858 -1644 0
-859 -1645 0
-861 -1647 0
-862 -1648 0
-857 -1649 0
-859 -1651 0
-860 -1653 0
-861 -1654 0
-862 -1655 0
-857 -1656 0
-858 -1657 0
-859 -1659 0
-861 -1660 0
-862 -1661 0
-854 -1677 0
-856 -1678 0
-858 -1679 0
-860 -1681 0
-861 -1682 0
-862 -1683 0
-854 -1684 0
-856 -1685 0
-858 -1686 0
-859 -1688 0
-861 -1690 0
-862 -1691 0
-854 -1692 0
-858 -1694 0
-860 -1696 0
-861 -1697 0
-862 -1698 0
-854 -1707 0
-858 -1708 0
-859 -1710 0
-860 -1711 0
-861 -1712 0
-862 -1713 0
-854 -1714 0
-858 -1715 0
-859 -1716 0
-861 -1718 0
-862 -1719 0
-856 -1729 0
-857 -1730 0
-858 -1731 0
-859 -1732 0
-861 -1734 0
-862 -1735 0
-857 -1737 0
-858 -1738 0
-860 -1741 0
-861 -1742 0
-862 -1743 0
-857 -1745 0
-858 -1746 0
-859 -1747 0
-861 -1749 0
-862 -1750 0
-857 -1751 0
-858 -1752 0
-860 -1754 0
-861 -1755 0
-862 -1756 0
-857 -1757 0
-859 -1759 0
-860 -1761 0
-861 -1762 0
-862 -1763 0
-855 -1772 0
-856 -1773 0
-858 -1774 0
-859 -1775 0
-861 -1777 0
-862 -1778 0
-855 -1780 0
-856 -1781 0
-858 -1782 0
-860 -1785 0
-861 -1786 0
-862 -1787 0
-855 -1789 0
-856 -1790 0
-859 -1791 0
-861 -1793 0
-862 -1794 0
-855 -1795 0
-856 -1796 0
-858 -1797 0
-859 -1799 0
-861 -1800 0
-862 -1801 0
-855 -1803 0
-858 -1804 0
-859 -1806 0
-860 -1807 0
-861 -1808 0
-862 -1809 0
-855 -1811 0
-859 -1813 0
-861 -1815 0
-862 -1816 0
-855 -1839 0
-859 -1841 0
-860 -1842 0
-861 -1843 0
-862 -1844 0
-855 -1845 0
-858 -1846 0
-859 -1847 0
-860 -1849 0
-861 -1850 0
-862 -1851 0
-857 -1878 0
-858 -1879 0
-859 -1881 0
-861 -1882 0
-862 -1883 0
-857 -1884 0
-858 -1885 0
-860 -1887 0
-861 -1888 0
-862 -1889 0
-855 -1903 0
-858 -1904 0
-859 -1905 0
-860 -1907 0
-861 -1908 0
-862 -1909 0
-855 -1910 0
-858 -1911 0
-861 -1914 0
-862 -1915 0
-865 -1075 0
-866 -1077 0
-868 -1080 0
-869 -1081 0
-865 -1083 0
-867 -1085 0
-868 -1087 0
-869 -1088 0
-866 -1270 0
-868 -1273 0
-869 -1274 0
-867 -1278 0
-868 -1279 0
-869 -1280 0
-868 -1309 0
-869 -1310 0
-866 -1314 0
-867 -1315 0
-868 -1317 0
-869 -1318 0
-866 -1335 0
-868 -1337 0
-869 -1338 0
-867 -1340 0
-868 -1343 0
-869 -1344 0
-866 -1347 0
-867 -1348 0
-868 -1350 0
-869 -1351 0
-866 -1472 0
-867 -1473 0
-868 -1476 0
-869 -1477 0
-863 -1549 0
-865 -1550 0
-866 -1552 0
-868 -1554 0
-869 -1555 0
-863 -1556 0
-865 -1557 0
-866 -1558 0
-867 -1559 0
-868 -1561 0
-869 -1562 0
-863 -1590 0
-864 -1591 0
-866 -1593 0
-867 -1594 0
-868 -1596 0
-869 -1597 0
-863 -1598 0
-864 -1599 0
-866 -1600 0
-867 -1601 0
-868 -1603 0
-869 -1604 0
-864 -1606 0
-865 -1607 0
-866 -1608 0
-867 -1609 0
-868 -1610 0
-869 -1611 0
-864 -1621 0
-865 -1622 0
-866 -1624 0
-868 -1625 0
-869 -1626 0
-864 -1628 0
-865 -1629 0
-866 -1630 0
-867 -1631 0
-868 -1634 0
-869 -1635 0
-864 -1636 0
-865 -1637 0
-866 -1638 0
-868 -1640 0
-869 -1641 0
-864 -1642 0
-865 -1643 0
-867 -1645 0
-868 -1647 0
-869 -1648 0
-863 -1662 0
-866 -1665 0
-868 -1668 0
-869 -1669 0
-863 -1670 0
-867 -1672 0
-868 -1675 0
-869 -1676 0
-863 -1692 0
-868 -1697 0
-869 -1698 0
-863 -1707 0
-866 -1709 0
-867 -1710 0
-868 -1712 0
-869 -1713 0
-863 -1714 0
-867 -1716 0
-868 -1718 0
-869 -1719 0
-865 -1721 0
-866 -1723 0
-867 -1724 0
-868 -1727 0
-869 -1728 0
-865 -1737 0
-866 -1739 0
-868 -1742 0
-869 -1743 0
-865 -1745 0
-867 -1747 0
-868 -1749 0
-869 -1750 0
-865 -1751 0
-868 -1755 0
-869 -1756 0
-865 -1757 0
-866 -1758 0
-867 -1759 0
-868 -1762 0
-869 -1763 0
-864 -1765 0
-866 -1766 0
-867 -1767 0
-868 -1770 0
-869 -1771 0
-864 -1781 0
-866 -1783 0
-868 -1786 0
-869 -1787 0
-864 -1790 0
-867 -1791 0
-868 -1793 0
-869 -1794 0
-864 -1796 0
-866 -1798 0
-867 -1799 0
-868 -1800 0
-869 -1801 0
-864 -1818 0
-866 -1820 0
-867 -1821 0
-868 -1822 0
-869 -1823 0
-864 -1825 0
-867 -1827 0
-868 -1830 0
-869 -1831 0
-864 -1852 0
-867 -1854 0
-868 -1856 0
-869 -1857 0
-864 -1858 0
-866 -1859 0
-867 -1860 0
-868 -1862 0
-869 -1863 0
-865 -1878 0
-866 -1880 0
-867 -1881 0
-868 -1882 0
-869 -1883 0
-865 -1884 0
-868 -1888 0
-869 -1889 0
-864 -1890 0
-866 -1892 0
-868 -1895 0
-869 -1896 0
-864 -1897 0
-867 -1899 0
-868 -1901 0
-869 -1902 0
-867 -1905 0
-868 -1908 0
-869 -1909 0
-866 -1912 0
-868 -1914 0
-869 -1915 0
-866 -1918 0
-867 -1919 0
-868 -1922 0
-869 -1923 0
-866 -1980 0
-868 -1982 0
-869 -1983 0
-867 -1985 0
-868 -1988 0
-869 -1989 0
-866 -1992 0
-867 -1993 0
-868 -1996 0
-869 -1997 0
-870 -981 0
-871 -982 0
-872 -983 0
-874 -985 0
-875 -987 0
-876 -988 0
-877 -989 0
-870 -1028 0
-872 -1029 0
-874 -1032 0
-876 -1034 0
-877 -1035 0
-872 -1067 0
-873 -1068 0
-874 -1070 0
-876 -1072 0
-877 -1073 0
-871 -1082 0
-873 -1083 0
-874 -1085 0
-876 -1087 0
-877 -1088 0
-870 -1153 0
-871 -1154 0
-874 -1156 0
-876 -1157 0
-877 -1158 0
-870 -1191 0
-874 -1194 0
-875 -1195 0
-876 -1196 0
-877 -1197 0
-873 -1226 0
-874 -1228 0
-875 -1230 0
-876 -1231 0
-877 -1232 0
-871 -1261 0
-872 -1263 0
-874 -1264 0
-876 -1266 0
-877 -1267 0
-871 -1275 0
-874 -1278 0
-876 -1279 0
-877 -1280 0
-871 -1287 0
-872 -1288 0
-874 -1290 0
-875 -1291 0
-876 -1292 0
-877 -1293 0
-872 -1296 0
-874 -1299 0
-875 -1301 0
-876 -1302 0
-877 -1303 0
-871 -1311 0
-874 -1315 0
-875 -1316 0
-876 -1317 0
-877 -1318 0
-871 -1326 0
-872 -1327 0
-874 -1330 0
-876 -1331 0
-877 -1332 0
-871 -1339 0
-874 -1340 0
-875 -1342 0
-876 -1343 0
-877 -1344 0
-870 -1380 0
-875 -1383 0
-876 -1384 0
-877 -1385 0
-872 -1437 0
-875 -1439 0
-876 -1440 0
-877 -1441 0
-871 -1450 0
-872 -1451 0
-875 -1454 0
-876 -1455 0
-877 -1456 0
-872 -1463 0
-875 -1467 0
-876 -1468 0
-877 -1469 0
-876 -1510 0
-877 -1511 0
-871 -1519 0
-875 -1522 0
-876 -1523 0
-877 -1524 0
-870 -1556 0
-873 -1557 0
-874 -1559 0
-876 -1561 0
-877 -1562 0
-870 -1576 0
-872 -1577 0
-874 -1578 0
-875 -1580 0
-876 -1581 0
-877 -1582 0
-870 -1590 0
-872 -1591 0
-874 -1594 0
-876 -1596 0
-877 -1597 0
-872 -1606 0
-873 -1607 0
-874 -1609 0
-876 -1610 0
-877 -1611 0
-872 -1612 0
-873 -1613 0
-874 -1616 0
-875 -1617 0
-876 -1618 0
-877 -1619 0
-871 -1627 0
-872 -1628 0
-873 -1629 0
-874 -1631 0
-875 -1633 0
-876 -1634 0
-877 -1635 0
-872 -1642 0
-873 -1643 0
-874 -1645 0
-876 -1647 0
-877 -1648 0
-873 -1649 0
-874 -1651 0
-875 -1653 0
-876 -1654 0
-877 -1655 0
-870 -1670 0
-874 -1672 0
-875 -1674 0
-876 -1675 0
-877 -1676 0
-870 -1684 0
-872 -1685 0
-874 -1688 0
-876 -1690 0
-877 -1691 0
-870 -1707 0
-874 -1710 0
-875 -1711 0
-876 -1712 0
-877 -1713 0
-873 -1721 0
-874 -1724 0
-875 -1726 0
-876 -1727 0
-877 -1728 0
-872 -1729 0
-873 -1730 0
-874 -1732 0
-876 -1734 0
-877 -1735 0
-871 -1744 0
-873 -1745 0
-874 -1747 0
-876 -1749 0
-877 -1750 0
-873 -1757 0
-874 -1759 0
-875 -1761 0
-876 -1762 0
-877 -1763 0
-872 -1765 0
-874 -1767 0
-875 -1769 0
-876 -1770 0
-877 -1771 0
-872 -1773 0
-874 -1775 0
-876 -1777 0
-877 -1778 0
-871 -1788 0
-872 -1790 0
-874 -1791 0
-876 -1793 0
-877 -1794 0
-871 -1802 0
-874 -1806 0
-875 -1807 0
-876 -1808 0
-877 -1809 0
-871 -1817 0
-872 -1818 0
-874 -1821 0
-876 -1822 0
-877 -1823 0
-871 -1832 0
-874 -1835 0
-876 -1837 0
-877 -1838 0
-874 -1841 0
-875 -1842 0
-876 -1843 0
-877 -1844 0
-872 -1852 0
-874 -1854 0
-875 -1855 0
-876 -1856 0
-877 -1857 0
-871 -1864 0
-874 -1865 0
-875 -1867 0
-876 -1868 0
-877 -1869 0
-873 -1884 0
-875 -1887 0
-876 -1888 0
-877 -1889 0
-872 -1890 0
-875 -1894 0
-876 -1895 0
-877 -1896 0
-876 -1914 0
-877 -1915 0
-872 -1938 0
-874 -1940 0
-876 -1942 0
-877 -1943 0
-872 -1972 0
-874 -1974 0
-875 -1975 0
-876 -1976 0
-877 -1977 0
-871 -1984 0
-874 -1985 0
-875 -1987 0
-876 -1988 0
-877 -1989 0
-874 -1993 0
-875 -1995 0
-876 -1996 0
-877 -1997 0
-878 -974 0
-879 -975 0
-880 -976 0
-883 -977 0
-885 -978 0
-886 -979 0
-887 -980 0
-878 -1021 0
-880 -1022 0
-882 -1023 0
-885 -1024 0
-886 -1026 0
-887 -1027 0
-880 -1067 0
-881 -1068 0
-882 -1069 0
-884 -1070 0
-885 -1071 0
-886 -1072 0
-887 -1073 0
-879 -1074 0
-881 -1075 0
-882 -1076 0
-883 -1077 0
-885 -1078 0
-886 -1080 0
-887 -1081 0
-878 -1146 0
-879 -1147 0
-882 -1148 0
-885 -1149 0
-886 -1151 0
-887 -1152 0
-878 -1185 0
-883 -1186 0
-885 -1187 0
-886 -1189 0
-887 -1190 0
-881 -1226 0
-883 -1227 0
-884 -1228 0
-885 -1229 0
-886 -1231 0
-887 -1232 0
-879 -1261 0
-880 -1263 0
-884 -1264 0
-885 -1265 0
-886 -1266 0
-887 -1267 0
-879 -1268 0
-883 -1270 0
-885 -1271 0
-886 -1273 0
-887 -1274 0
-879 -1281 0
-880 -1282 0
-882 -1283 0
-885 -1284 0
-886 -1285 0
-887 -1286 0
-880 -1296 0
-882 -1297 0
-883 -1298 0
-884 -1299 0
-885 -1300 0
-886 -1302 0
-887 -1303 0
-879 -1304 0
-882 -1306 0
-885 -1307 0
-886 -1309 0
-887 -1310 0
-879 -1319 0
-880 -1320 0
-883 -1321 0
-885 -1322 0
-886 -1324 0
-887 -1325 0
-879 -1345 0
-882 -1346 0
-883 -1347 0
-884 -1348 0
-885 -1349 0
-886 -1350 0
-887 -1351 0
-878 -1374 0
-882 -1375 0
-884 -1376 0
-885 -1377 0
-886 -1378 0
-887 -1379 0
-880 -1437 0
-885 -1438 0
-886 -1440 0
-887 -1441 0
-879 -1442 0
-880 -1443 0
-882 -1444 0
-884 -1445 0
-885 -1446 0
-886 -1448 0
-887 -1449 0
-880 -1457 0
-883 -1458 0
-884 -1459 0
-885 -1460 0
-886 -1461 0
-887 -1462 0
-882 -1471 0
-883 -1472 0
-884 -1473 0
-885 -1474 0
-886 -1476 0
-887 -1477 0
-882 -1507 0
-883 -1508 0
-885 -1509 0
-886 -1510 0
-887 -1511 0
-879 -1512 0
-882 -1513 0
-883 -1514 0
-884 -1515 0
-885 -1516 0
-886 -1517 0
-887 -1518 0
-882 -1525 0
-883 -1526 0
-884 -1527 0
-885 -1528 0
-886 -1530 0
-887 -1531 0
-878 -1549 0
-881 -1550 0
-882 -1551 0
-883 -1552 0
-886 -1554 0
-887 -1555 0
-878 -1570 0
-880 -1571 0
-882 -1572 0
-883 -1573 0
-886 -1574 0
-887 -1575 0
-878 -1598 0
-880 -1599 0
-883 -1600 0
-884 -1601 0
-886 -1603 0
-887 -1604 0
-880 -1606 0
-881 -1607 0
-883 -1608 0
-884 -1609 0
-886 -1610 0
-887 -1611 0
-880 -1612 0
-881 -1613 0
-882 -1614 0
-883 -1615 0
-884 -1616 0
-886 -1618 0
-887 -1619 0
-879 -1620 0
-880 -1621 0
-881 -1622 0
-882 -1623 0
-883 -1624 0
-886 -1625 0
-887 -1626 0
-880 -1636 0
-881 -1637 0
-883 -1638 0
-886 -1640 0
-887 -1641 0
-881 -1656 0
-882 -1657 0
-883 -1658 0
-884 -1659 0
-886 -1660 0
-887 -1661 0
-878 -1662 0
-882 -1664 0
-883 -1665 0
-885 -1666 0
-886 -1668 0
-887 -1669 0
-878 -1677 0
-880 -1678 0
-882 -1679 0
-885 -1680 0
-886 -1682 0
-887 -1683 0
-878 -1714 0
-882 -1715 0
-884 -1716 0
-885 -1717 0
-886 -1718 0
-887 -1719 0
-881 -1721 0
-882 -1722 0
-883 -1723 0
-884 -1724 0
-885 -1725 0
-886 -1727 0
-887 -1728 0
-880 -1729 0
-881 -1730 0
-882 -1731 0
-884 -1732 0
-885 -1733 0
-886 -1734 0
-887 -1735 0
-879 -1736 0
-881 -1737 0
-882 -1738 0
-883 -1739 0
-885 -1740 0
-886 -1742 0
-887 -1743 0
-881 -1751 0
-882 -1752 0
-885 -1753 0
-886 -1755 0
-887 -1756 0
-880 -1765 0
-883 -1766 0
-884 -1767 0
-885 -1768 0
-886 -1770 0
-887 -1771 0
-880 -1773 0
-882 -1774 0
-884 -1775 0
-885 -1776 0
-886 -1777 0
-887 -1778 0
-879 -1779 0
-880 -1781 0
-882 -1782 0
-883 -1783 0
-885 -1784 0
-886 -1786 0
-887 -1787 0
-879 -1810 0
-883 -1812 0
-884 -1813 0
-885 -1814 0
-886 -1815 0
-887 -1816 0
-879 -1824 0
-880 -1825 0
-882 -1826 0
-884 -1827 0
-885 -1828 0
-886 -1830 0
-887 -1831 0
-879 -1832 0
-882 -1833 0
-883 -1834 0
-884 -1835 0
-885 -1836 0
-886 -1837 0
-887 -1838 0
-882 -1846 0
-884 -1847 0
-885 -1848 0
-886 -1850 0
-887 -1851 0
-880 -1858 0
-883 -1859 0
-884 -1860 0
-885 -1861 0
-886 -1862 0
-887 -1863 0
-879 -1864 0
-884 -1865 0
-885 -1866 0
-886 -1868 0
-887 -1869 0
-881 -1878 0
-882 -1879 0
-883 -1880 0
-884 -1881 0
-886 -1882 0
-887 -1883 0
-880 -1897 0
-882 -1898 0
-884 -1899 0
-886 -1901 0
-887 -1902 0
-882 -1904 0
-884 -1905 0
-885 -1906 0
-886 -1908 0
-887 -1909 0
-882 -1917 0
-883 -1918 0
-884 -1919 0
-885 -1920 0
-886 -1922 0
-887 -1923 0
-880 -1938 0
-883 -1939 0
-884 -1940 0
-885 -1941 0
-886 -1942 0
-887 -1943 0
-880 -1972 0
-882 -1973 0
-884 -1974 0
-886 -1976 0
-887 -1977 0
-879 -1978 0
-882 -1979 0
-883 -1980 0
-886 -1982 0
-887 -1983 0
-889 -1052 0
-890 -1053 0
-891 -1056 0
-892 -1058 0
-893 -1059 0
-889 -1061 0
-890 -1062 0
-892 -1065 0
-893 -1066 0
-888 -1128 0
-891 -1132 0
-892 -1134 0
-893 -1135 0
-890 -1212 0
-892 -1216 0
-893 -1217 0
-890 -1219 0
-891 -1222 0
-892 -1224 0
-893 -1225 0
-889 -1248 0
-892 -1251 0
-893 -1252 0
-889 -1255 0
-891 -1258 0
-892 -1259 0
-893 -1260 0
-891 -1307 0
-892 -1309 0
-893 -1310 0
-892 -1317 0
-893 -1318 0
-889 -1320 0
-891 -1322 0
-892 -1324 0
-893 -1325 0
-889 -1327 0
-892 -1331 0
-893 -1332 0
-890 -1415 0
-891 -1418 0
-892 -1420 0
-893 -1421 0
-890 -1422 0
-892 -1426 0
-893 -1427 0
-889 -1457 0
-891 -1460 0
-892 -1461 0
-893 -1462 0
-889 -1463 0
-891 -1466 0
-892 -1468 0
-893 -1469 0
-892 -1497 0
-893 -1498 0
-891 -1503 0
-892 -1504 0
-893 -1505 0
-891 -1528 0
-892 -1530 0
-893 -1531 0
-888 -1533 0
-889 -1534 0
-890 -1535 0
-891 -1539 0
-892 -1541 0
-893 -1542 0
-888 -1543 0
-889 -1544 0
-890 -1545 0
-891 -1546 0
-892 -1547 0
-893 -1548 0
-888 -1570 0
-889 -1571 0
-892 -1574 0
-893 -1575 0
-888 -1576 0
-889 -1577 0
-891 -1579 0
-892 -1581 0
-893 -1582 0
-889 -1584 0
-890 -1585 0
-891 -1587 0
-892 -1588 0
-893 -1589 0
-889 -1621 0
-890 -1622 0
-892 -1625 0
-893 -1626 0
-889 -1628 0
-890 -1629 0
-891 -1632 0
-892 -1634 0
-893 -1635 0
-890 -1649 0
-891 -1652 0
-892 -1654 0
-893 -1655 0
-890 -1656 0
-892 -1660 0
-893 -1661 0
-888 -1662 0
-891 -1666 0
-892 -1668 0
-893 -1669 0
-888 -1670 0
-891 -1673 0
-892 -1675 0
-893 -1676 0
-888 -1677 0
-889 -1678 0
-891 -1680 0
-892 -1682 0
-893 -1683 0
-888 -1684 0
-889 -1685 0
-891 -1689 0
-892 -1690 0
-893 -1691 0
-889 -1700 0
-890 -1701 0
-891 -1703 0
-892 -1705 0
-893 -1706 0
-890 -1737 0
-891 -1740 0
-892 -1742 0
-893 -1743 0
-890 -1745 0
-891 -1748 0
-892 -1749 0
-893 -1750 0
-889 -1765 0
-891 -1768 0
-892 -1770 0
-893 -1771 0
-889 -1773 0
-891 -1776 0
-892 -1777 0
-893 -1778 0
-892 -1808 0
-893 -1809 0
-891 -1814 0
-892 -1815 0
-893 -1816 0
-889 -1818 0
-892 -1822 0
-893 -1823 0
-889 -1825 0
-891 -1828 0
-892 -1830 0
-893 -1831 0
-891 -1873 0
-892 -1875 0
-893 -1876 0
-890 -1878 0
-892 -1882 0
-893 -1883 0
-890 -1884 0
-891 -1886 0
-892 -1888 0
-893 -1889 0
-889 -1890 0
-891 -1893 0
-892 -1895 0
-893 -1896 0
-889 -1897 0
-892 -1901 0
-893 -1902 0
-891 -1920 0
-892 -1922 0
-893 -1923 0
-889 -1958 0
-891 -1961 0
-892 -1963 0
-893 -1964 0
-889 -1966 0
-891 -1968 0
-892 -1970 0
-893 -1971 0
-891 -1994 0
-892 -1996 0
-893 -1997 0
-894 -958 0
-895 -959 0
-897 -962 0
-900 -963 0
-901 -964 0
-902 -965 0
-894 -1028 0
-897 -1031 0
-898 -1032 0
-899 -1033 0
-901 -1034 0
-902 -1035 0
-896 -1045 0
-897 -1047 0
-899 -1048 0
-901 -1049 0
-902 -1050 0
-895 -1060 0
-896 -1062 0
-897 -1064 0
-901 -1065 0
-902 -1066 0
-894 -1121 0
-895 -1122 0
-897 -1124 0
-899 -1125 0
-901 -1126 0
-902 -1127 0
-894 -1191 0
-897 -1193 0
-898 -1194 0
-900 -1195 0
-901 -1196 0
-902 -1197 0
-896 -1206 0
-897 -1207 0
-900 -1208 0
-901 -1209 0
-902 -1210 0
-895 -1218 0
-896 -1219 0
-897 -1221 0
-899 -1222 0
-900 -1223 0
-901 -1224 0
-902 -1225 0
-895 -1240 0
-897 -1243 0
-901 -1244 0
-902 -1245 0
-895 -1253 0
-897 -1257 0
-899 -1258 0
-901 -1259 0
-902 -1260 0
-895 -1287 0
-897 -1289 0
-898 -1290 0
-900 -1291 0
-901 -1292 0
-902 -1293 0
-897 -1298 0
-898 -1299 0
-899 -1300 0
-900 -1301 0
-901 -1302 0
-902 -1303 0
-895 -1311 0
-897 -1314 0
-898 -1315 0
-900 -1316 0
-901 -1317 0
-902 -1318 0
-895 -1319 0
-897 -1321 0
-899 -1322 0
-900 -1323 0
-901 -1324 0
-902 -1325 0
-895 -1333 0
-897 -1335 0
-900 -1336 0
-901 -1337 0
-902 -1338 0
-895 -1345 0
-897 -1347 0
-898 -1348 0
-899 -1349 0
-901 -1350 0
-902 -1351 0
-894 -1360 0
-897 -1362 0
-898 -1363 0
-900 -1364 0
-901 -1365 0
-902 -1366 0
-896 -1422 0
-897 -1424 0
-898 -1425 0
-901 -1426 0
-902 -1427 0
-897 -1430 0
-898 -1431 0
-899 -1432 0
-900 -1433 0
-901 -1434 0
-902 -1435 0
-895 -1450 0
-897 -1452 0
-899 -1453 0
-900 -1454 0
-901 -1455 0
-902 -1456 0
-897 -1458 0
-898 -1459 0
-899 -1460 0
-901 -1461 0
-902 -1462 0
-897 -1472 0
-898 -1473 0
-899 -1474 0
-900 -1475 0
-901 -1476 0
-902 -1477 0
-897 -1487 0
-898 -1488 0
-901 -1489 0
-902 -1490 0
-895 -1499 0
-897 -1501 0
-898 -1502 0
-899 -1503 0
-901 -1504 0
-902 -1505 0
-895 -1519 0
-897 -1521 0
-900 -1522 0
-901 -1523 0
-902 -1524 0
-897 -1526 0
-898 -1527 0
-899 -1528 0
-900 -1529 0
-901 -1530 0
-902 -1531 0
-894 -1543 0
-896 -1545 0
-899 -1546 0
-901 -1547 0
-902 -1548 0
-894 -1570 0
-897 -1573 0
-901 -1574 0
-902 -1575 0
-896 -1585 0
-897 -1586 0
-899 -1587 0
-901 -1588 0
-902 -1589 0
-894 -1598 0
-897 -1600 0
-898 -1601 0
-900 -1602 0
-901 -1603 0
-902 -1604 0
-896 -1613 0
-897 -1615 0
-898 -1616 0
-900 -1617 0
-901 -1618 0
-902 -1619 0
-895 -1627 0
-896 -1629 0
-897 -1630 0
-898 -1631 0
-899 -1632 0
-900 -1633 0
-901 -1634 0
-902 -1635 0
-896 -1637 0
-897 -1638 0
-900 -1639 0
-901 -1640 0
-902 -1641 0
-896 -1656 0
-897 -1658 0
-898 -1659 0
-901 -1660 0
-902 -1661 0
-894 -1670 0
-898 -1672 0
-899 -1673 0
-900 -1674 0
-901 -1675 0
-902 -1676 0
-894 -1677 0
-899 -1680 0
-900 -1681 0
-901 -1682 0
-902 -1683 0
-894 -1692 0
-895 -1693 0
-899 -1695 0
-900 -1696 0
-901 -1697 0
-902 -1698 0
-896 -1701 0
-899 -1703 0
-900 -1704 0
-901 -1705 0
-902 -1706 0
-894 -1714 0
-898 -1716 0
-899 -1717 0
-901 -1718 0
-902 -1719 0
-896 -1730 0
-898 -1732 0
-899 -1733 0
-901 -1734 0
-902 -1735 0
-895 -1744 0
-896 -1745 0
-898 -1747 0
-899 -1748 0
-901 -1749 0
-902 -1750 0
-896 -1751 0
-899 -1753 0
-900 -1754 0
-901 -1755 0
-902 -1756 0
-897 -1766 0
-898 -1767 0
-899 -1768 0
-900 -1769 0
-901 -1770 0
-902 -1771 0
-895 -1779 0
-897 -1783 0
-899 -1784 0
-900 -1785 0
-901 -1786 0
-902 -1787 0
-897 -1798 0
-898 -1799 0
-901 -1800 0
-902 -1801 0
-895 -1810 0
-897 -1812 0
-898 -1813 0
-899 -1814 0
-901 -1815 0
-902 -1816 0
-895 -1817 0
-897 -1820 0
-898 -1821 0
-901 -1822 0
-902 -1823 0
-895 -1832 0
-897 -1834 0
-898 -1835 0
-899 -1836 0
-901 -1837 0
-902 -1838 0
-897 -1840 0
-898 -1841 0
-900 -1842 0
-901 -1843 0
-902 -1844 0
-897 -1871 0
-898 -1872 0
-899 -1873 0
-900 -1874 0
-901 -1875 0
-902 -1876 0
-896 -1884 0
-899 -1886 0
-900 -1887 0
-901 -1888 0
-902 -1889 0
-897 -1892 0
-899 -1893 0
-900 -1894 0
-901 -1895 0
-902 -1896 0
-898 -1905 0
-899 -1906 0
-900 -1907 0
-901 -1908 0
-902 -1909 0
-897 -1952 0
-899 -1953 0
-900 -1954 0
-901 -1955 0
-902 -1956 0
-895 -1965 0
-897 -1967 0
-899 -1968 0
-900 -1969 0
-901 -1970 0
-902 -1971 0
-897 -1992 0
-898 -1993 0
-899 -1994 0
-900 -1995 0
-901 -1996 0
-902 -1997 0
-903 -951 0
-904 -952 0
-907 -956 0
-908 -957 0
-903 -1021 0
-906 -1023 0
-907 -1026 0
-908 -1027 0
-905 -1045 0
-906 -1046 0
-907 -1049 0
-908 -1050 0
-904 -1051 0
-905 -1053 0
-906 -1054 0
-907 -1058 0
-908 -1059 0
-903 -1112 0
-904 -1113 0
-906 -1115 0
-907 -1119 0
-908 -1120 0
-903 -1185 0
-907 -1189 0
-908 -1190 0
-905 -1206 0
-907 -1209 0
-908 -1210 0
-904 -1211 0
-905 -1212 0
-907 -1216 0
-908 -1217 0
-904 -1240 0
-907 -1244 0
-908 -1245 0
-904 -1246 0
-907 -1251 0
-908 -1252 0
-904 -1281 0
-906 -1283 0
-907 -1285 0
-908 -1286 0
-906 -1297 0
-907 -1302 0
-908 -1303 0
-904 -1304 0
-906 -1306 0
-907 -1309 0
-908 -1310 0
-904 -1326 0
-906 -1328 0
-907 -1331 0
-908 -1332 0
-904 -1333 0
-906 -1334 0
-907 -1337 0
-908 -1338 0
-904 -1339 0
-907 -1343 0
-908 -1344 0
-903 -1352 0
-906 -1354 0
-907 -1358 0
-908 -1359 0
-905 -1415 0
-907 -1420 0
-908 -1421 0
-907 -1434 0
-908 -1435 0
-904 -1442 0
-906 -1444 0
-907 -1448 0
-908 -1449 0
-906 -1464 0
-907 -1468 0
-908 -1469 0
-906 -1486 0
-907 -1489 0
-908 -1490 0
-904 -1491 0
-906 -1493 0
-907 -1497 0
-908 -1498 0
-904 -1512 0
-906 -1513 0
-907 -1517 0
-908 -1518 0
-903 -1533 0
-905 -1535 0
-906 -1536 0
-907 -1541 0
-908 -1542 0
-903 -1576 0
-907 -1581 0
-908 -1582 0
-905 -1585 0
-907 -1588 0
-908 -1589 0
-903 -1590 0
-906 -1592 0
-907 -1596 0
-908 -1597 0
-905 -1613 0
-906 -1614 0
-907 -1618 0
-908 -1619 0
-904 -1620 0
-905 -1622 0
-906 -1623 0
-907 -1625 0
-908 -1626 0
-905 -1643 0
-906 -1644 0
-907 -1647 0
-908 -1648 0
-905 -1649 0
-907 -1654 0
-908 -1655 0
-903 -1662 0
-906 -1664 0
-907 -1668 0
-908 -1669 0
-903 -1684 0
-906 -1686 0
-907 -1690 0
-908 -1691 0
-903 -1692 0
-904 -1693 0
-906 -1694 0
-907 -1697 0
-908 -1698 0
-905 -1701 0
-906 -1702 0
-907 -1705 0
-908 -1706 0
-903 -1707 0
-906 -1708 0
-907 -1712 0
-908 -1713 0
-905 -1730 0
-906 -1731 0
-907 -1734 0
-908 -1735 0
-904 -1736 0
-905 -1737 0
-906 -1738 0
-907 -1742 0
-908 -1743 0
-905 -1757 0
-907 -1762 0
-908 -1763 0
-907 -1770 0
-908 -1771 0
-904 -1788 0
-907 -1793 0
-908 -1794 0
-906 -1797 0
-907 -1800 0
-908 -1801 0
-904 -1802 0
-906 -1804 0
-907 -1808 0
-908 -1809 0
-904 -1824 0
-906 -1826 0
-907 -1830 0
-908 -1831 0
-904 -1832 0
-906 -1833 0
-907 -1837 0
-908 -1838 0
-906 -1846 0
-907 -1850 0
-908 -1851 0
-905 -1878 0
-906 -1879 0
-907 -1882 0
-908 -1883 0
-906 -1898 0
-907 -1901 0
-908 -1902 0
-906 -1911 0
-907 -1914 0
-908 -1915 0
-906 -1917 0
-907 -1922 0
-908 -1923 0
-906 -1951 0
-907 -1955 0
-908 -1956 0
-904 -1957 0
-906 -1959 0
-907 -1963 0
-908 -1964 0
-910 -1022 0
-913 -1026 0
-914 -1027 0
-910 -1029 0
-912 -1032 0
-913 -1034 0
-914 -1035 0
-913 -1189 0
-914 -1190 0
-912 -1194 0
-913 -1196 0
-914 -1197 0
-910 -1296 0
-912 -1299 0
-913 -1302 0
-914 -1303 0
-909 -1304 0
-913 -1309 0
-914 -1310 0
-909 -1311 0
-912 -1315 0
-913 -1317 0
-914 -1318 0
-909 -1319 0
-910 -1320 0
-913 -1324 0
-914 -1325 0
-909 -1326 0
-910 -1327 0
-912 -1330 0
-913 -1331 0
-914 -1332 0
-909 -1333 0
-913 -1337 0
-914 -1338 0
-909 -1339 0
-912 -1340 0
-913 -1343 0
-914 -1344 0
-909 -1345 0
-912 -1348 0
-913 -1350 0
-914 -1351 0
-910 -1457 0
-912 -1459 0
-913 -1461 0
-914 -1462 0
-910 -1463 0
-913 -1468 0
-914 -1469 0
-912 -1473 0
-913 -1476 0
-914 -1477 0
-912 -1527 0
-913 -1530 0
-914 -1531 0
-910 -1571 0
-913 -1574 0
-914 -1575 0
-910 -1577 0
-912 -1578 0
-913 -1581 0
-914 -1582 0
-910 -1591 0
-912 -1594 0
-913 -1596 0
-914 -1597 0
-910 -1599 0
-912 -1601 0
-913 -1603 0
-914 -1604 0
-910 -1636 0
-911 -1637 0
-913 -1640 0
-914 -1641 0
-910 -1642 0
-911 -1643 0
-912 -1645 0
-913 -1647 0
-914 -1648 0
-911 -1649 0
-912 -1651 0
-913 -1654 0
-914 -1655 0
-911 -1656 0
-912 -1659 0
-913 -1660 0
-914 -1661 0
-913 -1668 0
-914 -1669 0
-912 -1672 0
-913 -1675 0
-914 -1676 0
-910 -1678 0
-913 -1682 0
-914 -1683 0
-910 -1685 0
-912 -1688 0
-913 -1690 0
-914 -1691 0
-909 -1693 0
-913 -1697 0
-914 -1698 0
-912 -1710 0
-913 -1712 0
-914 -1713 0
-912 -1716 0
-913 -1718 0
-914 -1719 0
-911 -1751 0
-913 -1755 0
-914 -1756 0
-911 -1757 0
-912 -1759 0
-913 -1762 0
-914 -1763 0
-910 -1765 0
-912 -1767 0
-913 -1770 0
-914 -1771 0
-910 -1773 0
-912 -1775 0
-913 -1777 0
-914 -1778 0
-909 -1779 0
-910 -1781 0
-913 -1786 0
-914 -1787 0
-909 -1788 0
-910 -1790 0
-912 -1791 0
-913 -1793 0
-914 -1794 0
-910 -1796 0
-912 -1799 0
-913 -1800 0
-914 -1801 0
-909 -1802 0
-912 -1806 0
-913 -1808 0
-914 -1809 0
-909 -1810 0
-912 -1813 0
-913 -1815 0
-914 -1816 0
-909 -1817 0
-910 -1818 0
-912 -1821 0
-913 -1822 0
-914 -1823 0
-909 -1824 0
-910 -1825 0
-912 -1827 0
-913 -1830 0
-914 -1831 0
-909 -1832 0
-912 -1835 0
-913 -1837 0
-914 -1838 0
-910 -1890 0
-913 -1895 0
-914 -1896 0
-910 -1897 0
-912 -1899 0
-913 -1901 0
-914 -1902 0
-912 -1905 0
-913 -1908 0
-914 -1909 0
-913 -1914 0
-914 -1915 0
-912 -1919 0
-913 -1922 0
-914 -1923 0
-912 -1993 0
-913 -1996 0
-914 -1997 0
-915 -958 0
-917 -961 0
-920 -963 0
-921 -964 0
-922 -965 0
-915 -981 0
-917 -984 0
-918 -985 0
-919 -986 0
-920 -987 0
-921 -988 0
-922 -989 0
-916 -1001 0
-919 -1002 0
-920 -1003 0
-921 -1004 0
-922 -1005 0
-916 -1016 0
-917 -1017 0
-920 -1018 0
-921 -1019 0
-922 -1020 0
-915 -1121 0
-919 -1125 0
-921 -1126 0
-922 -1127 0
-915 -1153 0
-918 -1156 0
-921 -1157 0
-922 -1158 0
-916 -1167 0
-917 -1168 0
-921 -1170 0
-922 -1171 0
-916 -1180 0
-919 -1182 0
-921 -1183 0
-922 -1184 0
-921 -1244 0
-922 -1245 0
-917 -1256 0
-919 -1258 0
-921 -1259 0
-922 -1260 0
-918 -1264 0
-919 -1265 0
-921 -1266 0
-922 -1267 0
-917 -1277 0
-918 -1278 0
-921 -1279 0
-922 -1280 0
-917 -1283 0
-919 -1284 0
-921 -1285 0
-922 -1286 0
-917 -1328 0
-918 -1330 0
-921 -1331 0
-922 -1332 0
-917 -1346 0
-918 -1348 0
-919 -1349 0
-921 -1350 0
-922 -1351 0
-915 -1360 0
-918 -1363 0
-920 -1364 0
-921 -1365 0
-922 -1366 0
-915 -1380 0
-919 -1382 0
-920 -1383 0
-921 -1384 0
-922 -1385 0
-916 -1393 0
-917 -1394 0
-918 -1396 0
-919 -1397 0
-920 -1398 0
-921 -1399 0
-922 -1400 0
-916 -1409 0
-918 -1411 0
-920 -1412 0
-921 -1413 0
-922 -1414 0
-918 -1431 0
-919 -1432 0
-920 -1433 0
-921 -1434 0
-922 -1435 0
-919 -1438 0
-920 -1439 0
-921 -1440 0
-922 -1441 0
-917 -1444 0
-918 -1445 0
-919 -1446 0
-920 -1447 0
-921 -1448 0
-922 -1449 0
-917 -1464 0
-919 -1466 0
-920 -1467 0
-921 -1468 0
-922 -1469 0
-917 -1471 0
-918 -1473 0
-919 -1474 0
-920 -1475 0
-921 -1476 0
-922 -1477 0
-917 -1486 0
-918 -1488 0
-921 -1489 0
-922 -1490 0
-918 -1502 0
-919 -1503 0
-921 -1504 0
-922 -1505 0
-917 -1507 0
-919 -1509 0
-921 -1510 0
-922 -1511 0
-917 -1513 0
-918 -1515 0
-919 -1516 0
-921 -1517 0
-922 -1518 0
-915 -1543 0
-916 -1545 0
-919 -1546 0
-921 -1547 0
-922 -1548 0
-915 -1556 0
-916 -1557 0
-918 -1559 0
-919 -1560 0
-921 -1561 0
-922 -1562 0
-916 -1564 0
-917 -1565 0
-919 -1567 0
-921 -1568 0
-922 -1569 0
-915 -1570 0
-917 -1572 0
-921 -1574 0
-922 -1575 0
-916 -1585 0
-919 -1587 0
-921 -1588 0
-922 -1589 0
-915 -1590 0
-917 -1592 0
-918 -1594 0
-919 -1595 0
-921 -1596 0
-922 -1597 0
-916 -1607 0
-918 -1609 0
-921 -1610 0
-922 -1611 0
-916 -1622 0
-917 -1623 0
-921 -1625 0
-922 -1626 0
-916 -1643 0
-917 -1644 0
-918 -1645 0
-919 -1646 0
-921 -1647 0
-922 -1648 0
-916 -1656 0
-917 -1657 0
-918 -1659 0
-921 -1660 0
-922 -1661 0
-915 -1670 0
-918 -1672 0
-919 -1673 0
-920 -1674 0
-921 -1675 0
-922 -1676 0
-915 -1677 0
-917 -1679 0
-919 -1680 0
-920 -1681 0
-921 -1682 0
-922 -1683 0
-915 -1692 0
-917 -1694 0
-919 -1695 0
-920 -1696 0
-921 -1697 0
-922 -1698 0
-916 -1701 0
-917 -1702 0
-919 -1703 0
-920 -1704 0
-921 -1705 0
-922 -1706 0
-915 -1707 0
-917 -1708 0
-918 -1710 0
-920 -1711 0
-921 -1712 0
-922 -1713 0
-916 -1721 0
-917 -1722 0
-918 -1724 0
-919 -1725 0
-920 -1726 0
-921 -1727 0
-922 -1728 0
-916 -1737 0
-917 -1738 0
-919 -1740 0
-920 -1741 0
-921 -1742 0
-922 -1743 0
-916 -1757 0
-918 -1759 0
-919 -1760 0
-920 -1761 0
-921 -1762 0
-922 -1763 0
-918 -1767 0
-919 -1768 0
-920 -1769 0
-921 -1770 0
-922 -1771 0
-917 -1782 0
-919 -1784 0
-920 -1785 0
-921 -1786 0
-922 -1787 0
-917 -1804 0
-918 -1806 0
-920 -1807 0
-921 -1808 0
-922 -1809 0
-917 -1846 0
-918 -1847 0
-919 -1848 0
-920 -1849 0
-921 -1850 0
-922 -1851 0
-917 -1853 0
-918 -1854 0
-920 -1855 0
-921 -1856 0
-922 -1857 0
-918 -1865 0
-919 -1866 0
-920 -1867 0
-921 -1868 0
-922 -1869 0
-917 -1870 0
-918 -1872 0
-919 -1873 0
-920 -1874 0
-921 -1875 0
-922 -1876 0
-916 -1878 0
-917 -1879 0
-918 -1881 0
-921 -1882 0
-922 -1883 0
-917 -1904 0
-918 -1905 0
-919 -1906 0
-920 -1907 0
-921 -1908 0
-922 -1909 0
-918 -1940 0
-919 -1941 0
-921 -1942 0
-922 -1943 0
-917 -1951 0
-919 -1953 0
-920 -1954 0
-921 -1955 0
-922 -1956 0
-919 -1968 0
-920 -1969 0
-921 -1970 0
-922 -1971 0
-917 -1973 0
-918 -1974 0
-920 -1975 0
-921 -1976 0
-922 -1977 0
-918 -1985 0
-919 -1986 0
-920 -1987 0
-921 -1988 0
-922 -1989 0
-923 -951 0
-928 -956 0
-929 -957 0
-923 -974 0
-926 -977 0
-928 -979 0
-929 -980 0
-924 -1001 0
-927 -1003 0
-928 -1004 0
-929 -1005 0
-924 -1008 0
-926 -1009 0
-928 -1012 0
-929 -1013 0
-923 -1112 0
-925 -1115 0
-926 -1116 0
-927 -1118 0
-928 -1119 0
-929 -1120 0
-923 -1146 0
-925 -1148 0
-927 -1150 0
-928 -1151 0
-929 -1152 0
-924 -1167 0
-925 -1168 0
-926 -1169 0
-928 -1170 0
-929 -1171 0
-924 -1173 0
-925 -1174 0
-927 -1176 0
-928 -1177 0
-929 -1178 0
-926 -1243 0
-928 -1244 0
-929 -1245 0
-927 -1250 0
-928 -1251 0
-929 -1252 0
-928 -1266 0
-929 -1267 0
-926 -1270 0
-927 -1272 0
-928 -1273 0
-929 -1274 0
-926 -1289 0
-927 -1291 0
-928 -1292 0
-929 -1293 0
-926 -1321 0
-927 -1323 0
-928 -1324 0
-929 -1325 0
-927 -1342 0
-928 -1343 0
-929 -1344 0
-923 -1352 0
-925 -1354 0
-926 -1355 0
-928 -1358 0
-929 -1359 0
-923 -1374 0
-925 -1375 0
-928 -1378 0
-929 -1379 0
-924 -1393 0
-925 -1394 0
-926 -1395 0
-927 -1398 0
-928 -1399 0
-929 -1400 0
-924 -1402 0
-925 -1403 0
-928 -1406 0
-929 -1407 0
-926 -1430 0
-927 -1433 0
-928 -1434 0
-929 -1435 0
-927 -1439 0
-928 -1440 0
-929 -1441 0
-926 -1452 0
-927 -1454 0
-928 -1455 0
-929 -1456 0
-926 -1458 0
-928 -1461 0
-929 -1462 0
-925 -1486 0
-926 -1487 0
-928 -1489 0
-929 -1490 0
-925 -1493 0
-926 -1494 0
-927 -1496 0
-928 -1497 0
-929 -1498 0
-925 -1507 0
-926 -1508 0
-928 -1510 0
-929 -1511 0
-925 -1520 0
-926 -1521 0
-927 -1522 0
-928 -1523 0
-929 -1524 0
-925 -1525 0
-926 -1526 0
-927 -1529 0
-928 -1530 0
-929 -1531 0
-923 -1533 0
-924 -1535 0
-925 -1536 0
-926 -1537 0
-927 -1540 0
-928 -1541 0
-929 -1542 0
-923 -1549 0
-924 -1550 0
-925 -1551 0
-926 -1552 0
-927 -1553 0
-928 -1554 0
-929 -1555 0
-924 -1564 0
-925 -1565 0
-926 -1566 0
-928 -1568 0
-929 -1569 0
-923 -1576 0
-927 -1580 0
-928 -1581 0
-929 -1582 0
-924 -1585 0
-926 -1586 0
-928 -1588 0
-929 -1589 0
-923 -1598 0
-926 -1600 0
-927 -1602 0
-928 -1603 0
-929 -1604 0
-924 -1607 0
-926 -1608 0
-928 -1610 0
-929 -1611 0
-924 -1629 0
-926 -1630 0
-927 -1633 0
-928 -1634 0
-929 -1635 0
-924 -1637 0
-926 -1638 0
-927 -1639 0
-928 -1640 0
-929 -1641 0
-924 -1649 0
-926 -1650 0
-927 -1653 0
-928 -1654 0
-929 -1655 0
-923 -1662 0
-925 -1664 0
-926 -1665 0
-927 -1667 0
-928 -1668 0
-929 -1669 0
-923 -1684 0
-925 -1686 0
-926 -1687 0
-928 -1690 0
-929 -1691 0
-923 -1692 0
-925 -1694 0
-927 -1696 0
-928 -1697 0
-929 -1698 0
-924 -1701 0
-925 -1702 0
-927 -1704 0
-928 -1705 0
-929 -1706 0
-923 -1714 0
-925 -1715 0
-928 -1718 0
-929 -1719 0
-924 -1721 0
-925 -1722 0
-926 -1723 0
-927 -1726 0
-928 -1727 0
-929 -1728 0
-924 -1745 0
-925 -1746 0
-928 -1749 0
-929 -1750 0
-924 -1751 0
-925 -1752 0
-927 -1754 0
-928 -1755 0
-929 -1756 0
-926 -1766 0
-927 -1769 0
-928 -1770 0
-929 -1771 0
-928 -1793 0
-929 -1794 0
-926 -1812 0
-928 -1815 0
-929 -1816 0
-926 -1840 0
-927 -1842 0
-928 -1843 0
-929 -1844 0
-926 -1859 0
-928 -1862 0
-929 -1863 0
-927 -1867 0
-928 -1868 0
-929 -1869 0
-924 -1884 0
-925 -1885 0
-927 -1887 0
-928 -1888 0
-929 -1889 0
-925 -1911 0
-926 -1912 0
-928 -1914 0
-929 -1915 0
-926 -1939 0
-928 -1942 0
-929 -1943 0
-925 -1951 0
-926 -1952 0
-927 -1954 0
-928 -1955 0
-929 -1956 0
-925 -1959 0
-927 -1962 0
-928 -1963 0
-929 -1964 0
-925 -1973 0
-927 -1975 0
-928 -1976 0
-929 -1977 0
-925 -1979 0
-926 -1980 0
-927 -1981 0
-928 -1982 0
-929 -1983 0
-930 -976 0
-933 -977 0
-936 -979 0
-937 -980 0
-930 -983 0
-932 -984 0
-934 -985 0
-935 -987 0
-936 -988 0
-937 -989 0
-932 -1148 0
-935 -1150 0
-936 -1151 0
-937 -1152 0
-933 -1155 0
-934 -1156 0
-936 -1157 0
-937 -1158 0
-930 -1263 0
-934 -1264 0
-936 -1266 0
-937 -1267 0
-933 -1270 0
-935 -1272 0
-936 -1273 0
-937 -1274 0
-932 -1277 0
-934 -1278 0
-936 -1279 0
-937 -1280 0
-930 -1282 0
-932 -1283 0
-936 -1285 0
-937 -1286 0
-930 -1288 0
-933 -1289 0
-934 -1290 0
-935 -1291 0
-936 -1292 0
-937 -1293 0
-934 -1340 0
-935 -1342 0
-936 -1343 0
-937 -1344 0
-932 -1346 0
-933 -1347 0
-934 -1348 0
-936 -1350 0
-937 -1351 0
-932 -1375 0
-934 -1376 0
-936 -1378 0
-937 -1379 0
-933 -1381 0
-935 -1383 0
-936 -1384 0
-937 -1385 0
-930 -1437 0
-935 -1439 0
-936 -1440 0
-937 -1441 0
-930 -1443 0
-932 -1444 0
-934 -1445 0
-935 -1447 0
-936 -1448 0
-937 -1449 0
-930 -1451 0
-933 -1452 0
-935 -1454 0
-936 -1455 0
-937 -1456 0
-932 -1471 0
-933 -1472 0
-934 -1473 0
-935 -1475 0
-936 -1476 0
-937 -1477 0
-932 -1507 0
-933 -1508 0
-936 -1510 0
-937 -1511 0
-932 -1513 0
-933 -1514 0
-934 -1515 0
-936 -1517 0
-937 -1518 0
-932 -1520 0
-933 -1521 0
-935 -1522 0
-936 -1523 0
-937 -1524 0
-931 -1550 0
-932 -1551 0
-933 -1552 0
-935 -1553 0
-936 -1554 0
-937 -1555 0
-931 -1557 0
-933 -1558 0
-934 -1559 0
-936 -1561 0
-937 -1562 0
-930 -1571 0
-932 -1572 0
-933 -1573 0
-936 -1574 0
-937 -1575 0
-930 -1577 0
-934 -1578 0
-935 -1580 0
-936 -1581 0
-937 -1582 0
-930 -1606 0
-931 -1607 0
-933 -1608 0
-934 -1609 0
-936 -1610 0
-937 -1611 0
-930 -1612 0
-931 -1613 0
-932 -1614 0
-933 -1615 0
-934 -1616 0
-935 -1617 0
-936 -1618 0
-937 -1619 0
-930 -1621 0
-931 -1622 0
-932 -1623 0
-933 -1624 0
-936 -1625 0
-937 -1626 0
-930 -1628 0
-931 -1629 0
-933 -1630 0
-934 -1631 0
-935 -1633 0
-936 -1634 0
-937 -1635 0
-931 -1649 0
-933 -1650 0
-934 -1651 0
-935 -1653 0
-936 -1654 0
-937 -1655 0
-931 -1656 0
-932 -1657 0
-933 -1658 0
-934 -1659 0
-936 -1660 0
-937 -1661 0
-932 -1664 0
-933 -1665 0
-935 -1667 0
-936 -1668 0
-937 -1669 0
-934 -1672 0
-935 -1674 0
-936 -1675 0
-937 -1676 0
-930 -1678 0
-932 -1679 0
-935 -1681 0
-936 -1682 0
-937 -1683 0
-930 -1685 0
-932 -1686 0
-933 -1687 0
-934 -1688 0
-936 -1690 0
-937 -1691 0
-932 -1694 0
-935 -1696 0
-936 -1697 0
-937 -1698 0
-931 -1721 0
-932 -1722 0
-933 -1723 0
-934 -1724 0
-935 -1726 0
-936 -1727 0
-937 -1728 0
-930 -1729 0
-931 -1730 0
-932 -1731 0
-934 -1732 0
-936 -1734 0
-937 -1735 0
-931 -1737 0
-932 -1738 0
-933 -1739 0
-935 -1741 0
-936 -1742 0
-937 -1743 0
-931 -1745 0
-932 -1746 0
-934 -1747 0
-936 -1749 0
-937 -1750 0
-930 -1765 0
-933 -1766 0
-934 -1767 0
-935 -1769 0
-936 -1770 0
-937 -1771 0
-930 -1773 0
-932 -1774 0
-934 -1775 0
-936 -1777 0
-937 -1778 0
-930 -1781 0
-932 -1782 0
-933 -1783 0
-935 -1785 0
-936 -1786 0
-937 -1787 0
-930 -1790 0
-934 -1791 0
-936 -1793 0
-937 -1794 0
-933 -1840 0
-934 -1841 0
-935 -1842 0
-936 -1843 0
-937 -1844 0
-932 -1846 0
-934 -1847 0
-935 -1849 0
-936 -1850 0
-937 -1851 0
-930 -1852 0
-932 -1853 0
-934 -1854 0
-935 -1855 0
-936 -1856 0
-937 -1857 0
-930 -1858 0
-933 -1859 0
-934 -1860 0
-936 -1862 0
-937 -1863 0
-934 -1865 0
-935 -1867 0
-936 -1868 0
-937 -1869 0
-931 -1878 0
-932 -1879 0
-933 -1880 0
-934 -1881 0
-936 -1882 0
-937 -1883 0
-931 -1884 0
-932 -1885 0
-935 -1887 0
-936 -1888 0
-937 -1889 0
-932 -1904 0
-934 -1905 0
-935 -1907 0
-936 -1908 0
-937 -1909 0
-932 -1911 0
-933 -1912 0
-936 -1914 0
-937 -1915 0
-930 -1938 0
-933 -1939 0
-934 -1940 0
-936 -1942 0
-937 -1943 0
-930 -1972 0
-932 -1973 0
-934 -1974 0
-935 -1975 0
-936 -1976 0
-937 -1977 0
-932 -1979 0
-933 -1980 0
-935 -1981 0
-936 -1982 0
-937 -1983 0
-934 -1985 0
-935 -1987 0
-936 -1988 0
-937 -1989 0
-940 -955 0
-942 -956 0
-943 -957 0
-939 -961 0
-941 -963 0
-942 -964 0
-943 -965 0
-939 -1115 0
-941 -1118 0
-942 -1119 0
-943 -1120 0
-940 -1125 0
-942 -1126 0
-943 -1127 0
-940 -1132 0
-941 -1133 0
-942 -1134 0
-943 -1135 0
-942 -1244 0
-943 -1245 0
-941 -1250 0
-942 -1251 0
-943 -1252 0
-939 -1256 0
-940 -1258 0
-942 -1259 0
-943 -1260 0
-939 -1283 0
-940 -1284 0
-942 -1285 0
-943 -1286 0
-941 -1291 0
-942 -1292 0
-943 -1293 0
-940 -1322 0
-941 -1323 0
-942 -1324 0
-943 -1325 0
-939 -1328 0
-942 -1331 0
-943 -1332 0
-939 -1334 0
-941 -1336 0
-942 -1337 0
-943 -1338 0
-939 -1354 0
-940 -1357 0
-942 -1358 0
-943 -1359 0
-941 -1364 0
-942 -1365 0
-943 -1366 0
-940 -1432 0
-941 -1433 0
-942 -1434 0
-943 -1435 0
-939 -1444 0
-940 -1446 0
-941 -1447 0
-942 -1448 0
-943 -1449 0
-940 -1453 0
-941 -1454 0
-942 -1455 0
-943 -1456 0
-940 -1460 0
-942 -1461 0
-943 -1462 0
-939 -1464 0
-940 -1466 0
-941 -1467 0
-942 -1468 0
-943 -1469 0
-939 -1486 0
-942 -1489 0
-943 -1490 0
-939 -1493 0
-941 -1496 0
-942 -1497 0
-943 -1498 0
-940 -1503 0
-942 -1504 0
-943 -1505 0
-939 -1513 0
-940 -1516 0
-942 -1517 0
-943 -1518 0
-939 -1520 0
-941 -1522 0
-942 -1523 0
-943 -1524 0
-939 -1525 0
-940 -1528 0
-941 -1529 0
-942 -1530 0
-943 -1531 0
-938 -1535 0
-939 -1536 0
-940 -1539 0
-941 -1540 0
-942 -1541 0
-943 -1542 0
-938 -1545 0
-940 -1546 0
-942 -1547 0
-943 -1548 0
-938 -1585 0
-940 -1587 0
-942 -1588 0
-943 -1589 0
-939 -1592 0
-940 -1595 0
-942 -1596 0
-943 -1597 0
-941 -1602 0
-942 -1603 0
-943 -1604 0
-938 -1613 0
-939 -1614 0
-941 -1617 0
-942 -1618 0
-943 -1619 0
-938 -1622 0
-939 -1623 0
-942 -1625 0
-943 -1626 0
-938 -1629 0
-940 -1632 0
-941 -1633 0
-942 -1634 0
-943 -1635 0
-938 -1637 0
-941 -1639 0
-942 -1640 0
-943 -1641 0
-938 -1643 0
-939 -1644 0
-940 -1646 0
-942 -1647 0
-943 -1648 0
-939 -1664 0
-940 -1666 0
-941 -1667 0
-942 -1668 0
-943 -1669 0
-940 -1673 0
-941 -1674 0
-942 -1675 0
-943 -1676 0
-938 -1701 0
-939 -1702 0
-940 -1703 0
-941 -1704 0
-942 -1705 0
-943 -1706 0
-939 -1708 0
-941 -1711 0
-942 -1712 0
-943 -1713 0
-939 -1715 0
-940 -1717 0
-942 -1718 0
-943 -1719 0
-938 -1730 0
-939 -1731 0
-940 -1733 0
-942 -1734 0
-943 -1735 0
-938 -1737 0
-939 -1738 0
-940 -1740 0
-941 -1741 0
-942 -1742 0
-943 -1743 0
-938 -1745 0
-939 -1746 0
-940 -1748 0
-942 -1749 0
-943 -1750 0
-938 -1751 0
-939 -1752 0
-940 -1753 0
-941 -1754 0
-942 -1755 0
-943 -1756 0
-938 -1757 0
-940 -1760 0
-941 -1761 0
-942 -1762 0
-943 -1763 0
-940 -1768 0
-941 -1769 0
-942 -1770 0
-943 -1771 0
-939 -1797 0
-942 -1800 0
-943 -1801 0
-939 -1804 0
-941 -1807 0
-942 -1808 0
-943 -1809 0
-940 -1814 0
-942 -1815 0
-943 -1816 0
-941 -1842 0
-942 -1843 0
-943 -1844 0
-939 -1846 0
-940 -1848 0
-941 -1849 0
-942 -1850 0
-943 -1851 0
-939 -1870 0
-940 -1873 0
-941 -1874 0
-942 -1875 0
-943 -1876 0
-938 -1878 0
-939 -1879 0
-942 -1882 0
-943 -1883 0
-938 -1884 0
-939 -1885 0
-940 -1886 0
-941 -1887 0
-942 -1888 0
-943 -1889 0
-939 -1951 0
-940 -1953 0
-941 -1954 0
-942 -1955 0
-943 -1956 0
-939 -1959 0
-940 -1961 0
-941 -1962 0
-942 -1963 0
-943 -1964 0
-940 -1968 0
-941 -1969 0
-942 -1970 0
-943 -1971 0
-944 -1128 0
-948 -1132 0
-949 -1134 0
-950 -1135 0
-947 -1174 0
-949 -1177 0
-950 -1178 0
-948 -1182 0
-949 -1183 0
-950 -1184 0
-949 -1216 0
-950 -1217 0
-947 -1220 0
-948 -1222 0
-949 -1224 0
-950 -1225 0
-947 -1334 0
-949 -1337 0
-950 -1338 0
-947 -1403 0
-948 -1405 0
-949 -1406 0
-950 -1407 0
-949 -1413 0
-950 -1414 0
-948 -1418 0
-949 -1420 0
-950 -1421 0
-947 -1423 0
-949 -1426 0
-950 -1427 0
-945 -1492 0
-947 -1493 0
-949 -1497 0
-950 -1498 0
-945 -1500 0
-948 -1503 0
-949 -1504 0
-950 -1505 0
-947 -1513 0
-948 -1516 0
-949 -1517 0
-950 -1518 0
-947 -1520 0
-949 -1523 0
-950 -1524 0
-947 -1525 0
-948 -1528 0
-949 -1530 0
-950 -1531 0
-944 -1533 0
-946 -1534 0
-947 -1536 0
-948 -1539 0
-949 -1541 0
-950 -1542 0
-944 -1543 0
-946 -1544 0
-948 -1546 0
-949 -1547 0
-950 -1548 0
-944 -1549 0
-947 -1551 0
-949 -1554 0
-950 -1555 0
-944 -1556 0
-948 -1560 0
-949 -1561 0
-950 -1562 0
-946 -1563 0
-947 -1565 0
-948 -1567 0
-949 -1568 0
-950 -1569 0
-946 -1621 0
-947 -1623 0
-949 -1625 0
-950 -1626 0
-946 -1628 0
-948 -1632 0
-949 -1634 0
-950 -1635 0
-946 -1636 0
-949 -1640 0
-950 -1641 0
-946 -1642 0
-947 -1644 0
-948 -1646 0
-949 -1647 0
-950 -1648 0
-948 -1652 0
-949 -1654 0
-950 -1655 0
-947 -1657 0
-949 -1660 0
-950 -1661 0
-944 -1662 0
-945 -1663 0
-947 -1664 0
-948 -1666 0
-949 -1668 0
-950 -1669 0
-944 -1670 0
-945 -1671 0
-948 -1673 0
-949 -1675 0
-950 -1676 0
-944 -1677 0
-946 -1678 0
-947 -1679 0
-948 -1680 0
-949 -1682 0
-950 -1683 0
-944 -1684 0
-946 -1685 0
-947 -1686 0
-948 -1689 0
-949 -1690 0
-950 -1691 0
-945 -1699 0
-946 -1700 0
-947 -1702 0
-948 -1703 0
-949 -1705 0
-950 -1706 0
-944 -1707 0
-947 -1708 0
-949 -1712 0
-950 -1713 0
-944 -1714 0
-947 -1715 0
-948 -1717 0
-949 -1718 0
-950 -1719 0
-945 -1720 0
-947 -1722 0
-948 -1725 0
-949 -1727 0
-950 -1728 0
-946 -1729 0
-947 -1731 0
-948 -1733 0
-949 -1734 0
-950 -1735 0
-945 -1780 0
-946 -1781 0
-947 -1782 0
-948 -1784 0
-949 -1786 0
-950 -1787 0
-945 -1789 0
-946 -1790 0
-948 -1792 0
-949 -1793 0
-950 -1794 0
-945 -1803 0
-947 -1804 0
-949 -1808 0
-950 -1809 0
-945 -1811 0
-948 -1814 0
-949 -1815 0
-950 -1816 0
-946 -1818 0
-947 -1819 0
-949 -1822 0
-950 -1823 0
-946 -1825 0
-947 -1826 0
-948 -1828 0
-949 -1830 0
-950 -1831 0
-945 -1839 0
-949 -1843 0
-950 -1844 0
-945 -1845 0
-947 -1846 0
-948 -1848 0
-949 -1850 0
-950 -1851 0
-946 -1852 0
-947 -1853 0
-949 -1856 0
-950 -1857 0
-946 -1858 0
-948 -1861 0
-949 -1862 0
-950 -1863 0
-947 -1870 0
-948 -1873 0
-949 -1875 0
-950 -1876 0
-946 -1890 0
-947 -1891 0
-948 -1893 0
-949 -1895 0
-950 -1896 0
-946 -1897 0
-947 -1898 0
-949 -1901 0
-950 -1902 0
-946 -1958 0
-947 -1959 0
-948 -1961 0
-949 -1963 0
-950 -1964 0
-946 -1966 0
-948 -1968 0
-949 -1970 0
-950 -1971 0
-947 -1979 0
-949 -1982 0
-950 -1983 0
-948 -1986 0
-949 -1988 0
-950 -1989 0
-947 -1991 0
-948 -1994 0
-949 -1996 0
-950 -1997 0
-952 -1082 0
-954 -1085 0
-955 -1086 0
-956 -1087 0
-957 -1088 0
-951 -1103 0
-952 -1104 0
-955 -1108 0
-956 -1110 0
-957 -1111 0
-951 -1153 0
-952 -1154 0
-954 -1156 0
-956 -1157 0
-957 -1158 0
-952 -1159 0
-956 -1163 0
-957 -1164 0
-952 -1179 0
-955 -1182 0
-956 -1183 0
-957 -1184 0
-951 -1191 0
-954 -1194 0
-956 -1196 0
-957 -1197 0
-956 -1203 0
-957 -1204 0
-952 -1218 0
-955 -1222 0
-956 -1224 0
-957 -1225 0
-954 -1228 0
-955 -1229 0
-956 -1231 0
-957 -1232 0
-952 -1275 0
-954 -1278 0
-956 -1279 0
-957 -1280 0
-952 -1311 0
-954 -1315 0
-956 -1317 0
-957 -1318 0
-952 -1345 0
-954 -1348 0
-955 -1349 0
-956 -1350 0
-957 -1351 0
-951 -1380 0
-955 -1382 0
-956 -1384 0
-957 -1385 0
-954 -1388 0
-955 -1389 0
-956 -1390 0
-957 -1391 0
-952 -1408 0
-954 -1411 0
-956 -1413 0
-957 -1414 0
-954 -1425 0
-956 -1426 0
-957 -1427 0
-954 -1473 0
-955 -1474 0
-956 -1476 0
-957 -1477 0
-954 -1480 0
-956 -1482 0
-957 -1483 0
-952 -1499 0
-954 -1502 0
-955 -1503 0
-956 -1504 0
-957 -1505 0
-955 -1509 0
-956 -1510 0
-957 -1511 0
-952 -1519 0
-956 -1523 0
-957 -1524 0
-951 -1543 0
-953 -1544 0
-955 -1546 0
-956 -1547 0
-957 -1548 0
-951 -1549 0
-956 -1554 0
-957 -1555 0
-953 -1563 0
-955 -1567 0
-956 -1568 0
-957 -1569 0
-951 -1598 0
-953 -1599 0
-954 -1601 0
-956 -1603 0
-957 -1604 0
-953 -1606 0
-954 -1609 0
-956 -1610 0
-957 -1611 0
-952 -1627 0
-953 -1628 0
-954 -1631 0
-955 -1632 0
-956 -1634 0
-957 -1635 0
-953 -1642 0
-954 -1645 0
-955 -1646 0
-956 -1647 0
-957 -1648 0
-954 -1651 0
-955 -1652 0
-956 -1654 0
-957 -1655 0
-951 -1662 0
-955 -1666 0
-956 -1668 0
-957 -1669 0
-951 -1684 0
-953 -1685 0
-954 -1688 0
-955 -1689 0
-956 -1690 0
-957 -1691 0
-951 -1692 0
-952 -1693 0
-955 -1695 0
-956 -1697 0
-957 -1698 0
-953 -1700 0
-955 -1703 0
-956 -1705 0
-957 -1706 0
-951 -1707 0
-954 -1710 0
-956 -1712 0
-957 -1713 0
-953 -1729 0
-954 -1732 0
-955 -1733 0
-956 -1734 0
-957 -1735 0
-952 -1736 0
-955 -1740 0
-956 -1742 0
-957 -1743 0
-955 -1753 0
-956 -1755 0
-957 -1756 0
-953 -1765 0
-954 -1767 0
-955 -1768 0
-956 -1770 0
-957 -1771 0
-952 -1788 0
-953 -1790 0
-954 -1791 0
-955 -1792 0
-956 -1793 0
-957 -1794 0
-953 -1796 0
-954 -1799 0
-956 -1800 0
-957 -1801 0
-952 -1802 0
-954 -1806 0
-956 -1808 0
-957 -1809 0
-952 -1824 0
-953 -1825 0
-954 -1827 0
-955 -1828 0
-956 -1830 0
-957 -1831 0
-952 -1832 0
-954 -1835 0
-955 -1836 0
-956 -1837 0
-957 -1838 0
-954 -1841 0
-956 -1843 0
-957 -1844 0
-953 -1858 0
-954 -1860 0
-955 -1861 0
-956 -1862 0
-957 -1863 0
-952 -1864 0
-954 -1865 0
-955 -1866 0
-956 -1868 0
-957 -1869 0
-954 -1872 0
-955 -1873 0
-956 -1875 0
-957 -1876 0
-954 -1881 0
-956 -1882 0
-957 -1883 0
-953 -1897 0
-954 -1899 0
-956 -1901 0
-957 -1902 0
-954 -1905 0
-955 -1906 0
-956 -1908 0
-957 -1909 0
-953 -1931 0
-956 -1935 0
-957 -1936 0
-953 -1945 0
-955 -1946 0
-956 -1948 0
-957 -1949 0
-952 -1965 0
-953 -1966 0
-955 -1968 0
-956 -1970 0
-957 -1971 0
-953 -1972 0
-954 -1974 0
-956 -1976 0
-957 -1977 0
-952 -1978 0
-956 -1982 0
-957 -1983 0
-959 -1074 0
-961 -1076 0
-962 -1077 0
-963 -1079 0
-964 -1080 0
-965 -1081 0
-958 -1096 0
-959 -1097 0
-963 -1100 0
-964 -1101 0
-965 -1102 0
-958 -1146 0
-959 -1147 0
-961 -1148 0
-963 -1150 0
-964 -1151 0
-965 -1152 0
-959 -1159 0
-963 -1162 0
-964 -1163 0
-965 -1164 0
-959 -1172 0
-961 -1174 0
-963 -1176 0
-964 -1177 0
-965 -1178 0
-958 -1185 0
-962 -1186 0
-963 -1188 0
-964 -1189 0
-965 -1190 0
-961 -1200 0
-962 -1201 0
-963 -1202 0
-964 -1203 0
-965 -1204 0
-959 -1211 0
-962 -1213 0
-963 -1215 0
-964 -1216 0
-965 -1217 0
-962 -1227 0
-963 -1230 0
-964 -1231 0
-965 -1232 0
-959 -1268 0
-962 -1270 0
-963 -1272 0
-964 -1273 0
-965 -1274 0
-959 -1304 0
-961 -1306 0
-963 -1308 0
-964 -1309 0
-965 -1310 0
-959 -1339 0
-963 -1342 0
-964 -1343 0
-965 -1344 0
-958 -1374 0
-961 -1375 0
-964 -1378 0
-965 -1379 0
-964 -1390 0
-965 -1391 0
-959 -1401 0
-961 -1403 0
-964 -1406 0
-965 -1407 0
-962 -1416 0
-963 -1419 0
-964 -1420 0
-965 -1421 0
-962 -1479 0
-963 -1481 0
-964 -1482 0
-965 -1483 0
-959 -1491 0
-961 -1493 0
-962 -1494 0
-963 -1496 0
-964 -1497 0
-965 -1498 0
-961 -1507 0
-962 -1508 0
-964 -1510 0
-965 -1511 0
-959 -1512 0
-961 -1513 0
-962 -1514 0
-964 -1517 0
-965 -1518 0
-961 -1525 0
-962 -1526 0
-963 -1529 0
-964 -1530 0
-965 -1531 0
-958 -1533 0
-960 -1534 0
-961 -1536 0
-962 -1537 0
-963 -1540 0
-964 -1541 0
-965 -1542 0
-958 -1556 0
-962 -1558 0
-964 -1561 0
-965 -1562 0
-960 -1563 0
-961 -1565 0
-962 -1566 0
-964 -1568 0
-965 -1569 0
-958 -1590 0
-960 -1591 0
-961 -1592 0
-962 -1593 0
-964 -1596 0
-965 -1597 0
-960 -1606 0
-962 -1608 0
-964 -1610 0
-965 -1611 0
-959 -1620 0
-960 -1621 0
-961 -1623 0
-962 -1624 0
-964 -1625 0
-965 -1626 0
-960 -1636 0
-962 -1638 0
-963 -1639 0
-964 -1640 0
-965 -1641 0
-961 -1657 0
-962 -1658 0
-964 -1660 0
-965 -1661 0
-958 -1670 0
-963 -1674 0
-964 -1675 0
-965 -1676 0
-958 -1677 0
-960 -1678 0
-961 -1679 0
-963 -1681 0
-964 -1682 0
-965 -1683 0
-958 -1692 0
-959 -1693 0
-961 -1694 0
-963 -1696 0
-964 -1697 0
-965 -1698 0
-960 -1700 0
-961 -1702 0
-963 -1704 0
-964 -1705 0
-965 -1706 0
-958 -1714 0
-961 -1715 0
-964 -1718 0
-965 -1719 0
-960 -1729 0
-961 -1731 0
-964 -1734 0
-965 -1735 0
-959 -1744 0
-961 -1746 0
-964 -1749 0
-965 -1750 0
-962 -1758 0
-963 -1761 0
-964 -1762 0
-965 -1763 0
-960 -1765 0
-962 -1766 0
-963 -1769 0
-964 -1770 0
-965 -1771 0
-959 -1779 0
-960 -1781 0
-961 -1782 0
-962 -1783 0
-963 -1785 0
-964 -1786 0
-965 -1787 0
-960 -1796 0
-961 -1797 0
-962 -1798 0
-964 -1800 0
-965 -1801 0
-959 -1810 0
-962 -1812 0
-964 -1815 0
-965 -1816 0
-959 -1817 0
-960 -1818 0
-961 -1819 0
-962 -1820 0
-964 -1822 0
-965 -1823 0
-959 -1832 0
-961 -1833 0
-962 -1834 0
-964 -1837 0
-965 -1838 0
-961 -1846 0
-963 -1849 0
-964 -1850 0
-965 -1851 0
-960 -1852 0
-961 -1853 0
-963 -1855 0
-964 -1856 0
-965 -1857 0
-959 -1864 0
-963 -1867 0
-964 -1868 0
-965 -1869 0
-961 -1885 0
-963 -1887 0
-964 -1888 0
-965 -1889 0
-960 -1890 0
-961 -1891 0
-962 -1892 0
-963 -1894 0
-964 -1895 0
-965 -1896 0
-961 -1911 0
-962 -1912 0
-964 -1914 0
-965 -1915 0
-961 -1917 0
-962 -1918 0
-963 -1921 0
-964 -1922 0
-965 -1923 0
-960 -1931 0
-962 -1933 0
-963 -1934 0
-964 -1935 0
-965 -1936 0
-960 -1945 0
-963 -1947 0
-964 -1948 0
-965 -1949 0
-959 -1957 0
-960 -1958 0
-961 -1959 0
-963 -1962 0
-964 -1963 0
-965 -1964 0
-960 -1972 0
-961 -1973 0
-963 -1975 0
-964 -1976 0
-965 -1977 0
-959 -1984 0
-963 -1987 0
-964 -1988 0
-965 -1989 0
-961 -1991 0
-962 -1992 0
-963 -1995 0
-964 -1996 0
-965 -1997 0
-966 -1147 0
-970 -1148 0
-972 -1151 0
-973 -1152 0
-966 -1154 0
-971 -1156 0
-972 -1157 0
-973 -1158 0
-972 -1189 0
-973 -1190 0
-970 -1192 0
-971 -1194 0
-972 -1196 0
-973 -1197 0
-969 -1226 0
-971 -1228 0
-972 -1231 0
-973 -1232 0
-966 -1339 0
-971 -1340 0
-972 -1343 0
-973 -1344 0
-966 -1345 0
-970 -1346 0
-971 -1348 0
-972 -1350 0
-973 -1351 0
-970 -1375 0
-971 -1376 0
-972 -1378 0
-973 -1379 0
-972 -1384 0
-973 -1385 0
-970 -1471 0
-971 -1473 0
-972 -1476 0
-973 -1477 0
-967 -1506 0
-970 -1507 0
-972 -1510 0
-973 -1511 0
-966 -1512 0
-970 -1513 0
-971 -1515 0
-972 -1517 0
-973 -1518 0
-966 -1519 0
-970 -1520 0
-972 -1523 0
-973 -1524 0
-970 -1525 0
-971 -1527 0
-972 -1530 0
-973 -1531 0
-969 -1550 0
-970 -1551 0
-972 -1554 0
-973 -1555 0
-969 -1557 0
-971 -1559 0
-972 -1561 0
-973 -1562 0
-968 -1591 0
-970 -1592 0
-971 -1594 0
-972 -1596 0
-973 -1597 0
-968 -1599 0
-971 -1601 0
-972 -1603 0
-973 -1604 0
-969 -1649 0
-971 -1651 0
-972 -1654 0
-973 -1655 0
-969 -1656 0
-970 -1657 0
-971 -1659 0
-972 -1660 0
-973 -1661 0
-967 -1663 0
-970 -1664 0
-972 -1668 0
-973 -1669 0
-967 -1671 0
-971 -1672 0
-972 -1675 0
-973 -1676 0
-968 -1678 0
-970 -1679 0
-972 -1682 0
-973 -1683 0
-968 -1685 0
-970 -1686 0
-971 -1688 0
-972 -1690 0
-973 -1691 0
-966 -1693 0
-970 -1694 0
-972 -1697 0
-973 -1698 0
-967 -1720 0
-969 -1721 0
-970 -1722 0
-971 -1724 0
-972 -1727 0
-973 -1728 0
-968 -1729 0
-969 -1730 0
-970 -1731 0
-971 -1732 0
-972 -1734 0
-973 -1735 0
-966 -1736 0
-969 -1737 0
-970 -1738 0
-972 -1742 0
-973 -1743 0
-966 -1744 0
-969 -1745 0
-970 -1746 0
-971 -1747 0
-972 -1749 0
-973 -1750 0
-969 -1751 0
-970 -1752 0
-972 -1755 0
-973 -1756 0
-969 -1757 0
-971 -1759 0
-972 -1762 0
-973 -1763 0
-967 -1795 0
-968 -1796 0
-970 -1797 0
-971 -1799 0
-972 -1800 0
-973 -1801 0
-966 -1802 0
-967 -1803 0
-970 -1804 0
-971 -1806 0
-972 -1808 0
-973 -1809 0
-966 -1810 0
-967 -1811 0
-971 -1813 0
-972 -1815 0
-973 -1816 0
-966 -1817 0
-968 -1818 0
-970 -1819 0
-971 -1821 0
-972 -1822 0
-973 -1823 0
-966 -1824 0
-968 -1825 0
-970 -1826 0
-971 -1827 0
-972 -1830 0
-973 -1831 0
-966 -1832 0
-970 -1833 0
-971 -1835 0
-972 -1837 0
-973 -1838 0
-967 -1839 0
-971 -1841 0
-972 -1843 0
-973 -1844 0
-967 -1845 0
-970 -1846 0
-971 -1847 0
-972 -1850 0
-973 -1851 0
-968 -1852 0
-970 -1853 0
-971 -1854 0
-972 -1856 0
-973 -1857 0
-968 -1858 0
-971 -1860 0
-972 -1862 0
-973 -1863 0
-966 -1864 0
-971 -1865 0
-972 -1868 0
-973 -1869 0
-969 -1878 0
-970 -1879 0
-971 -1881 0
-972 -1882 0
-973 -1883 0
-969 -1884 0
-970 -1885 0
-972 -1888 0
-973 -1889 0
-968 -1890 0
-970 -1891 0
-972 -1895 0
-973 -1896 0
-968 -1897 0
-970 -1898 0
-971 -1899 0
-972 -1901 0
-973 -1902 0
-967 -1903 0
-970 -1904 0
-971 -1905 0
-972 -1908 0
-973 -1909 0
-967 -1910 0
-970 -1911 0
-972 -1914 0
-973 -1915 0
-968 -1972 0
-970 -1973 0
-971 -1974 0
-972 -1976 0
-973 -1977 0
-966 -1978 0
-970 -1979 0
-972 -1982 0
-973 -1983 0
-966 -1984 0
-971 -1985 0
-972 -1988 0
-973 -1989 0
-970 -1991 0
-971 -1993 0
-972 -1996 0
-973 -1997 0
-975 -1060 0
-976 -1061 0
-977 -1064 0
-979 -1065 0
-980 -1066 0
-974 -1103 0
-975 -1104 0
-977 -1107 0
-978 -1108 0
-979 -1110 0
-980 -1111 0
-974 -1121 0
-975 -1122 0
-976 -1123 0
-977 -1124 0
-978 -1125 0
-979 -1126 0
-980 -1127 0
-974 -1128 0
-975 -1129 0
-977 -1130 0
-978 -1132 0
-979 -1134 0
-980 -1135 0
-975 -1136 0
-976 -1138 0
-977 -1140 0
-978 -1142 0
-979 -1144 0
-980 -1145 0
-975 -1179 0
-977 -1181 0
-978 -1182 0
-979 -1183 0
-980 -1184 0
-974 -1191 0
-977 -1193 0
-979 -1196 0
-980 -1197 0
-977 -1201 0
-979 -1203 0
-980 -1204 0
-976 -1205 0
-977 -1207 0
-979 -1209 0
-980 -1210 0
-975 -1211 0
-977 -1213 0
-979 -1216 0
-980 -1217 0
-975 -1253 0
-976 -1255 0
-977 -1257 0
-978 -1258 0
-979 -1259 0
-980 -1260 0
-975 -1311 0
-977 -1314 0
-979 -1317 0
-980 -1318 0
-975 -1326 0
-976 -1327 0
-977 -1329 0
-979 -1331 0
-980 -1332 0
-975 -1333 0
-977 -1335 0
-979 -1337 0
-980 -1338 0
-974 -1360 0
-976 -1361 0
-977 -1362 0
-979 -1365 0
-980 -1366 0
-976 -1368 0
-977 -1370 0
-979 -1372 0
-980 -1373 0
-975 -1408 0
-977 -1410 0
-979 -1413 0
-980 -1414 0
-977 -1416 0
-978 -1418 0
-979 -1420 0
-980 -1421 0
-976 -1463 0
-977 -1465 0
-978 -1466 0
-979 -1468 0
-980 -1469 0
-977 -1479 0
-979 -1482 0
-980 -1483 0
-976 -1485 0
-977 -1487 0
-979 -1489 0
-980 -1490 0
-975 -1491 0
-977 -1494 0
-979 -1497 0
-980 -1498 0
-975 -1519 0
-977 -1521 0
-979 -1523 0
-980 -1524 0
-977 -1526 0
-978 -1528 0
-979 -1530 0
-980 -1531 0
-974 -1533 0
-976 -1534 0
-977 -1537 0
-978 -1539 0
-979 -1541 0
-980 -1542 0
-974 -1556 0
-977 -1558 0
-978 -1560 0
-979 -1561 0
-980 -1562 0
-976 -1563 0
-977 -1566 0
-978 -1567 0
-979 -1568 0
-980 -1569 0
-974 -1576 0
-976 -1577 0
-978 -1579 0
-979 -1581 0
-980 -1582 0
-976 -1584 0
-977 -1586 0
-978 -1587 0
-979 -1588 0
-980 -1589 0
-975 -1627 0
-976 -1628 0
-977 -1630 0
-978 -1632 0
-979 -1634 0
-980 -1635 0
-976 -1636 0
-977 -1638 0
-979 -1640 0
-980 -1641 0
-977 -1658 0
-979 -1660 0
-980 -1661 0
-974 -1662 0
-977 -1665 0
-978 -1666 0
-979 -1668 0
-980 -1669 0
-974 -1677 0
-976 -1678 0
-978 -1680 0
-979 -1682 0
-980 -1683 0
-974 -1714 0
-978 -1717 0
-979 -1718 0
-980 -1719 0
-977 -1723 0
-978 -1725 0
-979 -1727 0
-980 -1728 0
-976 -1729 0
-978 -1733 0
-979 -1734 0
-980 -1735 0
-975 -1736 0
-977 -1739 0
-978 -1740 0
-979 -1742 0
-980 -1743 0
-976 -1765 0
-977 -1766 0
-978 -1768 0
-979 -1770 0
-980 -1771 0
-976 -1773 0
-978 -1776 0
-979 -1777 0
-980 -1778 0
-975 -1779 0
-976 -1781 0
-977 -1783 0
-978 -1784 0
-979 -1786 0
-980 -1787 0
-975 -1810 0
-977 -1812 0
-978 -1814 0
-979 -1815 0
-980 -1816 0
-975 -1824 0
-976 -1825 0
-978 -1828 0
-979 -1830 0
-980 -1831 0
-975 -1832 0
-977 -1834 0
-978 -1836 0
-979 -1837 0
-980 -1838 0
-977 -1840 0
-979 -1843 0
-980 -1844 0
-976 -1852 0
-979 -1856 0
-980 -1857 0
-977 -1880 0
-979 -1882 0
-980 -1883 0
-976 -1897 0
-979 -1901 0
-980 -1902 0
-976 -1924 0
-978 -1927 0
-979 -1929 0
-980 -1930 0
-976 -1945 0
-978 -1946 0
-979 -1948 0
-980 -1949 0
-976 -1950 0
-977 -1952 0
-978 -1953 0
-979 -1955 0
-980 -1956 0
-975 -1957 0
-976 -1958 0
-978 -1961 0
-979 -1963 0
-980 -1964 0
-975 -1984 0
-978 -1986 0
-979 -1988 0
-980 -1989 0
-982 -1051 0
-983 -1052 0
-984 -1054 0
-985 -1055 0
-986 -1056 0
-987 -1057 0
-988 -1058 0
-989 -1059 0
-981 -1096 0
-982 -1097 0
-985 -1099 0
-987 -1100 0
-988 -1101 0
-989 -1102 0
-981 -1112 0
-982 -1113 0
-983 -1114 0
-984 -1115 0
-985 -1117 0
-987 -1118 0
-988 -1119 0
-989 -1120 0
-981 -1128 0
-982 -1129 0
-985 -1131 0
-986 -1132 0
-987 -1133 0
-988 -1134 0
-989 -1135 0
-982 -1136 0
-983 -1138 0
-985 -1141 0
-986 -1142 0
-987 -1143 0
-988 -1144 0
-989 -1145 0
-982 -1172 0
-984 -1174 0
-985 -1175 0
-987 -1176 0
-988 -1177 0
-989 -1178 0
-981 -1185 0
-986 -1187 0
-987 -1188 0
-988 -1189 0
-989 -1190 0
-984 -1200 0
-987 -1202 0
-988 -1203 0
-989 -1204 0
-983 -1205 0
-987 -1208 0
-988 -1209 0
-989 -1210 0
-982 -1218 0
-984 -1220 0
-986 -1222 0
-987 -1223 0
-988 -1224 0
-989 -1225 0
-982 -1246 0
-983 -1248 0
-985 -1249 0
-987 -1250 0
-988 -1251 0
-989 -1252 0
-982 -1304 0
-984 -1306 0
-986 -1307 0
-987 -1308 0
-988 -1309 0
-989 -1310 0
-982 -1319 0
-983 -1320 0
-986 -1322 0
-987 -1323 0
-988 -1324 0
-989 -1325 0
-982 -1333 0
-984 -1334 0
-987 -1336 0
-988 -1337 0
-989 -1338 0
-981 -1352 0
-983 -1353 0
-984 -1354 0
-985 -1356 0
-986 -1357 0
-988 -1358 0
-989 -1359 0
-983 -1368 0
-985 -1371 0
-988 -1372 0
-989 -1373 0
-982 -1401 0
-984 -1403 0
-985 -1404 0
-986 -1405 0
-988 -1406 0
-989 -1407 0
-984 -1423 0
-985 -1425 0
-988 -1426 0
-989 -1427 0
-983 -1457 0
-985 -1459 0
-986 -1460 0
-988 -1461 0
-989 -1462 0
-985 -1480 0
-987 -1481 0
-988 -1482 0
-989 -1483 0
-983 -1485 0
-984 -1486 0
-985 -1488 0
-988 -1489 0
-989 -1490 0
-982 -1499 0
-985 -1502 0
-986 -1503 0
-988 -1504 0
-989 -1505 0
-982 -1512 0
-984 -1513 0
-985 -1515 0
-986 -1516 0
-988 -1517 0
-989 -1518 0
-981 -1543 0
-983 -1544 0
-986 -1546 0
-988 -1547 0
-989 -1548 0
-981 -1549 0
-984 -1551 0
-987 -1553 0
-988 -1554 0
-989 -1555 0
-983 -1563 0
-984 -1565 0
-986 -1567 0
-988 -1568 0
-989 -1569 0
-981 -1570 0
-983 -1571 0
-984 -1572 0
-988 -1574 0
-989 -1575 0
-983 -1584 0
-986 -1587 0
-988 -1588 0
-989 -1589 0
-982 -1620 0
-983 -1621 0
-984 -1623 0
-988 -1625 0
-989 -1626 0
-983 -1642 0
-984 -1644 0
-985 -1645 0
-986 -1646 0
-988 -1647 0
-989 -1648 0
-985 -1651 0
-986 -1652 0
-987 -1653 0
-988 -1654 0
-989 -1655 0
-981 -1670 0
-985 -1672 0
-986 -1673 0
-987 -1674 0
-988 -1675 0
-989 -1676 0
-981 -1684 0
-983 -1685 0
-984 -1686 0
-985 -1688 0
-986 -1689 0
-988 -1690 0
-989 -1691 0
-981 -1707 0
-984 -1708 0
-985 -1710 0
-987 -1711 0
-988 -1712 0
-989 -1713 0
-984 -1722 0
-985 -1724 0
-986 -1725 0
-987 -1726 0
-988 -1727 0
-989 -1728 0
-983 -1729 0
-984 -1731 0
-985 -1732 0
-986 -1733 0
-988 -1734 0
-989 -1735 0
-982 -1744 0
-984 -1746 0
-985 -1747 0
-986 -1748 0
-988 -1749 0
-989 -1750 0
-983 -1765 0
-985 -1767 0
-986 -1768 0
-987 -1769 0
-988 -1770 0
-989 -1771 0
-983 -1773 0
-984 -1774 0
-985 -1775 0
-986 -1776 0
-988 -1777 0
-989 -1778 0
-982 -1788 0
-983 -1790 0
-985 -1791 0
-986 -1792 0
-988 -1793 0
-989 -1794 0
-982 -1802 0
-984 -1804 0
-985 -1806 0
-987 -1807 0
-988 -1808 0
-989 -1809 0
-982 -1817 0
-983 -1818 0
-984 -1819 0
-985 -1821 0
-988 -1822 0
-989 -1823 0
-982 -1832 0
-984 -1833 0
-985 -1835 0
-986 -1836 0
-988 -1837 0
-989 -1838 0
-984 -1846 0
-985 -1847 0
-986 -1848 0
-987 -1849 0
-988 -1850 0
-989 -1851 0
-983 -1858 0
-985 -1860 0
-986 -1861 0
-988 -1862 0
-989 -1863 0
-984 -1870 0
-985 -1872 0
-986 -1873 0
-987 -1874 0
-988 -1875 0
-989 -1876 0
-984 -1885 0
-986 -1886 0
-987 -1887 0
-988 -1888 0
-989 -1889 0
-983 -1890 0
-984 -1891 0
-986 -1893 0
-987 -1894 0
-988 -1895 0
-989 -1896 0
-984 -1917 0
-985 -1919 0
-986 -1920 0
-987 -1921 0
-988 -1922 0
-989 -1923 0
-983 -1924 0
-985 -1926 0
-986 -1927 0
-987 -1928 0
-988 -1929 0
-989 -1930 0
-983 -1945 0
-986 -1946 0
-987 -1947 0
-988 -1948 0
-989 -1949 0
-983 -1950 0
-984 -1951 0
-986 -1953 0
-987 -1954 0
-988 -1955 0
-989 -1956 0
-982 -1965 0
-983 -1966 0
-986 -1968 0
-987 -1969 0
-988 -1970 0
-989 -1971 0
-982 -1978 0
-984 -1979 0
-987 -1981 0
-988 -1982 0
-989 -1983 0
-984 -1991 0
-985 -1993 0
-986 -1994 0
-987 -1995 0
-988 -1996 0
-989 -1997 0
-990 -1113 0
-992 -1114 0
-994 -1115 0
-995 -1116 0
-997 -1119 0
-998 -1120 0
-990 -1122 0
-992 -1123 0
-995 -1124 0
-996 -1125 0
-997 -1126 0
-998 -1127 0
-990 -1129 0
-995 -1130 0
-996 -1132 0
-997 -1134 0
-998 -1135 0
-995 -1186 0
-996 -1187 0
-997 -1189 0
-998 -1190 0
-994 -1192 0
-995 -1193 0
-997 -1196 0
-998 -1197 0
-992 -1205 0
-993 -1206 0
-995 -1207 0
-997 -1209 0
-998 -1210 0
-990 -1211 0
-993 -1212 0
-995 -1213 0
-997 -1216 0
-998 -1217 0
-990 -1218 0
-993 -1219 0
-994 -1220 0
-995 -1221 0
-996 -1222 0
-997 -1224 0
-998 -1225 0
-990 -1319 0
-992 -1320 0
-995 -1321 0
-996 -1322 0
-997 -1324 0
-998 -1325 0
-990 -1326 0
-992 -1327 0
-994 -1328 0
-995 -1329 0
-997 -1331 0
-998 -1332 0
-990 -1333 0
-994 -1334 0
-995 -1335 0
-997 -1337 0
-998 -1338 0
-992 -1353 0
-994 -1354 0
-995 -1355 0
-996 -1357 0
-997 -1358 0
-998 -1359 0
-992 -1361 0
-995 -1362 0
-997 -1365 0
-998 -1366 0
-993 -1415 0
-995 -1416 0
-996 -1418 0
-997 -1420 0
-998 -1421 0
-993 -1422 0
-994 -1423 0
-995 -1424 0
-997 -1426 0
-998 -1427 0
-992 -1457 0
-995 -1458 0
-996 -1460 0
-997 -1461 0
-998 -1462 0
-992 -1463 0
-994 -1464 0
-995 -1465 0
-996 -1466 0
-997 -1468 0
-998 -1469 0
-991 -1484 0
-992 -1485 0
-994 -1486 0
-995 -1487 0
-997 -1489 0
-998 -1490 0
-990 -1491 0
-991 -1492 0
-994 -1493 0
-995 -1494 0
-997 -1497 0
-998 -1498 0
-990 -1499 0
-991 -1500 0
-995 -1501 0
-996 -1503 0
-997 -1504 0
-998 -1505 0
-990 -1512 0
-994 -1513 0
-995 -1514 0
-996 -1516 0
-997 -1517 0
-998 -1518 0
-990 -1519 0
-994 -1520 0
-995 -1521 0
-997 -1523 0
-998 -1524 0
-992 -1534 0
-993 -1535 0
-994 -1536 0
-995 -1537 0
-996 -1539 0
-997 -1541 0
-998 -1542 0
-992 -1544 0
-993 -1545 0
-996 -1546 0
-997 -1547 0
-998 -1548 0
-992 -1571 0
-994 -1572 0
-995 -1573 0
-997 -1574 0
-998 -1575 0
-992 -1577 0
-996 -1579 0
-997 -1581 0
-998 -1582 0
-992 -1636 0
-993 -1637 0
-995 -1638 0
-997 -1640 0
-998 -1641 0
-992 -1642 0
-993 -1643 0
-994 -1644 0
-996 -1646 0
-997 -1647 0
-998 -1648 0
-991 -1663 0
-994 -1664 0
-995 -1665 0
-996 -1666 0
-997 -1668 0
-998 -1669 0
-991 -1671 0
-996 -1673 0
-997 -1675 0
-998 -1676 0
-991 -1699 0
-992 -1700 0
-993 -1701 0
-994 -1702 0
-996 -1703 0
-997 -1705 0
-998 -1706 0
-994 -1708 0
-995 -1709 0
-997 -1712 0
-998 -1713 0
-994 -1715 0
-996 -1717 0
-997 -1718 0
-998 -1719 0
-992 -1729 0
-993 -1730 0
-994 -1731 0
-996 -1733 0
-997 -1734 0
-998 -1735 0
-990 -1736 0
-993 -1737 0
-994 -1738 0
-995 -1739 0
-996 -1740 0
-997 -1742 0
-998 -1743 0
-990 -1744 0
-993 -1745 0
-994 -1746 0
-996 -1748 0
-997 -1749 0
-998 -1750 0
-991 -1772 0
-992 -1773 0
-994 -1774 0
-996 -1776 0
-997 -1777 0
-998 -1778 0
-990 -1779 0
-991 -1780 0
-992 -1781 0
-994 -1782 0
-995 -1783 0
-996 -1784 0
-997 -1786 0
-998 -1787 0
-990 -1788 0
-991 -1789 0
-992 -1790 0
-996 -1792 0
-997 -1793 0
-998 -1794 0
-990 -1817 0
-992 -1818 0
-994 -1819 0
-995 -1820 0
-997 -1822 0
-998 -1823 0
-990 -1824 0
-992 -1825 0
-994 -1826 0
-996 -1828 0
-997 -1830 0
-998 -1831 0
-990 -1832 0
-994 -1833 0
-995 -1834 0
-996 -1836 0
-997 -1837 0
-998 -1838 0
-991 -1839 0
-995 -1840 0
-997 -1843 0
-998 -1844 0
-991 -1845 0
-994 -1846 0
-996 -1848 0
-997 -1850 0
-998 -1851 0
-994 -1870 0
-995 -1871 0
-996 -1873 0
-997 -1875 0
-998 -1876 0
-993 -1878 0
-994 -1879 0
-995 -1880 0
-997 -1882 0
-998 -1883 0
-993 -1884 0
-994 -1885 0
-996 -1886 0
-997 -1888 0
-998 -1889 0
-992 -1890 0
-994 -1891 0
-995 -1892 0
-996 -1893 0
-997 -1895 0
-998 -1896 0
-992 -1897 0
-994 -1898 0
-997 -1901 0
-998 -1902 0
-992 -1950 0
-994 -1951 0
-995 -1952 0
-996 -1953 0
-997 -1955 0
-998 -1956 0
-990 -1957 0
-992 -1958 0
-994 -1959 0
-996 -1961 0
-997 -1963 0
-998 -1964 0
-990 -1965 0
-992 -1966 0
-995 -1967 0
-996 -1968 0
-997 -1970 0
-998 -1971 0
-994 -1991 0
-995 -1992 0
-996 -1994 0
-997 -1996 0
-998 -1997 0
-999 -1097 0
-1003 -1100 0
-1004 -1101 0
-1005 -1102 0
-999 -1104 0
-1002 -1108 0
-1003 -1109 0
-1004 -1110 0
-1005 -1111 0
-999 -1129 0
-1002 -1132 0
-1003 -1133 0
-1004 -1134 0
-1005 -1135 0
-1002 -1187 0
-1003 -1188 0
-1004 -1189 0
-1005 -1190 0
-1003 -1195 0
-1004 -1196 0
-1005 -1197 0
-1001 -1199 0
-1003 -1202 0
-1004 -1203 0
-1005 -1204 0
-999 -1211 0
-1001 -1212 0
-1003 -1215 0
-1004 -1216 0
-1005 -1217 0
-999 -1218 0
-1001 -1219 0
-1002 -1222 0
-1003 -1223 0
-1004 -1224 0
-1005 -1225 0
-999 -1304 0
-1002 -1307 0
-1003 -1308 0
-1004 -1309 0
-1005 -1310 0
-999 -1311 0
-1003 -1316 0
-1004 -1317 0
-1005 -1318 0
-999 -1333 0
-1003 -1336 0
-1004 -1337 0
-1005 -1338 0
-1001 -1415 0
-1002 -1418 0
-1003 -1419 0
-1004 -1420 0
-1005 -1421 0
-1001 -1422 0
-1004 -1426 0
-1005 -1427 0
-1003 -1481 0
-1004 -1482 0
-1005 -1483 0
-999 -1491 0
-1003 -1496 0
-1004 -1497 0
-1005 -1498 0
-999 -1499 0
-1002 -1503 0
-1004 -1504 0
-1005 -1505 0
-1002 -1528 0
-1003 -1529 0
-1004 -1530 0
-1005 -1531 0
-1000 -1534 0
-1001 -1535 0
-1002 -1539 0
-1003 -1540 0
-1004 -1541 0
-1005 -1542 0
-1000 -1544 0
-1001 -1545 0
-1002 -1546 0
-1004 -1547 0
-1005 -1548 0
-1001 -1550 0
-1003 -1553 0
-1004 -1554 0
-1005 -1555 0
-1001 -1557 0
-1002 -1560 0
-1004 -1561 0
-1005 -1562 0
-1000 -1636 0
-1001 -1637 0
-1003 -1639 0
-1004 -1640 0
-1005 -1641 0
-1000 -1642 0
-1001 -1643 0
-1002 -1646 0
-1004 -1647 0
-1005 -1648 0
-1001 -1649 0
-1002 -1652 0
-1003 -1653 0
-1004 -1654 0
-1005 -1655 0
-1001 -1656 0
-1004 -1660 0
-1005 -1661 0
-1000 -1678 0
-1002 -1680 0
-1003 -1681 0
-1004 -1682 0
-1005 -1683 0
-1000 -1685 0
-1002 -1689 0
-1004 -1690 0
-1005 -1691 0
-1000 -1700 0
-1001 -1701 0
-1002 -1703 0
-1003 -1704 0
-1004 -1705 0
-1005 -1706 0
-1003 -1711 0
-1004 -1712 0
-1005 -1713 0
-1002 -1717 0
-1004 -1718 0
-1005 -1719 0
-1001 -1721 0
-1002 -1725 0
-1003 -1726 0
-1004 -1727 0
-1005 -1728 0
-999 -1736 0
-1001 -1737 0
-1002 -1740 0
-1003 -1741 0
-1004 -1742 0
-1005 -1743 0
-999 -1744 0
-1001 -1745 0
-1002 -1748 0
-1004 -1749 0
-1005 -1750 0
-1000 -1765 0
-1002 -1768 0
-1003 -1769 0
-1004 -1770 0
-1005 -1771 0
-999 -1779 0
-1000 -1781 0
-1002 -1784 0
-1003 -1785 0
-1004 -1786 0
-1005 -1787 0
-999 -1788 0
-1000 -1790 0
-1002 -1792 0
-1004 -1793 0
-1005 -1794 0
-999 -1802 0
-1003 -1807 0
-1004 -1808 0
-1005 -1809 0
-999 -1810 0
-1002 -1814 0
-1004 -1815 0
-1005 -1816 0
-999 -1832 0
-1002 -1836 0
-1004 -1837 0
-1005 -1838 0
-1000 -1852 0
-1003 -1855 0
-1004 -1856 0
-1005 -1857 0
-1000 -1858 0
-1002 -1861 0
-1004 -1862 0
-1005 -1863 0
-1002 -1873 0
-1003 -1874 0
-1004 -1875 0
-1005 -1876 0
-1001 -1878 0
-1004 -1882 0
-1005 -1883 0
-1001 -1884 0
-1002 -1886 0
-1003 -1887 0
-1004 -1888 0
-1005 -1889 0
-1002 -1920 0
-1003 -1921 0
-1004 -1922 0
-1005 -1923 0
-1000 -1945 0
-1002 -1946 0
-1003 -1947 0
-1004 -1948 0
-1005 -1949 0
-999 -1957 0
-1000 -1958 0
-1002 -1961 0
-1003 -1962 0
-1004 -1963 0
-1005 -1964 0
-999 -1965 0
-1000 -1966 0
-1002 -1968 0
-1003 -1969 0
-1004 -1970 0
-1005 -1971 0
-999 -1978 0
-1003 -1981 0
-1004 -1982 0
-1005 -1983 0
-999 -1984 0
-1002 -1986 0
-1003 -1987 0
-1004 -1988 0
-1005 -1989 0
-1007 -1029 0
-1009 -1031 0
-1010 -1032 0
-1011 -1033 0
-1012 -1034 0
-1013 -1035 0
-1007 -1091 0
-1009 -1092 0
-1012 -1094 0
-1013 -1095 0
-1006 -1104 0
-1009 -1107 0
-1011 -1108 0
-1012 -1110 0
-1013 -1111 0
-1006 -1122 0
-1007 -1123 0
-1009 -1124 0
-1011 -1125 0
-1012 -1126 0
-1013 -1127 0
-1006 -1154 0
-1009 -1155 0
-1010 -1156 0
-1012 -1157 0
-1013 -1158 0
-1009 -1186 0
-1011 -1187 0
-1012 -1189 0
-1013 -1190 0
-1008 -1199 0
-1009 -1201 0
-1012 -1203 0
-1013 -1204 0
-1007 -1205 0
-1008 -1206 0
-1009 -1207 0
-1012 -1209 0
-1013 -1210 0
-1006 -1218 0
-1008 -1219 0
-1009 -1221 0
-1011 -1222 0
-1012 -1224 0
-1013 -1225 0
-1008 -1226 0
-1009 -1227 0
-1010 -1228 0
-1011 -1229 0
-1012 -1231 0
-1013 -1232 0
-1007 -1296 0
-1009 -1298 0
-1010 -1299 0
-1011 -1300 0
-1012 -1302 0
-1013 -1303 0
-1006 -1311 0
-1009 -1314 0
-1010 -1315 0
-1012 -1317 0
-1013 -1318 0
-1006 -1326 0
-1007 -1327 0
-1009 -1329 0
-1010 -1330 0
-1012 -1331 0
-1013 -1332 0
-1006 -1345 0
-1009 -1347 0
-1010 -1348 0
-1011 -1349 0
-1012 -1350 0
-1013 -1351 0
-1007 -1361 0
-1009 -1362 0
-1010 -1363 0
-1012 -1365 0
-1013 -1366 0
-1009 -1381 0
-1011 -1382 0
-1012 -1384 0
-1013 -1385 0
-1008 -1422 0
-1009 -1424 0
-1010 -1425 0
-1012 -1426 0
-1013 -1427 0
-1007 -1463 0
-1009 -1465 0
-1011 -1466 0
-1012 -1468 0
-1013 -1469 0
-1009 -1472 0
-1010 -1473 0
-1011 -1474 0
-1012 -1476 0
-1013 -1477 0
-1009 -1479 0
-1010 -1480 0
-1012 -1482 0
-1013 -1483 0
-1007 -1485 0
-1009 -1487 0
-1010 -1488 0
-1012 -1489 0
-1013 -1490 0
-1006 -1499 0
-1009 -1501 0
-1010 -1502 0
-1011 -1503 0
-1012 -1504 0
-1013 -1505 0
-1009 -1508 0
-1011 -1509 0
-1012 -1510 0
-1013 -1511 0
-1006 -1519 0
-1009 -1521 0
-1012 -1523 0
-1013 -1524 0
-1009 -1526 0
-1010 -1527 0
-1011 -1528 0
-1012 -1530 0
-1013 -1531 0
-1007 -1544 0
-1008 -1545 0
-1011 -1546 0
-1012 -1547 0
-1013 -1548 0
-1008 -1557 0
-1009 -1558 0
-1010 -1559 0
-1011 -1560 0
-1012 -1561 0
-1013 -1562 0
-1007 -1577 0
-1010 -1578 0
-1011 -1579 0
-1012 -1581 0
-1013 -1582 0
-1007 -1599 0
-1009 -1600 0
-1010 -1601 0
-1012 -1603 0
-1013 -1604 0
-1007 -1642 0
-1008 -1643 0
-1010 -1645 0
-1011 -1646 0
-1012 -1647 0
-1013 -1648 0
-1008 -1656 0
-1009 -1658 0
-1010 -1659 0
-1012 -1660 0
-1013 -1661 0
-1009 -1665 0
-1011 -1666 0
-1012 -1668 0
-1013 -1669 0
-1007 -1678 0
-1011 -1680 0
-1012 -1682 0
-1013 -1683 0
-1006 -1693 0
-1011 -1695 0
-1012 -1697 0
-1013 -1698 0
-1007 -1700 0
-1008 -1701 0
-1011 -1703 0
-1012 -1705 0
-1013 -1706 0
-1009 -1709 0
-1010 -1710 0
-1012 -1712 0
-1013 -1713 0
-1008 -1721 0
-1009 -1723 0
-1010 -1724 0
-1011 -1725 0
-1012 -1727 0
-1013 -1728 0
-1007 -1729 0
-1008 -1730 0
-1010 -1732 0
-1011 -1733 0
-1012 -1734 0
-1013 -1735 0
-1006 -1744 0
-1008 -1745 0
-1010 -1747 0
-1011 -1748 0
-1012 -1749 0
-1013 -1750 0
-1008 -1751 0
-1011 -1753 0
-1012 -1755 0
-1013 -1756 0
-1007 -1765 0
-1009 -1766 0
-1010 -1767 0
-1011 -1768 0
-1012 -1770 0
-1013 -1771 0
-1007 -1773 0
-1010 -1775 0
-1011 -1776 0
-1012 -1777 0
-1013 -1778 0
-1006 -1788 0
-1007 -1790 0
-1010 -1791 0
-1011 -1792 0
-1012 -1793 0
-1013 -1794 0
-1007 -1796 0
-1009 -1798 0
-1010 -1799 0
-1012 -1800 0
-1013 -1801 0
-1006 -1810 0
-1009 -1812 0
-1010 -1813 0
-1011 -1814 0
-1012 -1815 0
-1013 -1816 0
-1006 -1824 0
-1007 -1825 0
-1010 -1827 0
-1011 -1828 0
-1012 -1830 0
-1013 -1831 0
-1009 -1840 0
-1010 -1841 0
-1012 -1843 0
-1013 -1844 0
-1007 -1852 0
-1010 -1854 0
-1012 -1856 0
-1013 -1857 0
-1006 -1864 0
-1010 -1865 0
-1011 -1866 0
-1012 -1868 0
-1013 -1869 0
-1009 -1871 0
-1010 -1872 0
-1011 -1873 0
-1012 -1875 0
-1013 -1876 0
-1008 -1884 0
-1011 -1886 0
-1012 -1888 0
-1013 -1889 0
-1007 -1897 0
-1010 -1899 0
-1012 -1901 0
-1013 -1902 0
-1010 -1905 0
-1011 -1906 0
-1012 -1908 0
-1013 -1909 0
-1007 -1945 0
-1011 -1946 0
-1012 -1948 0
-1013 -1949 0
-1007 -1950 0
-1009 -1952 0
-1011 -1953 0
-1012 -1955 0
-1013 -1956 0
-1006 -1965 0
-1007 -1966 0
-1009 -1967 0
-1011 -1968 0
-1012 -1970 0
-1013 -1971 0
-1007 -1972 0
-1010 -1974 0
-1012 -1976 0
-1013 -1977 0
-1006 -1984 0
-1010 -1985 0
-1011 -1986 0
-1012 -1988 0
-1013 -1989 0
-1015 -1022 0
-1017 -1023 0
-1018 -1025 0
-1019 -1026 0
-1020 -1027 0
-1015 -1091 0
-1018 -1093 0
-1019 -1094 0
-1020 -1095 0
-1014 -1097 0
-1018 -1100 0
-1019 -1101 0
-1020 -1102 0
-1014 -1113 0
-1015 -1114 0
-1017 -1115 0
-1018 -1118 0
-1019 -1119 0
-1020 -1120 0
-1014 -1147 0
-1017 -1148 0
-1018 -1150 0
-1019 -1151 0
-1020 -1152 0
-1017 -1192 0
-1018 -1195 0
-1019 -1196 0
-1020 -1197 0
-1016 -1199 0
-1017 -1200 0
-1018 -1202 0
-1019 -1203 0
-1020 -1204 0
-1015 -1205 0
-1016 -1206 0
-1018 -1208 0
-1019 -1209 0
-1020 -1210 0
-1014 -1211 0
-1016 -1212 0
-1018 -1215 0
-1019 -1216 0
-1020 -1217 0
-1016 -1226 0
-1018 -1230 0
-1019 -1231 0
-1020 -1232 0
-1015 -1296 0
-1017 -1297 0
-1018 -1301 0
-1019 -1302 0
-1020 -1303 0
-1014 -1304 0
-1017 -1306 0
-1018 -1308 0
-1019 -1309 0
-1020 -1310 0
-1014 -1319 0
-1015 -1320 0
-1018 -1323 0
-1019 -1324 0
-1020 -1325 0
-1014 -1339 0
-1018 -1342 0
-1019 -1343 0
-1020 -1344 0
-1015 -1353 0
-1017 -1354 0
-1019 -1358 0
-1020 -1359 0
-1017 -1375 0
-1019 -1378 0
-1020 -1379 0
-1016 -1415 0
-1018 -1419 0
-1019 -1420 0
-1020 -1421 0
-1015 -1457 0
-1019 -1461 0
-1020 -1462 0
-1018 -1481 0
-1019 -1482 0
-1020 -1483 0
-1015 -1485 0
-1017 -1486 0
-1019 -1489 0
-1020 -1490 0
-1014 -1491 0
-1017 -1493 0
-1018 -1496 0
-1019 -1497 0
-1020 -1498 0
-1017 -1507 0
-1019 -1510 0
-1020 -1511 0
-1014 -1512 0
-1017 -1513 0
-1019 -1517 0
-1020 -1518 0
-1015 -1534 0
-1016 -1535 0
-1017 -1536 0
-1018 -1540 0
-1019 -1541 0
-1020 -1542 0
-1016 -1550 0
-1017 -1551 0
-1018 -1553 0
-1019 -1554 0
-1020 -1555 0
-1015 -1571 0
-1017 -1572 0
-1019 -1574 0
-1020 -1575 0
-1015 -1591 0
-1017 -1592 0
-1019 -1596 0
-1020 -1597 0
-1015 -1636 0
-1016 -1637 0
-1018 -1639 0
-1019 -1640 0
-1020 -1641 0
-1016 -1649 0
-1018 -1653 0
-1019 -1654 0
-1020 -1655 0
-1018 -1674 0
-1019 -1675 0
-1020 -1676 0
-1015 -1685 0
-1017 -1686 0
-1019 -1690 0
-1020 -1691 0
-1014 -1693 0
-1017 -1694 0
-1018 -1696 0
-1019 -1697 0
-1020 -1698 0
-1015 -1700 0
-1016 -1701 0
-1017 -1702 0
-1018 -1704 0
-1019 -1705 0
-1020 -1706 0
-1017 -1715 0
-1019 -1718 0
-1020 -1719 0
-1016 -1721 0
-1017 -1722 0
-1018 -1726 0
-1019 -1727 0
-1020 -1728 0
-1015 -1729 0
-1016 -1730 0
-1017 -1731 0
-1019 -1734 0
-1020 -1735 0
-1014 -1736 0
-1016 -1737 0
-1017 -1738 0
-1018 -1741 0
-1019 -1742 0
-1020 -1743 0
-1016 -1757 0
-1018 -1761 0
-1019 -1762 0
-1020 -1763 0
-1015 -1765 0
-1018 -1769 0
-1019 -1770 0
-1020 -1771 0
-1015 -1773 0
-1017 -1774 0
-1019 -1777 0
-1020 -1778 0
-1014 -1779 0
-1015 -1781 0
-1017 -1782 0
-1018 -1785 0
-1019 -1786 0
-1020 -1787 0
-1015 -1796 0
-1017 -1797 0
-1019 -1800 0
-1020 -1801 0
-1014 -1802 0
-1017 -1804 0
-1018 -1807 0
-1019 -1808 0
-1020 -1809 0
-1014 -1817 0
-1015 -1818 0
-1017 -1819 0
-1019 -1822 0
-1020 -1823 0
-1017 -1846 0
-1018 -1849 0
-1019 -1850 0
-1020 -1851 0
-1015 -1858 0
-1019 -1862 0
-1020 -1863 0
-1014 -1864 0
-1018 -1867 0
-1019 -1868 0
-1020 -1869 0
-1016 -1878 0
-1017 -1879 0
-1019 -1882 0
-1020 -1883 0
-1015 -1890 0
-1017 -1891 0
-1018 -1894 0
-1019 -1895 0
-1020 -1896 0
-1017 -1911 0
-1019 -1914 0
-1020 -1915 0
-1017 -1917 0
-1018 -1921 0
-1019 -1922 0
-1020 -1923 0
-1015 -1945 0
-1018 -1947 0
-1019 -1948 0
-1020 -1949 0
-1015 -1950 0
-1017 -1951 0
-1018 -1954 0
-1019 -1955 0
-1020 -1956 0
-1014 -1957 0
-1015 -1958 0
-1017 -1959 0
-1018 -1962 0
-1019 -1963 0
-1020 -1964 0
-1015 -1972 0
-1017 -1973 0
-1018 -1975 0
-1019 -1976 0
-1020 -1977 0
-1014 -1978 0
-1017 -1979 0
-1018 -1981 0
-1019 -1982 0
-1020 -1983 0
-1017 -1991 0
-1018 -1995 0
-1019 -1996 0
-1020 -1997 0
-1021 -1103 0
-1023 -1106 0
-1024 -1108 0
-1025 -1109 0
-1026 -1110 0
-1027 -1111 0
-1021 -1121 0
-1022 -1123 0
-1024 -1125 0
-1026 -1126 0
-1027 -1127 0
-1021 -1128 0
-1024 -1132 0
-1025 -1133 0
-1026 -1134 0
-1027 -1135 0
-1022 -1138 0
-1024 -1142 0
-1025 -1143 0
-1026 -1144 0
-1027 -1145 0
-1021 -1153 0
-1026 -1157 0
-1027 -1158 0
-1025 -1162 0
-1026 -1163 0
-1027 -1164 0
-1022 -1166 0
-1023 -1168 0
-1026 -1170 0
-1027 -1171 0
-1023 -1174 0
-1025 -1176 0
-1026 -1177 0
-1027 -1178 0
-1023 -1220 0
-1024 -1222 0
-1025 -1223 0
-1026 -1224 0
-1027 -1225 0
-1022 -1255 0
-1023 -1256 0
-1024 -1258 0
-1026 -1259 0
-1027 -1260 0
-1023 -1277 0
-1026 -1279 0
-1027 -1280 0
-1022 -1288 0
-1025 -1291 0
-1026 -1292 0
-1027 -1293 0
-1021 -1360 0
-1022 -1361 0
-1025 -1364 0
-1026 -1365 0
-1027 -1366 0
-1022 -1368 0
-1026 -1372 0
-1027 -1373 0
-1021 -1380 0
-1024 -1382 0
-1025 -1383 0
-1026 -1384 0
-1027 -1385 0
-1024 -1389 0
-1026 -1390 0
-1027 -1391 0
-1022 -1392 0
-1023 -1394 0
-1024 -1397 0
-1025 -1398 0
-1026 -1399 0
-1027 -1400 0
-1023 -1403 0
-1024 -1405 0
-1026 -1406 0
-1027 -1407 0
-1023 -1423 0
-1026 -1426 0
-1027 -1427 0
-1022 -1451 0
-1024 -1453 0
-1025 -1454 0
-1026 -1455 0
-1027 -1456 0
-1025 -1481 0
-1026 -1482 0
-1027 -1483 0
-1022 -1485 0
-1023 -1486 0
-1026 -1489 0
-1027 -1490 0
-1023 -1493 0
-1025 -1496 0
-1026 -1497 0
-1027 -1498 0
-1023 -1507 0
-1024 -1509 0
-1026 -1510 0
-1027 -1511 0
-1023 -1513 0
-1024 -1516 0
-1026 -1517 0
-1027 -1518 0
-1021 -1533 0
-1022 -1534 0
-1023 -1536 0
-1024 -1539 0
-1025 -1540 0
-1026 -1541 0
-1027 -1542 0
-1021 -1549 0
-1023 -1551 0
-1025 -1553 0
-1026 -1554 0
-1027 -1555 0
-1021 -1576 0
-1022 -1577 0
-1024 -1579 0
-1025 -1580 0
-1026 -1581 0
-1027 -1582 0
-1022 -1584 0
-1024 -1587 0
-1026 -1588 0
-1027 -1589 0
-1021 -1598 0
-1022 -1599 0
-1025 -1602 0
-1026 -1603 0
-1027 -1604 0
-1022 -1606 0
-1026 -1610 0
-1027 -1611 0
-1022 -1612 0
-1023 -1614 0
-1025 -1617 0
-1026 -1618 0
-1027 -1619 0
-1022 -1621 0
-1023 -1623 0
-1026 -1625 0
-1027 -1626 0
-1022 -1642 0
-1023 -1644 0
-1024 -1646 0
-1026 -1647 0
-1027 -1648 0
-1023 -1657 0
-1026 -1660 0
-1027 -1661 0
-1021 -1662 0
-1023 -1664 0
-1024 -1666 0
-1025 -1667 0
-1026 -1668 0
-1027 -1669 0
-1021 -1677 0
-1022 -1678 0
-1023 -1679 0
-1024 -1680 0
-1025 -1681 0
-1026 -1682 0
-1027 -1683 0
-1021 -1707 0
-1023 -1708 0
-1025 -1711 0
-1026 -1712 0
-1027 -1713 0
-1023 -1752 0
-1024 -1753 0
-1025 -1754 0
-1026 -1755 0
-1027 -1756 0
-1022 -1765 0
-1024 -1768 0
-1025 -1769 0
-1026 -1770 0
-1027 -1771 0
-1022 -1773 0
-1023 -1774 0
-1024 -1776 0
-1026 -1777 0
-1027 -1778 0
-1022 -1781 0
-1023 -1782 0
-1024 -1784 0
-1025 -1785 0
-1026 -1786 0
-1027 -1787 0
-1022 -1796 0
-1023 -1797 0
-1026 -1800 0
-1027 -1801 0
-1023 -1804 0
-1025 -1807 0
-1026 -1808 0
-1027 -1809 0
-1022 -1818 0
-1023 -1819 0
-1026 -1822 0
-1027 -1823 0
-1023 -1846 0
-1024 -1848 0
-1025 -1849 0
-1026 -1850 0
-1027 -1851 0
-1022 -1858 0
-1024 -1861 0
-1026 -1862 0
-1027 -1863 0
-1024 -1866 0
-1025 -1867 0
-1026 -1868 0
-1027 -1869 0
-1022 -1890 0
-1023 -1891 0
-1024 -1893 0
-1025 -1894 0
-1026 -1895 0
-1027 -1896 0
-1022 -1924 0
-1024 -1927 0
-1025 -1928 0
-1026 -1929 0
-1027 -1930 0
-1022 -1931 0
-1025 -1934 0
-1026 -1935 0
-1027 -1936 0
-1022 -1945 0
-1024 -1946 0
-1025 -1947 0
-1026 -1948 0
-1027 -1949 0
-1022 -1950 0
-1023 -1951 0
-1024 -1953 0
-1025 -1954 0
-1026 -1955 0
-1027 -1956 0
-1022 -1958 0
-1023 -1959 0
-1024 -1961 0
-1025 -1962 0
-1026 -1963 0
-1027 -1964 0
-1022 -1972 0
-1023 -1973 0
-1025 -1975 0
-1026 -1976 0
-1027 -1977 0
-1023 -1979 0
-1025 -1981 0
-1026 -1982 0
-1027 -1983 0
-1023 -1991 0
-1024 -1994 0
-1025 -1995 0
-1026 -1996 0
-1027 -1997 0
-1028 -1096 0
-1032 -1099 0
-1034 -1101 0
-1035 -1102 0
-1028 -1112 0
-1029 -1114 0
-1030 -1115 0
-1031 -1116 0
-1032 -1117 0
-1034 -1119 0
-1035 -1120 0
-1028 -1128 0
-1031 -1130 0
-1032 -1131 0
-1033 -1132 0
-1034 -1134 0
-1035 -1135 0
-1029 -1138 0
-1031 -1140 0
-1032 -1141 0
-1033 -1142 0
-1034 -1144 0
-1035 -1145 0
-1028 -1146 0
-1030 -1148 0
-1033 -1149 0
-1034 -1151 0
-1035 -1152 0
-1034 -1163 0
-1035 -1164 0
-1029 -1166 0
-1030 -1168 0
-1031 -1169 0
-1034 -1170 0
-1035 -1171 0
-1031 -1181 0
-1033 -1182 0
-1034 -1183 0
-1035 -1184 0
-1031 -1213 0
-1032 -1214 0
-1034 -1216 0
-1035 -1217 0
-1029 -1248 0
-1032 -1249 0
-1034 -1251 0
-1035 -1252 0
-1031 -1270 0
-1033 -1271 0
-1034 -1273 0
-1035 -1274 0
-1029 -1282 0
-1030 -1283 0
-1033 -1284 0
-1034 -1285 0
-1035 -1286 0
-1028 -1352 0
-1029 -1353 0
-1030 -1354 0
-1031 -1355 0
-1032 -1356 0
-1033 -1357 0
-1034 -1358 0
-1035 -1359 0
-1029 -1368 0
-1031 -1370 0
-1032 -1371 0
-1034 -1372 0
-1035 -1373 0
-1028 -1374 0
-1030 -1375 0
-1032 -1376 0
-1033 -1377 0
-1034 -1378 0
-1035 -1379 0
-1032 -1388 0
-1033 -1389 0
-1034 -1390 0
-1035 -1391 0
-1029 -1392 0
-1030 -1394 0
-1031 -1395 0
-1032 -1396 0
-1033 -1397 0
-1034 -1399 0
-1035 -1400 0
-1031 -1410 0
-1032 -1411 0
-1034 -1413 0
-1035 -1414 0
-1031 -1416 0
-1032 -1417 0
-1033 -1418 0
-1034 -1420 0
-1035 -1421 0
-1029 -1443 0
-1030 -1444 0
-1032 -1445 0
-1033 -1446 0
-1034 -1448 0
-1035 -1449 0
-1031 -1479 0
-1032 -1480 0
-1034 -1482 0
-1035 -1483 0
-1029 -1485 0
-1030 -1486 0
-1031 -1487 0
-1032 -1488 0
-1034 -1489 0
-1035 -1490 0
-1031 -1501 0
-1032 -1502 0
-1033 -1503 0
-1034 -1504 0
-1035 -1505 0
-1030 -1507 0
-1031 -1508 0
-1033 -1509 0
-1034 -1510 0
-1035 -1511 0
-1030 -1520 0
-1031 -1521 0
-1034 -1523 0
-1035 -1524 0
-1030 -1525 0
-1031 -1526 0
-1032 -1527 0
-1033 -1528 0
-1034 -1530 0
-1035 -1531 0
-1028 -1543 0
-1029 -1544 0
-1033 -1546 0
-1034 -1547 0
-1035 -1548 0
-1028 -1556 0
-1031 -1558 0
-1032 -1559 0
-1033 -1560 0
-1034 -1561 0
-1035 -1562 0
-1028 -1570 0
-1029 -1571 0
-1030 -1572 0
-1031 -1573 0
-1034 -1574 0
-1035 -1575 0
-1029 -1584 0
-1031 -1586 0
-1033 -1587 0
-1034 -1588 0
-1035 -1589 0
-1028 -1590 0
-1029 -1591 0
-1030 -1592 0
-1031 -1593 0
-1032 -1594 0
-1033 -1595 0
-1034 -1596 0
-1035 -1597 0
-1029 -1606 0
-1031 -1608 0
-1032 -1609 0
-1034 -1610 0
-1035 -1611 0
-1029 -1612 0
-1030 -1614 0
-1031 -1615 0
-1032 -1616 0
-1034 -1618 0
-1035 -1619 0
-1029 -1628 0
-1031 -1630 0
-1032 -1631 0
-1033 -1632 0
-1034 -1634 0
-1035 -1635 0
-1029 -1636 0
-1031 -1638 0
-1034 -1640 0
-1035 -1641 0
-1031 -1650 0
-1032 -1651 0
-1033 -1652 0
-1034 -1654 0
-1035 -1655 0
-1028 -1670 0
-1032 -1672 0
-1033 -1673 0
-1034 -1675 0
-1035 -1676 0
-1028 -1684 0
-1029 -1685 0
-1030 -1686 0
-1031 -1687 0
-1032 -1688 0
-1033 -1689 0
-1034 -1690 0
-1035 -1691 0
-1028 -1714 0
-1030 -1715 0
-1032 -1716 0
-1033 -1717 0
-1034 -1718 0
-1035 -1719 0
-1031 -1758 0
-1032 -1759 0
-1033 -1760 0
-1034 -1762 0
-1035 -1763 0
-1029 -1765 0
-1031 -1766 0
-1032 -1767 0
-1033 -1768 0
-1034 -1770 0
-1035 -1771 0
-1029 -1773 0
-1030 -1774 0
-1032 -1775 0
-1033 -1776 0
-1034 -1777 0
-1035 -1778 0
-1029 -1790 0
-1032 -1791 0
-1033 -1792 0
-1034 -1793 0
-1035 -1794 0
-1029 -1796 0
-1030 -1797 0
-1031 -1798 0
-1032 -1799 0
-1034 -1800 0
-1035 -1801 0
-1031 -1812 0
-1032 -1813 0
-1033 -1814 0
-1034 -1815 0
-1035 -1816 0
-1029 -1825 0
-1030 -1826 0
-1032 -1827 0
-1033 -1828 0
-1034 -1830 0
-1035 -1831 0
-1031 -1840 0
-1032 -1841 0
-1034 -1843 0
-1035 -1844 0
-1029 -1852 0
-1030 -1853 0
-1032 -1854 0
-1034 -1856 0
-1035 -1857 0
-1032 -1865 0
-1033 -1866 0
-1034 -1868 0
-1035 -1869 0
-1030 -1870 0
-1031 -1871 0
-1032 -1872 0
-1033 -1873 0
-1034 -1875 0
-1035 -1876 0
-1029 -1897 0
-1030 -1898 0
-1032 -1899 0
-1034 -1901 0
-1035 -1902 0
-1029 -1924 0
-1032 -1926 0
-1033 -1927 0
-1034 -1929 0
-1035 -1930 0
-1029 -1931 0
-1031 -1933 0
-1034 -1935 0
-1035 -1936 0
-1029 -1945 0
-1033 -1946 0
-1034 -1948 0
-1035 -1949 0
-1029 -1950 0
-1030 -1951 0
-1031 -1952 0
-1033 -1953 0
-1034 -1955 0
-1035 -1956 0
-1029 -1966 0
-1031 -1967 0
-1033 -1968 0
-1034 -1970 0
-1035 -1971 0
-1029 -1972 0
-1030 -1973 0
-1032 -1974 0
-1034 -1976 0
-1035 -1977 0
-1032 -1985 0
-1033 -1986 0
-1034 -1988 0
-1035 -1989 0
-1037 -1114 0
-1039 -1115 0
-1041 -1118 0
-1042 -1119 0
-1043 -1120 0
-1037 -1123 0
-1040 -1125 0
-1042 -1126 0
-1043 -1127 0
-1040 -1132 0
-1041 -1133 0
-1042 -1134 0
-1043 -1135 0
-1039 -1148 0
-1040 -1149 0
-1041 -1150 0
-1042 -1151 0
-1043 -1152 0
-1042 -1157 0
-1043 -1158 0
-1037 -1166 0
-1038 -1167 0
-1039 -1168 0
-1042 -1170 0
-1043 -1171 0
-1038 -1173 0
-1039 -1174 0
-1041 -1176 0
-1042 -1177 0
-1043 -1178 0
-1038 -1180 0
-1040 -1182 0
-1042 -1183 0
-1043 -1184 0
-1037 -1282 0
-1039 -1283 0
-1040 -1284 0
-1042 -1285 0
-1043 -1286 0
-1037 -1288 0
-1041 -1291 0
-1042 -1292 0
-1043 -1293 0
-1037 -1353 0
-1039 -1354 0
-1040 -1357 0
-1042 -1358 0
-1043 -1359 0
-1037 -1361 0
-1041 -1364 0
-1042 -1365 0
-1043 -1366 0
-1039 -1375 0
-1040 -1377 0
-1042 -1378 0
-1043 -1379 0
-1040 -1382 0
-1041 -1383 0
-1042 -1384 0
-1043 -1385 0
-1037 -1392 0
-1038 -1393 0
-1039 -1394 0
-1040 -1397 0
-1041 -1398 0
-1042 -1399 0
-1043 -1400 0
-1038 -1402 0
-1039 -1403 0
-1040 -1405 0
-1042 -1406 0
-1043 -1407 0
-1038 -1409 0
-1041 -1412 0
-1042 -1413 0
-1043 -1414 0
-1037 -1443 0
-1039 -1444 0
-1040 -1446 0
-1041 -1447 0
-1042 -1448 0
-1043 -1449 0
-1037 -1451 0
-1040 -1453 0
-1041 -1454 0
-1042 -1455 0
-1043 -1456 0
-1036 -1484 0
-1037 -1485 0
-1039 -1486 0
-1042 -1489 0
-1043 -1490 0
-1036 -1492 0
-1039 -1493 0
-1041 -1496 0
-1042 -1497 0
-1043 -1498 0
-1036 -1500 0
-1040 -1503 0
-1042 -1504 0
-1043 -1505 0
-1036 -1506 0
-1039 -1507 0
-1040 -1509 0
-1042 -1510 0
-1043 -1511 0
-1039 -1525 0
-1040 -1528 0
-1041 -1529 0
-1042 -1530 0
-1043 -1531 0
-1037 -1534 0
-1038 -1535 0
-1039 -1536 0
-1040 -1539 0
-1041 -1540 0
-1042 -1541 0
-1043 -1542 0
-1037 -1544 0
-1038 -1545 0
-1040 -1546 0
-1042 -1547 0
-1043 -1548 0
-1038 -1550 0
-1039 -1551 0
-1041 -1553 0
-1042 -1554 0
-1043 -1555 0
-1038 -1557 0
-1040 -1560 0
-1042 -1561 0
-1043 -1562 0
-1037 -1563 0
-1038 -1564 0
-1039 -1565 0
-1040 -1567 0
-1042 -1568 0
-1043 -1569 0
-1037 -1571 0
-1039 -1572 0
-1042 -1574 0
-1043 -1575 0
-1037 -1577 0
-1040 -1579 0
-1041 -1580 0
-1042 -1581 0
-1043 -1582 0
-1037 -1591 0
-1039 -1592 0
-1040 -1595 0
-1042 -1596 0
-1043 -1597 0
-1037 -1599 0
-1041 -1602 0
-1042 -1603 0
-1043 -1604 0
-1037 -1612 0
-1038 -1613 0
-1039 -1614 0
-1041 -1617 0
-1042 -1618 0
-1043 -1619 0
-1037 -1621 0
-1038 -1622 0
-1039 -1623 0
-1042 -1625 0
-1043 -1626 0
-1037 -1628 0
-1038 -1629 0
-1040 -1632 0
-1041 -1633 0
-1042 -1634 0
-1043 -1635 0
-1036 -1663 0
-1039 -1664 0
-1040 -1666 0
-1041 -1667 0
-1042 -1668 0
-1043 -1669 0
-1036 -1671 0
-1040 -1673 0
-1041 -1674 0
-1042 -1675 0
-1043 -1676 0
-1036 -1699 0
-1037 -1700 0
-1038 -1701 0
-1039 -1702 0
-1040 -1703 0
-1041 -1704 0
-1042 -1705 0
-1043 -1706 0
-1036 -1720 0
-1038 -1721 0
-1039 -1722 0
-1040 -1725 0
-1041 -1726 0
-1042 -1727 0
-1043 -1728 0
-1038 -1751 0
-1039 -1752 0
-1040 -1753 0
-1041 -1754 0
-1042 -1755 0
-1043 -1756 0
-1038 -1757 0
-1040 -1760 0
-1041 -1761 0
-1042 -1762 0
-1043 -1763 0
-1036 -1772 0
-1037 -1773 0
-1039 -1774 0
-1040 -1776 0
-1042 -1777 0
-1043 -1778 0
-1036 -1780 0
-1037 -1781 0
-1039 -1782 0
-1040 -1784 0
-1041 -1785 0
-1042 -1786 0
-1043 -1787 0
-1036 -1789 0
-1037 -1790 0
-1040 -1792 0
-1042 -1793 0
-1043 -1794 0
-1036 -1795 0
-1037 -1796 0
-1039 -1797 0
-1042 -1800 0
-1043 -1801 0
-1036 -1803 0
-1039 -1804 0
-1041 -1807 0
-1042 -1808 0
-1043 -1809 0
-1036 -1811 0
-1040 -1814 0
-1042 -1815 0
-1043 -1816 0
-1037 -1852 0
-1039 -1853 0
-1041 -1855 0
-1042 -1856 0
-1043 -1857 0
-1037 -1858 0
-1040 -1861 0
-1042 -1862 0
-1043 -1863 0
-1040 -1866 0
-1041 -1867 0
-1042 -1868 0
-1043 -1869 0
-1039 -1870 0
-1040 -1873 0
-1041 -1874 0
-1042 -1875 0
-1043 -1876 0
-1037 -1950 0
-1039 -1951 0
-1040 -1953 0
-1041 -1954 0
-1042 -1955 0
-1043 -1956 0
-1037 -1958 0
-1039 -1959 0
-1040 -1961 0
-1041 -1962 0
-1042 -1963 0
-1043 -1964 0
-1037 -1966 0
-1040 -1968 0
-1041 -1969 0
-1042 -1970 0
-1043 -1971 0
-1037 -1972 0
-1039 -1973 0
-1041 -1975 0
-1042 -1976 0
-1043 -1977 0
-1039 -1979 0
-1041 -1981 0
-1042 -1982 0
-1043 -1983 0
-1040 -1986 0
-1041 -1987 0
-1042 -1988 0
-1043 -1989 0
-1049 -1101 0
-1050 -1102 0
-1046 -1106 0
-1047 -1107 0
-1048 -1108 0
-1049 -1110 0
-1050 -1111 0
-1047 -1130 0
-1048 -1132 0
-1049 -1134 0
-1050 -1135 0
-1046 -1148 0
-1048 -1149 0
-1049 -1151 0
-1050 -1152 0
-1047 -1155 0
-1049 -1157 0
-1050 -1158 0
-1045 -1161 0
-1049 -1163 0
-1050 -1164 0
-1045 -1173 0
-1046 -1174 0
-1049 -1177 0
-1050 -1178 0
-1045 -1180 0
-1047 -1181 0
-1048 -1182 0
-1049 -1183 0
-1050 -1184 0
-1047 -1270 0
-1048 -1271 0
-1049 -1273 0
-1050 -1274 0
-1046 -1277 0
-1049 -1279 0
-1050 -1280 0
-1046 -1375 0
-1048 -1377 0
-1049 -1378 0
-1050 -1379 0
-1047 -1381 0
-1048 -1382 0
-1049 -1384 0
-1050 -1385 0
-1045 -1387 0
-1048 -1389 0
-1049 -1390 0
-1050 -1391 0
-1045 -1402 0
-1046 -1403 0
-1048 -1405 0
-1049 -1406 0
-1050 -1407 0
-1045 -1409 0
-1047 -1410 0
-1049 -1413 0
-1050 -1414 0
-1047 -1479 0
-1049 -1482 0
-1050 -1483 0
-1046 -1493 0
-1047 -1494 0
-1049 -1497 0
-1050 -1498 0
-1047 -1501 0
-1048 -1503 0
-1049 -1504 0
-1050 -1505 0
-1046 -1507 0
-1047 -1508 0
-1048 -1509 0
-1049 -1510 0
-1050 -1511 0
-1046 -1513 0
-1047 -1514 0
-1048 -1516 0
-1049 -1517 0
-1050 -1518 0
-1046 -1520 0
-1047 -1521 0
-1049 -1523 0
-1050 -1524 0
-1044 -1534 0
-1045 -1535 0
-1046 -1536 0
-1047 -1537 0
-1048 -1539 0
-1049 -1541 0
-1050 -1542 0
-1044 -1544 0
-1045 -1545 0
-1048 -1546 0
-1049 -1547 0
-1050 -1548 0
-1044 -1563 0
-1045 -1564 0
-1046 -1565 0
-1047 -1566 0
-1048 -1567 0
-1049 -1568 0
-1050 -1569 0
-1044 -1591 0
-1046 -1592 0
-1047 -1593 0
-1048 -1595 0
-1049 -1596 0
-1050 -1597 0
-1044 -1599 0
-1047 -1600 0
-1049 -1603 0
-1050 -1604 0
-1044 -1606 0
-1045 -1607 0
-1047 -1608 0
-1049 -1610 0
-1050 -1611 0
-1044 -1621 0
-1045 -1622 0
-1046 -1623 0
-1047 -1624 0
-1049 -1625 0
-1050 -1626 0
-1044 -1628 0
-1045 -1629 0
-1047 -1630 0
-1048 -1632 0
-1049 -1634 0
-1050 -1635 0
-1045 -1649 0
-1047 -1650 0
-1048 -1652 0
-1049 -1654 0
-1050 -1655 0
-1045 -1656 0
-1046 -1657 0
-1047 -1658 0
-1049 -1660 0
-1050 -1661 0
-1044 -1678 0
-1046 -1679 0
-1048 -1680 0
-1049 -1682 0
-1050 -1683 0
-1044 -1685 0
-1046 -1686 0
-1047 -1687 0
-1048 -1689 0
-1049 -1690 0
-1050 -1691 0
-1044 -1700 0
-1045 -1701 0
-1046 -1702 0
-1048 -1703 0
-1049 -1705 0
-1050 -1706 0
-1044 -1729 0
-1045 -1730 0
-1046 -1731 0
-1048 -1733 0
-1049 -1734 0
-1050 -1735 0
-1045 -1751 0
-1046 -1752 0
-1048 -1753 0
-1049 -1755 0
-1050 -1756 0
-1045 -1757 0
-1047 -1758 0
-1048 -1760 0
-1049 -1762 0
-1050 -1763 0
-1044 -1765 0
-1047 -1766 0
-1048 -1768 0
-1049 -1770 0
-1050 -1771 0
-1044 -1781 0
-1046 -1782 0
-1047 -1783 0
-1048 -1784 0
-1049 -1786 0
-1050 -1787 0
-1044 -1790 0
-1048 -1792 0
-1049 -1793 0
-1050 -1794 0
-1044 -1796 0
-1046 -1797 0
-1047 -1798 0
-1049 -1800 0
-1050 -1801 0
-1044 -1818 0
-1046 -1819 0
-1047 -1820 0
-1049 -1822 0
-1050 -1823 0
-1044 -1825 0
-1046 -1826 0
-1048 -1828 0
-1049 -1830 0
-1050 -1831 0
-1047 -1840 0
-1049 -1843 0
-1050 -1844 0
-1046 -1846 0
-1048 -1848 0
-1049 -1850 0
-1050 -1851 0
-1048 -1866 0
-1049 -1868 0
-1050 -1869 0
-1046 -1870 0
-1047 -1871 0
-1048 -1873 0
-1049 -1875 0
-1050 -1876 0
-1044 -1890 0
-1046 -1891 0
-1047 -1892 0
-1048 -1893 0
-1049 -1895 0
-1050 -1896 0
-1044 -1897 0
-1046 -1898 0
-1049 -1901 0
-1050 -1902 0
-1044 -1931 0
-1045 -1932 0
-1047 -1933 0
-1049 -1935 0
-1050 -1936 0
-1044 -1945 0
-1048 -1946 0
-1049 -1948 0
-1050 -1949 0
-1044 -1958 0
-1046 -1959 0
-1048 -1961 0
-1049 -1963 0
-1050 -1964 0
-1044 -1966 0
-1047 -1967 0
-1048 -1968 0
-1049 -1970 0
-1050 -1971 0
-1044 -1972 0
-1046 -1973 0
-1049 -1976 0
-1050 -1977 0
-1046 -1991 0
-1047 -1992 0
-1048 -1994 0
-1049 -1996 0
-1050 -1997 0
-1052 -1091 0
-1057 -1093 0
-1058 -1094 0
-1059 -1095 0
-1051 -1104 0
-1054 -1106 0
-1056 -1108 0
-1057 -1109 0
-1058 -1110 0
-1059 -1111 0
-1051 -1122 0
-1052 -1123 0
-1056 -1125 0
-1058 -1126 0
-1059 -1127 0
-1051 -1147 0
-1054 -1148 0
-1056 -1149 0
-1057 -1150 0
-1058 -1151 0
-1059 -1152 0
-1051 -1159 0
-1053 -1161 0
-1057 -1162 0
-1058 -1163 0
-1059 -1164 0
-1051 -1165 0
-1052 -1166 0
-1053 -1167 0
-1054 -1168 0
-1058 -1170 0
-1059 -1171 0
-1051 -1179 0
-1053 -1180 0
-1056 -1182 0
-1058 -1183 0
-1059 -1184 0
-1054 -1192 0
-1055 -1194 0
-1057 -1195 0
-1058 -1196 0
-1059 -1197 0
-1053 -1226 0
-1055 -1228 0
-1056 -1229 0
-1057 -1230 0
-1058 -1231 0
-1059 -1232 0
-1051 -1261 0
-1052 -1263 0
-1055 -1264 0
-1056 -1265 0
-1058 -1266 0
-1059 -1267 0
-1051 -1275 0
-1054 -1277 0
-1055 -1278 0
-1058 -1279 0
-1059 -1280 0
-1051 -1287 0
-1052 -1288 0
-1055 -1290 0
-1057 -1291 0
-1058 -1292 0
-1059 -1293 0
-1051 -1345 0
-1054 -1346 0
-1055 -1348 0
-1056 -1349 0
-1058 -1350 0
-1059 -1351 0
-1052 -1361 0
-1055 -1363 0
-1057 -1364 0
-1058 -1365 0
-1059 -1366 0
-1054 -1375 0
-1055 -1376 0
-1056 -1377 0
-1058 -1378 0
-1059 -1379 0
-1053 -1387 0
-1055 -1388 0
-1056 -1389 0
-1058 -1390 0
-1059 -1391 0
-1052 -1392 0
-1053 -1393 0
-1054 -1394 0
-1055 -1396 0
-1056 -1397 0
-1057 -1398 0
-1058 -1399 0
-1059 -1400 0
-1051 -1408 0
-1053 -1409 0
-1055 -1411 0
-1057 -1412 0
-1058 -1413 0
-1059 -1414 0
-1052 -1437 0
-1056 -1438 0
-1057 -1439 0
-1058 -1440 0
-1059 -1441 0
-1051 -1450 0
-1052 -1451 0
-1056 -1453 0
-1057 -1454 0
-1058 -1455 0
-1059 -1456 0
-1054 -1471 0
-1055 -1473 0
-1056 -1474 0
-1057 -1475 0
-1058 -1476 0
-1059 -1477 0
-1055 -1480 0
-1057 -1481 0
-1058 -1482 0
-1059 -1483 0
-1052 -1485 0
-1054 -1486 0
-1055 -1488 0
-1058 -1489 0
-1059 -1490 0
-1051 -1499 0
-1055 -1502 0
-1056 -1503 0
-1058 -1504 0
-1059 -1505 0
-1051 -1512 0
-1054 -1513 0
-1055 -1515 0
-1056 -1516 0
-1058 -1517 0
-1059 -1518 0
-1052 -1544 0
-1053 -1545 0
-1056 -1546 0
-1058 -1547 0
-1059 -1548 0
-1053 -1550 0
-1054 -1551 0
-1057 -1553 0
-1058 -1554 0
-1059 -1555 0
-1052 -1563 0
-1053 -1564 0
-1054 -1565 0
-1056 -1567 0
-1058 -1568 0
-1059 -1569 0
-1052 -1577 0
-1055 -1578 0
-1056 -1579 0
-1057 -1580 0
-1058 -1581 0
-1059 -1582 0
-1052 -1591 0
-1054 -1592 0
-1055 -1594 0
-1056 -1595 0
-1058 -1596 0
-1059 -1597 0
-1052 -1606 0
-1053 -1607 0
-1055 -1609 0
-1058 -1610 0
-1059 -1611 0
-1052 -1612 0
-1053 -1613 0
-1054 -1614 0
-1055 -1616 0
-1057 -1617 0
-1058 -1618 0
-1059 -1619 0
-1051 -1627 0
-1052 -1628 0
-1053 -1629 0
-1055 -1631 0
-1056 -1632 0
-1057 -1633 0
-1058 -1634 0
-1059 -1635 0
-1053 -1656 0
-1054 -1657 0
-1055 -1659 0
-1058 -1660 0
-1059 -1661 0
-1054 -1664 0
-1056 -1666 0
-1057 -1667 0
-1058 -1668 0
-1059 -1669 0
-1052 -1678 0
-1054 -1679 0
-1056 -1680 0
-1057 -1681 0
-1058 -1682 0
-1059 -1683 0
-1051 -1693 0
-1054 -1694 0
-1056 -1695 0
-1057 -1696 0
-1058 -1697 0
-1059 -1698 0
-1052 -1700 0
-1053 -1701 0
-1054 -1702 0
-1056 -1703 0
-1057 -1704 0
-1058 -1705 0
-1059 -1706 0
-1051 -1736 0
-1053 -1737 0
-1054 -1738 0
-1056 -1740 0
-1057 -1741 0
-1058 -1742 0
-1059 -1743 0
-1053 -1757 0
-1055 -1759 0
-1056 -1760 0
-1057 -1761 0
-1058 -1762 0
-1059 -1763 0
-1052 -1765 0
-1055 -1767 0
-1056 -1768 0
-1057 -1769 0
-1058 -1770 0
-1059 -1771 0
-1052 -1773 0
-1054 -1774 0
-1055 -1775 0
-1056 -1776 0
-1058 -1777 0
-1059 -1778 0
-1051 -1788 0
-1052 -1790 0
-1055 -1791 0
-1056 -1792 0
-1058 -1793 0
-1059 -1794 0
-1051 -1802 0
-1054 -1804 0
-1055 -1806 0
-1057 -1807 0
-1058 -1808 0
-1059 -1809 0
-1051 -1817 0
-1052 -1818 0
-1054 -1819 0
-1055 -1821 0
-1058 -1822 0
-1059 -1823 0
-1051 -1832 0
-1054 -1833 0
-1055 -1835 0
-1056 -1836 0
-1058 -1837 0
-1059 -1838 0
-1054 -1846 0
-1055 -1847 0
-1056 -1848 0
-1057 -1849 0
-1058 -1850 0
-1059 -1851 0
-1052 -1858 0
-1055 -1860 0
-1056 -1861 0
-1058 -1862 0
-1059 -1863 0
-1054 -1870 0
-1055 -1872 0
-1056 -1873 0
-1057 -1874 0
-1058 -1875 0
-1059 -1876 0
-1053 -1878 0
-1054 -1879 0
-1055 -1881 0
-1058 -1882 0
-1059 -1883 0
-1052 -1890 0
-1054 -1891 0
-1056 -1893 0
-1057 -1894 0
-1058 -1895 0
-1059 -1896 0
-1054 -1904 0
-1055 -1905 0
-1056 -1906 0
-1057 -1907 0
-1058 -1908 0
-1059 -1909 0
-1052 -1931 0
-1053 -1932 0
-1057 -1934 0
-1058 -1935 0
-1059 -1936 0
-1052 -1938 0
-1055 -1940 0
-1056 -1941 0
-1058 -1942 0
-1059 -1943 0
-1052 -1945 0
-1056 -1946 0
-1057 -1947 0
-1058 -1948 0
-1059 -1949 0
-1052 -1950 0
-1054 -1951 0
-1056 -1953 0
-1057 -1954 0
-1058 -1955 0
-1059 -1956 0
-1051 -1965 0
-1052 -1966 0
-1056 -1968 0
-1057 -1969 0
-1058 -1970 0
-1059 -1971 0
-1051 -1978 0
-1054 -1979 0
-1057 -1981 0
-1058 -1982 0
-1059 -1983 0
-1054 -1991 0
-1055 -1993 0
-1056 -1994 0
-1057 -1995 0
-1058 -1996 0
-1059 -1997 0
-1061 -1091 0
-1064 -1092 0
-1065 -1094 0
-1066 -1095 0
-1060 -1097 0
-1065 -1101 0
-1066 -1102 0
-1060 -1113 0
-1061 -1114 0
-1063 -1115 0
-1064 -1116 0
-1065 -1119 0
-1066 -1120 0
-1060 -1154 0
-1064 -1155 0
-1065 -1157 0
-1066 -1158 0
-1060 -1159 0
-1062 -1161 0
-1065 -1163 0
-1066 -1164 0
-1060 -1165 0
-1061 -1166 0
-1062 -1167 0
-1063 -1168 0
-1064 -1169 0
-1065 -1170 0
-1066 -1171 0
-1060 -1172 0
-1062 -1173 0
-1063 -1174 0
-1065 -1177 0
-1066 -1178 0
-1064 -1186 0
-1065 -1189 0
-1066 -1190 0
-1062 -1226 0
-1064 -1227 0
-1065 -1231 0
-1066 -1232 0
-1060 -1261 0
-1061 -1263 0
-1065 -1266 0
-1066 -1267 0
-1060 -1268 0
-1064 -1270 0
-1065 -1273 0
-1066 -1274 0
-1060 -1281 0
-1061 -1282 0
-1063 -1283 0
-1065 -1285 0
-1066 -1286 0
-1060 -1339 0
-1065 -1343 0
-1066 -1344 0
-1061 -1353 0
-1063 -1354 0
-1064 -1355 0
-1065 -1358 0
-1066 -1359 0
-1064 -1381 0
-1065 -1384 0
-1066 -1385 0
-1062 -1387 0
-1065 -1390 0
-1066 -1391 0
-1061 -1392 0
-1062 -1393 0
-1063 -1394 0
-1064 -1395 0
-1065 -1399 0
-1066 -1400 0
-1060 -1401 0
-1062 -1402 0
-1063 -1403 0
-1065 -1406 0
-1066 -1407 0
-1061 -1437 0
-1065 -1440 0
-1066 -1441 0
-1060 -1442 0
-1061 -1443 0
-1063 -1444 0
-1065 -1448 0
-1066 -1449 0
-1064 -1479 0
-1065 -1482 0
-1066 -1483 0
-1061 -1485 0
-1063 -1486 0
-1064 -1487 0
-1065 -1489 0
-1066 -1490 0
-1060 -1491 0
-1063 -1493 0
-1064 -1494 0
-1065 -1497 0
-1066 -1498 0
-1060 -1519 0
-1063 -1520 0
-1064 -1521 0
-1065 -1523 0
-1066 -1524 0
-1063 -1525 0
-1064 -1526 0
-1065 -1530 0
-1066 -1531 0
-1061 -1534 0
-1062 -1535 0
-1063 -1536 0
-1064 -1537 0
-1065 -1541 0
-1066 -1542 0
-1062 -1557 0
-1064 -1558 0
-1065 -1561 0
-1066 -1562 0
-1061 -1563 0
-1062 -1564 0
-1063 -1565 0
-1064 -1566 0
-1065 -1568 0
-1066 -1569 0
-1061 -1571 0
-1063 -1572 0
-1064 -1573 0
-1065 -1574 0
-1066 -1575 0
-1061 -1599 0
-1064 -1600 0
-1065 -1603 0
-1066 -1604 0
-1061 -1606 0
-1062 -1607 0
-1064 -1608 0
-1065 -1610 0
-1066 -1611 0
-1061 -1612 0
-1062 -1613 0
-1063 -1614 0
-1064 -1615 0
-1065 -1618 0
-1066 -1619 0
-1060 -1620 0
-1061 -1621 0
-1062 -1622 0
-1063 -1623 0
-1064 -1624 0
-1065 -1625 0
-1066 -1626 0
-1062 -1649 0
-1064 -1650 0
-1065 -1654 0
-1066 -1655 0
-1065 -1675 0
-1066 -1676 0
-1061 -1685 0
-1063 -1686 0
-1064 -1687 0
-1065 -1690 0
-1066 -1691 0
-1060 -1693 0
-1063 -1694 0
-1065 -1697 0
-1066 -1698 0
-1061 -1700 0
-1062 -1701 0
-1063 -1702 0
-1065 -1705 0
-1066 -1706 0
-1060 -1744 0
-1062 -1745 0
-1063 -1746 0
-1065 -1749 0
-1066 -1750 0
-1062 -1751 0
-1063 -1752 0
-1065 -1755 0
-1066 -1756 0
-1061 -1765 0
-1064 -1766 0
-1065 -1770 0
-1066 -1771 0
-1061 -1773 0
-1063 -1774 0
-1065 -1777 0
-1066 -1778 0
-1060 -1779 0
-1061 -1781 0
-1063 -1782 0
-1064 -1783 0
-1065 -1786 0
-1066 -1787 0
-1060 -1810 0
-1064 -1812 0
-1065 -1815 0
-1066 -1816 0
-1060 -1824 0
-1061 -1825 0
-1063 -1826 0
-1065 -1830 0
-1066 -1831 0
-1060 -1832 0
-1063 -1833 0
-1064 -1834 0
-1065 -1837 0
-1066 -1838 0
-1064 -1840 0
-1065 -1843 0
-1066 -1844 0
-1061 -1852 0
-1063 -1853 0
-1065 -1856 0
-1066 -1857 0
-1062 -1884 0
-1063 -1885 0
-1065 -1888 0
-1066 -1889 0
-1061 -1897 0
-1063 -1898 0
-1065 -1901 0
-1066 -1902 0
-1063 -1911 0
-1064 -1912 0
-1065 -1914 0
-1066 -1915 0
-1061 -1931 0
-1062 -1932 0
-1064 -1933 0
-1065 -1935 0
-1066 -1936 0
-1061 -1938 0
-1064 -1939 0
-1065 -1942 0
-1066 -1943 0
-1061 -1945 0
-1065 -1948 0
-1066 -1949 0
-1061 -1950 0
-1063 -1951 0
-1064 -1952 0
-1065 -1955 0
-1066 -1956 0
-1060 -1957 0
-1061 -1958 0
-1063 -1959 0
-1065 -1963 0
-1066 -1964 0
-1060 -1984 0
-1065 -1988 0
-1066 -1989 0
-1070 -1099 0
-1072 -1101 0
-1073 -1102 0
-1069 -1106 0
-1071 -1108 0
-1072 -1110 0
-1073 -1111 0
-1067 -1114 0
-1069 -1115 0
-1070 -1117 0
-1072 -1119 0
-1073 -1120 0
-1067 -1123 0
-1071 -1125 0
-1072 -1126 0
-1073 -1127 0
-1067 -1138 0
-1068 -1139 0
-1070 -1141 0
-1071 -1142 0
-1072 -1144 0
-1073 -1145 0
-1068 -1173 0
-1069 -1174 0
-1070 -1175 0
-1072 -1177 0
-1073 -1178 0
-1068 -1180 0
-1071 -1182 0
-1072 -1183 0
-1073 -1184 0
-1068 -1212 0
-1070 -1214 0
-1072 -1216 0
-1073 -1217 0
-1068 -1219 0
-1069 -1220 0
-1071 -1222 0
-1072 -1224 0
-1073 -1225 0
-1067 -1248 0
-1070 -1249 0
-1072 -1251 0
-1073 -1252 0
-1067 -1255 0
-1069 -1256 0
-1071 -1258 0
-1072 -1259 0
-1073 -1260 0
-1069 -1334 0
-1072 -1337 0
-1073 -1338 0
-1067 -1353 0
-1069 -1354 0
-1070 -1356 0
-1071 -1357 0
-1072 -1358 0
-1073 -1359 0
-1067 -1361 0
-1070 -1363 0
-1072 -1365 0
-1073 -1366 0
-1067 -1368 0
-1068 -1369 0
-1070 -1371 0
-1072 -1372 0
-1073 -1373 0
-1068 -1402 0
-1069 -1403 0
-1070 -1404 0
-1071 -1405 0
-1072 -1406 0
-1073 -1407 0
-1068 -1409 0
-1070 -1411 0
-1072 -1413 0
-1073 -1414 0
-1068 -1415 0
-1070 -1417 0
-1071 -1418 0
-1072 -1420 0
-1073 -1421 0
-1068 -1422 0
-1069 -1423 0
-1070 -1425 0
-1072 -1426 0
-1073 -1427 0
-1070 -1480 0
-1072 -1482 0
-1073 -1483 0
-1067 -1485 0
-1069 -1486 0
-1070 -1488 0
-1072 -1489 0
-1073 -1490 0
-1069 -1513 0
-1070 -1515 0
-1071 -1516 0
-1072 -1517 0
-1073 -1518 0
-1069 -1520 0
-1072 -1523 0
-1073 -1524 0
-1069 -1525 0
-1070 -1527 0
-1071 -1528 0
-1072 -1530 0
-1073 -1531 0
-1068 -1550 0
-1069 -1551 0
-1072 -1554 0
-1073 -1555 0
-1068 -1557 0
-1070 -1559 0
-1071 -1560 0
-1072 -1561 0
-1073 -1562 0
-1067 -1563 0
-1068 -1564 0
-1069 -1565 0
-1071 -1567 0
-1072 -1568 0
-1073 -1569 0
-1067 -1571 0
-1069 -1572 0
-1072 -1574 0
-1073 -1575 0
-1067 -1577 0
-1070 -1578 0
-1071 -1579 0
-1072 -1581 0
-1073 -1582 0
-1067 -1584 0
-1068 -1585 0
-1071 -1587 0
-1072 -1588 0
-1073 -1589 0
-1067 -1621 0
-1068 -1622 0
-1069 -1623 0
-1072 -1625 0
-1073 -1626 0
-1067 -1628 0
-1068 -1629 0
-1070 -1631 0
-1071 -1632 0
-1072 -1634 0
-1073 -1635 0
-1067 -1636 0
-1068 -1637 0
-1072 -1640 0
-1073 -1641 0
-1067 -1642 0
-1068 -1643 0
-1069 -1644 0
-1070 -1645 0
-1071 -1646 0
-1072 -1647 0
-1073 -1648 0
-1069 -1708 0
-1070 -1710 0
-1072 -1712 0
-1073 -1713 0
-1069 -1715 0
-1070 -1716 0
-1071 -1717 0
-1072 -1718 0
-1073 -1719 0
-1068 -1721 0
-1069 -1722 0
-1070 -1724 0
-1071 -1725 0
-1072 -1727 0
-1073 -1728 0
-1067 -1729 0
-1068 -1730 0
-1069 -1731 0
-1070 -1732 0
-1071 -1733 0
-1072 -1734 0
-1073 -1735 0
-1067 -1765 0
-1070 -1767 0
-1071 -1768 0
-1072 -1770 0
-1073 -1771 0
-1067 -1773 0
-1069 -1774 0
-1070 -1775 0
-1071 -1776 0
-1072 -1777 0
-1073 -1778 0
-1069 -1804 0
-1070 -1806 0
-1072 -1808 0
-1073 -1809 0
-1070 -1813 0
-1071 -1814 0
-1072 -1815 0
-1073 -1816 0
-1067 -1818 0
-1069 -1819 0
-1070 -1821 0
-1072 -1822 0
-1073 -1823 0
-1067 -1825 0
-1069 -1826 0
-1070 -1827 0
-1071 -1828 0
-1072 -1830 0
-1073 -1831 0
-1070 -1841 0
-1072 -1843 0
-1073 -1844 0
-1069 -1846 0
-1070 -1847 0
-1071 -1848 0
-1072 -1850 0
-1073 -1851 0
-1067 -1852 0
-1069 -1853 0
-1070 -1854 0
-1072 -1856 0
-1073 -1857 0
-1067 -1858 0
-1070 -1860 0
-1071 -1861 0
-1072 -1862 0
-1073 -1863 0
-1067 -1890 0
-1069 -1891 0
-1071 -1893 0
-1072 -1895 0
-1073 -1896 0
-1067 -1897 0
-1069 -1898 0
-1070 -1899 0
-1072 -1901 0
-1073 -1902 0
-1067 -1924 0
-1068 -1925 0
-1070 -1926 0
-1071 -1927 0
-1072 -1929 0
-1073 -1930 0
-1067 -1945 0
-1071 -1946 0
-1072 -1948 0
-1073 -1949 0
-1067 -1950 0
-1069 -1951 0
-1071 -1953 0
-1072 -1955 0
-1073 -1956 0
-1069 -1979 0
-1072 -1982 0
-1073 -1983 0
-1070 -1985 0
-1071 -1986 0
-1072 -1988 0
-1073 -1989 0
-1069 -1991 0
-1070 -1993 0
-1071 -1994 0
-1072 -1996 0
-1073 -1997 0
-1077 -1092 0
-1079 -1093 0
-1080 -1094 0
-1081 -1095 0
-1074 -1104 0
-1076 -1106 0
-1077 -1107 0
-1078 -1108 0
-1079 -1109 0
-1080 -1110 0
-1081 -1111 0
-1074 -1113 0
-1076 -1115 0
-1077 -1116 0
-1079 -1118 0
-1080 -1119 0
-1081 -1120 0
-1074 -1129 0
-1077 -1130 0
-1078 -1132 0
-1079 -1133 0
-1080 -1134 0
-1081 -1135 0
-1074 -1136 0
-1075 -1139 0
-1077 -1140 0
-1078 -1142 0
-1079 -1143 0
-1080 -1144 0
-1081 -1145 0
-1074 -1154 0
-1077 -1155 0
-1080 -1157 0
-1081 -1158 0
-1074 -1165 0
-1075 -1167 0
-1076 -1168 0
-1077 -1169 0
-1080 -1170 0
-1081 -1171 0
-1074 -1179 0
-1075 -1180 0
-1077 -1181 0
-1078 -1182 0
-1080 -1183 0
-1081 -1184 0
-1076 -1192 0
-1077 -1193 0
-1079 -1195 0
-1080 -1196 0
-1081 -1197 0
-1075 -1206 0
-1077 -1207 0
-1079 -1208 0
-1080 -1209 0
-1081 -1210 0
-1074 -1218 0
-1075 -1219 0
-1076 -1220 0
-1077 -1221 0
-1078 -1222 0
-1079 -1223 0
-1080 -1224 0
-1081 -1225 0
-1074 -1240 0
-1077 -1243 0
-1080 -1244 0
-1081 -1245 0
-1074 -1253 0
-1076 -1256 0
-1077 -1257 0
-1078 -1258 0
-1080 -1259 0
-1081 -1260 0
-1074 -1287 0
-1077 -1289 0
-1079 -1291 0
-1080 -1292 0
-1081 -1293 0
-1074 -1326 0
-1076 -1328 0
-1077 -1329 0
-1080 -1331 0
-1081 -1332 0
-1076 -1354 0
-1077 -1355 0
-1078 -1357 0
-1080 -1358 0
-1081 -1359 0
-1075 -1369 0
-1077 -1370 0
-1080 -1372 0
-1081 -1373 0
-1077 -1381 0
-1078 -1382 0
-1079 -1383 0
-1080 -1384 0
-1081 -1385 0
-1075 -1393 0
-1076 -1394 0
-1077 -1395 0
-1078 -1397 0
-1079 -1398 0
-1080 -1399 0
-1081 -1400 0
-1074 -1408 0
-1075 -1409 0
-1077 -1410 0
-1079 -1412 0
-1080 -1413 0
-1081 -1414 0
-1075 -1422 0
-1076 -1423 0
-1077 -1424 0
-1080 -1426 0
-1081 -1427 0
-1077 -1430 0
-1078 -1432 0
-1079 -1433 0
-1080 -1434 0
-1081 -1435 0
-1074 -1450 0
-1077 -1452 0
-1078 -1453 0
-1079 -1454 0
-1080 -1455 0
-1081 -1456 0
-1076 -1464 0
-1077 -1465 0
-1078 -1466 0
-1079 -1467 0
-1080 -1468 0
-1081 -1469 0
-1077 -1479 0
-1079 -1481 0
-1080 -1482 0
-1081 -1483 0
-1074 -1491 0
-1076 -1493 0
-1077 -1494 0
-1079 -1496 0
-1080 -1497 0
-1081 -1498 0
-1076 -1507 0
-1077 -1508 0
-1078 -1509 0
-1080 -1510 0
-1081 -1511 0
-1074 -1512 0
-1076 -1513 0
-1077 -1514 0
-1078 -1516 0
-1080 -1517 0
-1081 -1518 0
-1076 -1525 0
-1077 -1526 0
-1078 -1528 0
-1079 -1529 0
-1080 -1530 0
-1081 -1531 0
-1075 -1535 0
-1076 -1536 0
-1077 -1537 0
-1078 -1539 0
-1079 -1540 0
-1080 -1541 0
-1081 -1542 0
-1075 -1557 0
-1077 -1558 0
-1078 -1560 0
-1080 -1561 0
-1081 -1562 0
-1075 -1564 0
-1076 -1565 0
-1077 -1566 0
-1078 -1567 0
-1080 -1568 0
-1081 -1569 0
-1076 -1572 0
-1077 -1573 0
-1080 -1574 0
-1081 -1575 0
-1075 -1585 0
-1077 -1586 0
-1078 -1587 0
-1080 -1588 0
-1081 -1589 0
-1077 -1600 0
-1079 -1602 0
-1080 -1603 0
-1081 -1604 0
-1075 -1613 0
-1076 -1614 0
-1077 -1615 0
-1079 -1617 0
-1080 -1618 0
-1081 -1619 0
-1074 -1627 0
-1075 -1629 0
-1077 -1630 0
-1078 -1632 0
-1079 -1633 0
-1080 -1634 0
-1081 -1635 0
-1075 -1643 0
-1076 -1644 0
-1078 -1646 0
-1080 -1647 0
-1081 -1648 0
-1076 -1664 0
-1077 -1665 0
-1078 -1666 0
-1079 -1667 0
-1080 -1668 0
-1081 -1669 0
-1076 -1708 0
-1077 -1709 0
-1079 -1711 0
-1080 -1712 0
-1081 -1713 0
-1075 -1721 0
-1076 -1722 0
-1077 -1723 0
-1078 -1725 0
-1079 -1726 0
-1080 -1727 0
-1081 -1728 0
-1074 -1736 0
-1075 -1737 0
-1076 -1738 0
-1077 -1739 0
-1078 -1740 0
-1079 -1741 0
-1080 -1742 0
-1081 -1743 0
-1075 -1751 0
-1076 -1752 0
-1078 -1753 0
-1079 -1754 0
-1080 -1755 0
-1081 -1756 0
-1077 -1766 0
-1078 -1768 0
-1079 -1769 0
-1080 -1770 0
-1081 -1771 0
-1074 -1779 0
-1076 -1782 0
-1077 -1783 0
-1078 -1784 0
-1079 -1785 0
-1080 -1786 0
-1081 -1787 0
-1076 -1797 0
-1077 -1798 0
-1080 -1800 0
-1081 -1801 0
-1074 -1810 0
-1077 -1812 0
-1078 -1814 0
-1080 -1815 0
-1081 -1816 0
-1074 -1817 0
-1076 -1819 0
-1077 -1820 0
-1080 -1822 0
-1081 -1823 0
-1074 -1832 0
-1076 -1833 0
-1077 -1834 0
-1078 -1836 0
-1080 -1837 0
-1081 -1838 0
-1076 -1846 0
-1078 -1848 0
-1079 -1849 0
-1080 -1850 0
-1081 -1851 0
-1076 -1853 0
-1079 -1855 0
-1080 -1856 0
-1081 -1857 0
-1074 -1864 0
-1078 -1866 0
-1079 -1867 0
-1080 -1868 0
-1081 -1869 0
-1075 -1878 0
-1076 -1879 0
-1077 -1880 0
-1080 -1882 0
-1081 -1883 0
-1076 -1891 0
-1077 -1892 0
-1078 -1893 0
-1079 -1894 0
-1080 -1895 0
-1081 -1896 0
-1075 -1925 0
-1078 -1927 0
-1079 -1928 0
-1080 -1929 0
-1081 -1930 0
-1078 -1946 0
-1079 -1947 0
-1080 -1948 0
-1081 -1949 0
-1074 -1957 0
-1076 -1959 0
-1078 -1961 0
-1079 -1962 0
-1080 -1963 0
-1081 -1964 0
-1076 -1973 0
-1079 -1975 0
-1080 -1976 0
-1081 -1977 0
-1074 -1984 0
-1078 -1986 0
-1079 -1987 0
-1080 -1988 0
-1081 -1989 0
-1076 -1991 0
-1077 -1992 0
-1078 -1994 0
-1079 -1995 0
-1080 -1996 0
-1081 -1997 0
-1087 -1094 0
-1088 -1095 0
-1082 -1097 0
-1085 -1099 0
-1087 -1101 0
-1088 -1102 0
-1082 -1122 0
-1086 -1125 0
-1087 -1126 0
-1088 -1127 0
-1082 -1129 0
-1085 -1131 0
-1086 -1132 0
-1087 -1134 0
-1088 -1135 0
-1082 -1136 0
-1083 -1139 0
-1085 -1141 0
-1086 -1142 0
-1087 -1144 0
-1088 -1145 0
-1082 -1147 0
-1084 -1148 0
-1086 -1149 0
-1087 -1151 0
-1088 -1152 0
-1082 -1165 0
-1083 -1167 0
-1084 -1168 0
-1087 -1170 0
-1088 -1171 0
-1082 -1172 0
-1083 -1173 0
-1084 -1174 0
-1085 -1175 0
-1087 -1177 0
-1088 -1178 0
-1086 -1187 0
-1087 -1189 0
-1088 -1190 0
-1083 -1206 0
-1087 -1209 0
-1088 -1210 0
-1082 -1211 0
-1083 -1212 0
-1085 -1214 0
-1087 -1216 0
-1088 -1217 0
-1082 -1240 0
-1087 -1244 0
-1088 -1245 0
-1082 -1246 0
-1085 -1249 0
-1087 -1251 0
-1088 -1252 0
-1082 -1281 0
-1084 -1283 0
-1086 -1284 0
-1087 -1285 0
-1088 -1286 0
-1082 -1319 0
-1086 -1322 0
-1087 -1324 0
-1088 -1325 0
-1085 -1363 0
-1087 -1365 0
-1088 -1366 0
-1083 -1369 0
-1085 -1371 0
-1087 -1372 0
-1088 -1373 0
-1084 -1375 0
-1085 -1376 0
-1086 -1377 0
-1087 -1378 0
-1088 -1379 0
-1083 -1393 0
-1084 -1394 0
-1085 -1396 0
-1086 -1397 0
-1087 -1399 0
-1088 -1400 0
-1082 -1401 0
-1083 -1402 0
-1084 -1403 0
-1085 -1404 0
-1086 -1405 0
-1087 -1406 0
-1088 -1407 0
-1083 -1415 0
-1085 -1417 0
-1086 -1418 0
-1087 -1420 0
-1088 -1421 0
-1085 -1431 0
-1086 -1432 0
-1087 -1434 0
-1088 -1435 0
-1082 -1442 0
-1084 -1444 0
-1085 -1445 0
-1086 -1446 0
-1087 -1448 0
-1088 -1449 0
-1085 -1459 0
-1086 -1460 0
-1087 -1461 0
-1088 -1462 0
-1085 -1480 0
-1087 -1482 0
-1088 -1483 0
-1082 -1499 0
-1085 -1502 0
-1086 -1503 0
-1087 -1504 0
-1088 -1505 0
-1084 -1507 0
-1086 -1509 0
-1087 -1510 0
-1088 -1511 0
-1082 -1519 0
-1084 -1520 0
-1087 -1523 0
-1088 -1524 0
-1083 -1545 0
-1086 -1546 0
-1087 -1547 0
-1088 -1548 0
-1083 -1550 0
-1084 -1551 0
-1087 -1554 0
-1088 -1555 0
-1083 -1564 0
-1084 -1565 0
-1086 -1567 0
-1087 -1568 0
-1088 -1569 0
-1085 -1578 0
-1086 -1579 0
-1087 -1581 0
-1088 -1582 0
-1083 -1585 0
-1086 -1587 0
-1087 -1588 0
-1088 -1589 0
-1084 -1592 0
-1085 -1594 0
-1086 -1595 0
-1087 -1596 0
-1088 -1597 0
-1083 -1613 0
-1084 -1614 0
-1085 -1616 0
-1087 -1618 0
-1088 -1619 0
-1082 -1620 0
-1083 -1622 0
-1084 -1623 0
-1087 -1625 0
-1088 -1626 0
-1083 -1637 0
-1087 -1640 0
-1088 -1641 0
-1085 -1672 0
-1086 -1673 0
-1087 -1675 0
-1088 -1676 0
-1084 -1715 0
-1085 -1716 0
-1086 -1717 0
-1087 -1718 0
-1088 -1719 0
-1083 -1721 0
-1084 -1722 0
-1085 -1724 0
-1086 -1725 0
-1087 -1727 0
-1088 -1728 0
-1082 -1744 0
-1083 -1745 0
-1084 -1746 0
-1085 -1747 0
-1086 -1748 0
-1087 -1749 0
-1088 -1750 0
-1083 -1757 0
-1085 -1759 0
-1086 -1760 0
-1087 -1762 0
-1088 -1763 0
-1085 -1767 0
-1086 -1768 0
-1087 -1770 0
-1088 -1771 0
-1082 -1788 0
-1085 -1791 0
-1086 -1792 0
-1087 -1793 0
-1088 -1794 0
-1084 -1797 0
-1085 -1799 0
-1087 -1800 0
-1088 -1801 0
-1082 -1802 0
-1084 -1804 0
-1085 -1806 0
-1087 -1808 0
-1088 -1809 0
-1082 -1824 0
-1084 -1826 0
-1085 -1827 0
-1086 -1828 0
-1087 -1830 0
-1088 -1831 0
-1082 -1832 0
-1084 -1833 0
-1085 -1835 0
-1086 -1836 0
-1087 -1837 0
-1088 -1838 0
-1085 -1841 0
-1087 -1843 0
-1088 -1844 0
-1085 -1860 0
-1086 -1861 0
-1087 -1862 0
-1088 -1863 0
-1082 -1864 0
-1085 -1865 0
-1086 -1866 0
-1087 -1868 0
-1088 -1869 0
-1084 -1870 0
-1085 -1872 0
-1086 -1873 0
-1087 -1875 0
-1088 -1876 0
-1083 -1884 0
-1084 -1885 0
-1086 -1886 0
-1087 -1888 0
-1088 -1889 0
-1084 -1898 0
-1085 -1899 0
-1087 -1901 0
-1088 -1902 0
-1083 -1925 0
-1085 -1926 0
-1086 -1927 0
-1087 -1929 0
-1088 -1930 0
-1086 -1946 0
-1087 -1948 0
-1088 -1949 0
-1082 -1965 0
-1086 -1968 0
-1087 -1970 0
-1088 -1971 0
-1084 -1973 0
-1085 -1974 0
-1087 -1976 0
-1088 -1977 0
-1082 -1978 0
-1084 -1979 0
-1087 -1982 0
-1088 -1983 0
-1092 -1335 0
-1093 -1336 0
-1094 -1337 0
-1095 -1338 0
-1094 -1406 0
-1095 -1407 0
-1092 -1410 0
-1093 -1412 0
-1094 -1413 0
-1095 -1414 0
-1092 -1416 0
-1093 -1419 0
-1094 -1420 0
-1095 -1421 0
-1092 -1424 0
-1094 -1426 0
-1095 -1427 0
-1091 -1443 0
-1093 -1447 0
-1094 -1448 0
-1095 -1449 0
-1091 -1451 0
-1092 -1452 0
-1093 -1454 0
-1094 -1455 0
-1095 -1456 0
-1091 -1457 0
-1092 -1458 0
-1094 -1461 0
-1095 -1462 0
-1091 -1463 0
-1092 -1465 0
-1093 -1467 0
-1094 -1468 0
-1095 -1469 0
-1092 -1472 0
-1093 -1475 0
-1094 -1476 0
-1095 -1477 0
-1089 -1533 0
-1091 -1534 0
-1092 -1537 0
-1093 -1540 0
-1094 -1541 0
-1095 -1542 0
-1089 -1543 0
-1091 -1544 0
-1094 -1547 0
-1095 -1548 0
-1089 -1549 0
-1092 -1552 0
-1093 -1553 0
-1094 -1554 0
-1095 -1555 0
-1089 -1556 0
-1092 -1558 0
-1094 -1561 0
-1095 -1562 0
-1091 -1563 0
-1092 -1566 0
-1094 -1568 0
-1095 -1569 0
-1089 -1570 0
-1091 -1571 0
-1092 -1573 0
-1094 -1574 0
-1095 -1575 0
-1089 -1576 0
-1091 -1577 0
-1093 -1580 0
-1094 -1581 0
-1095 -1582 0
-1090 -1583 0
-1091 -1584 0
-1092 -1586 0
-1094 -1588 0
-1095 -1589 0
-1089 -1590 0
-1091 -1591 0
-1092 -1593 0
-1094 -1596 0
-1095 -1597 0
-1089 -1598 0
-1091 -1599 0
-1092 -1600 0
-1093 -1602 0
-1094 -1603 0
-1095 -1604 0
-1090 -1605 0
-1091 -1606 0
-1092 -1608 0
-1094 -1610 0
-1095 -1611 0
-1091 -1612 0
-1092 -1615 0
-1093 -1617 0
-1094 -1618 0
-1095 -1619 0
-1089 -1692 0
-1093 -1696 0
-1094 -1697 0
-1095 -1698 0
-1092 -1739 0
-1093 -1741 0
-1094 -1742 0
-1095 -1743 0
-1094 -1749 0
-1095 -1750 0
-1093 -1754 0
-1094 -1755 0
-1095 -1756 0
-1092 -1758 0
-1093 -1761 0
-1094 -1762 0
-1095 -1763 0
-1090 -1780 0
-1091 -1781 0
-1092 -1783 0
-1093 -1785 0
-1094 -1786 0
-1095 -1787 0
-1090 -1789 0
-1091 -1790 0
-1094 -1793 0
-1095 -1794 0
-1090 -1803 0
-1092 -1805 0
-1093 -1807 0
-1094 -1808 0
-1095 -1809 0
-1090 -1811 0
-1092 -1812 0
-1094 -1815 0
-1095 -1816 0
-1091 -1818 0
-1092 -1820 0
-1094 -1822 0
-1095 -1823 0
-1091 -1825 0
-1093 -1829 0
-1094 -1830 0
-1095 -1831 0
-1090 -1839 0
-1092 -1840 0
-1093 -1842 0
-1094 -1843 0
-1095 -1844 0
-1090 -1845 0
-1093 -1849 0
-1094 -1850 0
-1095 -1851 0
-1091 -1852 0
-1093 -1855 0
-1094 -1856 0
-1095 -1857 0
-1091 -1858 0
-1092 -1859 0
-1094 -1862 0
-1095 -1863 0
-1092 -1871 0
-1093 -1874 0
-1094 -1875 0
-1095 -1876 0
-1090 -1903 0
-1093 -1907 0
-1094 -1908 0
-1095 -1909 0
-1090 -1910 0
-1092 -1912 0
-1094 -1914 0
-1095 -1915 0
-1092 -1918 0
-1093 -1921 0
-1094 -1922 0
-1095 -1923 0
-1097 -1287 0
-1099 -1290 0
-1100 -1291 0
-1101 -1292 0
-1102 -1293 0
-1097 -1326 0
-1099 -1330 0
-1101 -1331 0
-1102 -1332 0
-1097 -1345 0
-1099 -1348 0
-1101 -1350 0
-1102 -1351 0
-1096 -1360 0
-1099 -1363 0
-1100 -1364 0
-1101 -1365 0
-1102 -1366 0
-1096 -1380 0
-1100 -1383 0
-1101 -1384 0
-1102 -1385 0
-1099 -1396 0
-1100 -1398 0
-1101 -1399 0
-1102 -1400 0
-1097 -1408 0
-1099 -1411 0
-1100 -1412 0
-1101 -1413 0
-1102 -1414 0
-1099 -1425 0
-1101 -1426 0
-1102 -1427 0
-1098 -1428 0
-1099 -1431 0
-1100 -1433 0
-1101 -1434 0
-1102 -1435 0
-1098 -1436 0
-1100 -1439 0
-1101 -1440 0
-1102 -1441 0
-1097 -1442 0
-1099 -1445 0
-1100 -1447 0
-1101 -1448 0
-1102 -1449 0
-1099 -1459 0
-1101 -1461 0
-1102 -1462 0
-1097 -1519 0
-1100 -1522 0
-1101 -1523 0
-1102 -1524 0
-1096 -1543 0
-1101 -1547 0
-1102 -1548 0
-1096 -1556 0
-1099 -1559 0
-1101 -1561 0
-1102 -1562 0
-1101 -1568 0
-1102 -1569 0
-1096 -1570 0
-1101 -1574 0
-1102 -1575 0
-1098 -1583 0
-1101 -1588 0
-1102 -1589 0
-1096 -1590 0
-1099 -1594 0
-1101 -1596 0
-1102 -1597 0
-1098 -1605 0
-1099 -1609 0
-1101 -1610 0
-1102 -1611 0
-1097 -1620 0
-1101 -1625 0
-1102 -1626 0
-1100 -1639 0
-1101 -1640 0
-1102 -1641 0
-1099 -1651 0
-1100 -1653 0
-1101 -1654 0
-1102 -1655 0
-1096 -1684 0
-1099 -1688 0
-1101 -1690 0
-1102 -1691 0
-1096 -1714 0
-1099 -1716 0
-1101 -1718 0
-1102 -1719 0
-1099 -1732 0
-1101 -1734 0
-1102 -1735 0
-1097 -1744 0
-1099 -1747 0
-1101 -1749 0
-1102 -1750 0
-1099 -1759 0
-1100 -1761 0
-1101 -1762 0
-1102 -1763 0
-1098 -1772 0
-1099 -1775 0
-1101 -1777 0
-1102 -1778 0
-1097 -1788 0
-1098 -1789 0
-1099 -1791 0
-1101 -1793 0
-1102 -1794 0
-1098 -1795 0
-1099 -1799 0
-1101 -1800 0
-1102 -1801 0
-1097 -1810 0
-1098 -1811 0
-1099 -1813 0
-1101 -1815 0
-1102 -1816 0
-1097 -1817 0
-1099 -1821 0
-1101 -1822 0
-1102 -1823 0
-1097 -1832 0
-1099 -1835 0
-1101 -1837 0
-1102 -1838 0
-1098 -1845 0
-1099 -1847 0
-1100 -1849 0
-1101 -1850 0
-1102 -1851 0
-1099 -1854 0
-1100 -1855 0
-1101 -1856 0
-1102 -1857 0
-1097 -1864 0
-1099 -1865 0
-1100 -1867 0
-1101 -1868 0
-1102 -1869 0
-1099 -1872 0
-1100 -1874 0
-1101 -1875 0
-1102 -1876 0
-1099 -1881 0
-1101 -1882 0
-1102 -1883 0
-1098 -1910 0
-1101 -1914 0
-1102 -1915 0
-1099 -1940 0
-1101 -1942 0
-1102 -1943 0
-1104 -1281 0
-1106 -1283 0
-1108 -1284 0
-1110 -1285 0
-1111 -1286 0
-1104 -1319 0
-1107 -1321 0
-1108 -1322 0
-1109 -1323 0
-1110 -1324 0
-1111 -1325 0
-1104 -1339 0
-1108 -1341 0
-1109 -1342 0
-1110 -1343 0
-1111 -1344 0
-1103 -1352 0
-1106 -1354 0
-1107 -1355 0
-1108 -1357 0
-1110 -1358 0
-1111 -1359 0
-1103 -1374 0
-1106 -1375 0
-1108 -1377 0
-1110 -1378 0
-1111 -1379 0
-1106 -1394 0
-1107 -1395 0
-1108 -1397 0
-1109 -1398 0
-1110 -1399 0
-1111 -1400 0
-1104 -1401 0
-1106 -1403 0
-1108 -1405 0
-1110 -1406 0
-1111 -1407 0
-1107 -1416 0
-1108 -1418 0
-1109 -1419 0
-1110 -1420 0
-1111 -1421 0
-1105 -1428 0
-1107 -1430 0
-1108 -1432 0
-1109 -1433 0
-1110 -1434 0
-1111 -1435 0
-1105 -1436 0
-1108 -1438 0
-1109 -1439 0
-1110 -1440 0
-1111 -1441 0
-1104 -1450 0
-1107 -1452 0
-1108 -1453 0
-1109 -1454 0
-1110 -1455 0
-1111 -1456 0
-1106 -1464 0
-1107 -1465 0
-1108 -1466 0
-1109 -1467 0
-1110 -1468 0
-1111 -1469 0
-1106 -1471 0
-1107 -1472 0
-1108 -1474 0
-1109 -1475 0
-1110 -1476 0
-1111 -1477 0
-1104 -1512 0
-1106 -1513 0
-1107 -1514 0
-1108 -1516 0
-1110 -1517 0
-1111 -1518 0
-1106 -1525 0
-1107 -1526 0
-1108 -1528 0
-1109 -1529 0
-1110 -1530 0
-1111 -1531 0
-1103 -1533 0
-1106 -1536 0
-1107 -1537 0
-1108 -1539 0
-1109 -1540 0
-1110 -1541 0
-1111 -1542 0
-1103 -1549 0
-1106 -1551 0
-1107 -1552 0
-1109 -1553 0
-1110 -1554 0
-1111 -1555 0
-1106 -1565 0
-1107 -1566 0
-1108 -1567 0
-1110 -1568 0
-1111 -1569 0
-1103 -1576 0
-1108 -1579 0
-1109 -1580 0
-1110 -1581 0
-1111 -1582 0
-1105 -1583 0
-1107 -1586 0
-1108 -1587 0
-1110 -1588 0
-1111 -1589 0
-1103 -1598 0
-1107 -1600 0
-1109 -1602 0
-1110 -1603 0
-1111 -1604 0
-1105 -1605 0
-1107 -1608 0
-1110 -1610 0
-1111 -1611 0
-1104 -1627 0
-1107 -1630 0
-1108 -1632 0
-1109 -1633 0
-1110 -1634 0
-1111 -1635 0
-1106 -1644 0
-1108 -1646 0
-1110 -1647 0
-1111 -1648 0
-1106 -1657 0
-1107 -1658 0
-1110 -1660 0
-1111 -1661 0
-1103 -1677 0
-1106 -1679 0
-1108 -1680 0
-1109 -1681 0
-1110 -1682 0
-1111 -1683 0
-1103 -1707 0
-1106 -1708 0
-1107 -1709 0
-1109 -1711 0
-1110 -1712 0
-1111 -1713 0
-1106 -1731 0
-1108 -1733 0
-1110 -1734 0
-1111 -1735 0
-1104 -1736 0
-1106 -1738 0
-1107 -1739 0
-1108 -1740 0
-1109 -1741 0
-1110 -1742 0
-1111 -1743 0
-1106 -1752 0
-1108 -1753 0
-1109 -1754 0
-1110 -1755 0
-1111 -1756 0
-1105 -1772 0
-1106 -1774 0
-1108 -1776 0
-1110 -1777 0
-1111 -1778 0
-1104 -1779 0
-1105 -1780 0
-1106 -1782 0
-1107 -1783 0
-1108 -1784 0
-1109 -1785 0
-1110 -1786 0
-1111 -1787 0
-1105 -1795 0
-1106 -1797 0
-1107 -1798 0
-1110 -1800 0
-1111 -1801 0
-1104 -1802 0
-1105 -1803 0
-1106 -1804 0
-1107 -1805 0
-1109 -1807 0
-1110 -1808 0
-1111 -1809 0
-1104 -1824 0
-1106 -1826 0
-1108 -1828 0
-1109 -1829 0
-1110 -1830 0
-1111 -1831 0
-1104 -1832 0
-1106 -1833 0
-1107 -1834 0
-1108 -1836 0
-1110 -1837 0
-1111 -1838 0
-1105 -1839 0
-1107 -1840 0
-1109 -1842 0
-1110 -1843 0
-1111 -1844 0
-1107 -1859 0
-1108 -1861 0
-1110 -1862 0
-1111 -1863 0
-1104 -1864 0
-1108 -1866 0
-1109 -1867 0
-1110 -1868 0
-1111 -1869 0
-1106 -1885 0
-1108 -1886 0
-1109 -1887 0
-1110 -1888 0
-1111 -1889 0
-1105 -1903 0
-1106 -1904 0
-1108 -1906 0
-1109 -1907 0
-1110 -1908 0
-1111 -1909 0
-1106 -1917 0
-1107 -1918 0
-1108 -1920 0
-1109 -1921 0
-1110 -1922 0
-1111 -1923 0
-1107 -1939 0
-1108 -1941 0
-1110 -1942 0
-1111 -1943 0
-1113 -1275 0
-1115 -1277 0
-1117 -1278 0
-1119 -1279 0
-1120 -1280 0
-1113 -1311 0
-1115 -1313 0
-1116 -1314 0
-1117 -1315 0
-1118 -1316 0
-1119 -1317 0
-1120 -1318 0
-1113 -1345 0
-1115 -1346 0
-1116 -1347 0
-1117 -1348 0
-1119 -1350 0
-1120 -1351 0
-1112 -1380 0
-1116 -1381 0
-1118 -1383 0
-1119 -1384 0
-1120 -1385 0
-1117 -1388 0
-1119 -1390 0
-1120 -1391 0
-1113 -1408 0
-1116 -1410 0
-1117 -1411 0
-1118 -1412 0
-1119 -1413 0
-1120 -1414 0
-1115 -1423 0
-1116 -1424 0
-1117 -1425 0
-1119 -1426 0
-1120 -1427 0
-1114 -1437 0
-1118 -1439 0
-1119 -1440 0
-1120 -1441 0
-1113 -1450 0
-1114 -1451 0
-1116 -1452 0
-1118 -1454 0
-1119 -1455 0
-1120 -1456 0
-1114 -1463 0
-1115 -1464 0
-1116 -1465 0
-1118 -1467 0
-1119 -1468 0
-1120 -1469 0
-1112 -1543 0
-1114 -1544 0
-1119 -1547 0
-1120 -1548 0
-1112 -1549 0
-1115 -1551 0
-1116 -1552 0
-1118 -1553 0
-1119 -1554 0
-1120 -1555 0
-1114 -1563 0
-1115 -1565 0
-1116 -1566 0
-1119 -1568 0
-1120 -1569 0
-1112 -1576 0
-1114 -1577 0
-1117 -1578 0
-1118 -1580 0
-1119 -1581 0
-1120 -1582 0
-1114 -1584 0
-1116 -1586 0
-1119 -1588 0
-1120 -1589 0
-1112 -1590 0
-1114 -1591 0
-1115 -1592 0
-1116 -1593 0
-1117 -1594 0
-1119 -1596 0
-1120 -1597 0
-1114 -1612 0
-1115 -1614 0
-1116 -1615 0
-1117 -1616 0
-1118 -1617 0
-1119 -1618 0
-1120 -1619 0
-1113 -1620 0
-1114 -1621 0
-1115 -1623 0
-1116 -1624 0
-1119 -1625 0
-1120 -1626 0
-1114 -1636 0
-1116 -1638 0
-1118 -1639 0
-1119 -1640 0
-1120 -1641 0
-1112 -1670 0
-1117 -1672 0
-1118 -1674 0
-1119 -1675 0
-1120 -1676 0
-1112 -1714 0
-1115 -1715 0
-1117 -1716 0
-1119 -1718 0
-1120 -1719 0
-1115 -1722 0
-1116 -1723 0
-1117 -1724 0
-1118 -1726 0
-1119 -1727 0
-1120 -1728 0
-1113 -1744 0
-1115 -1746 0
-1117 -1747 0
-1119 -1749 0
-1120 -1750 0
-1116 -1758 0
-1117 -1759 0
-1118 -1761 0
-1119 -1762 0
-1120 -1763 0
-1114 -1765 0
-1116 -1766 0
-1117 -1767 0
-1118 -1769 0
-1119 -1770 0
-1120 -1771 0
-1113 -1788 0
-1114 -1790 0
-1117 -1791 0
-1119 -1793 0
-1120 -1794 0
-1114 -1796 0
-1115 -1797 0
-1116 -1798 0
-1117 -1799 0
-1119 -1800 0
-1120 -1801 0
-1113 -1802 0
-1115 -1804 0
-1116 -1805 0
-1117 -1806 0
-1118 -1807 0
-1119 -1808 0
-1120 -1809 0
-1113 -1824 0
-1114 -1825 0
-1115 -1826 0
-1117 -1827 0
-1118 -1829 0
-1119 -1830 0
-1120 -1831 0
-1113 -1832 0
-1115 -1833 0
-1116 -1834 0
-1117 -1835 0
-1119 -1837 0
-1120 -1838 0
-1116 -1840 0
-1117 -1841 0
-1118 -1842 0
-1119 -1843 0
-1120 -1844 0
-1114 -1858 0
-1116 -1859 0
-1117 -1860 0
-1119 -1862 0
-1120 -1863 0
-1113 -1864 0
-1117 -1865 0
-1118 -1867 0
-1119 -1868 0
-1120 -1869 0
-1115 -1870 0
-1116 -1871 0
-1117 -1872 0
-1118 -1874 0
-1119 -1875 0
-1120 -1876 0
-1115 -1879 0
-1116 -1880 0
-1117 -1881 0
-1119 -1882 0
-1120 -1883 0
-1114 -1890 0
-1115 -1891 0
-1116 -1892 0
-1118 -1894 0
-1119 -1895 0
-1120 -1896 0
-1115 -1911 0
-1116 -1912 0
-1119 -1914 0
-1120 -1915 0
-1115 -1917 0
-1116 -1918 0
-1117 -1919 0
-1118 -1921 0
-1119 -1922 0
-1120 -1923 0
-1114 -1931 0
-1116 -1933 0
-1118 -1934 0
-1119 -1935 0
-1120 -1936 0
-1114 -1938 0
-1116 -1939 0
-1117 -1940 0
-1119 -1942 0
-1120 -1943 0
-1113 -1984 0
-1117 -1985 0
-1118 -1987 0
-1119 -1988 0
-1120 -1989 0
-1115 -1991 0
-1116 -1992 0
-1117 -1993 0
-1118 -1995 0
-1119 -1996 0
-1120 -1997 0
-1122 -1268 0
-1124 -1270 0
-1125 -1271 0
-1126 -1273 0
-1127 -1274 0
-1122 -1304 0
-1125 -1307 0
-1126 -1309 0
-1127 -1310 0
-1122 -1339 0
-1125 -1341 0
-1126 -1343 0
-1127 -1344 0
-1121 -1374 0
-1125 -1377 0
-1126 -1378 0
-1127 -1379 0
-1125 -1389 0
-1126 -1390 0
-1127 -1391 0
-1122 -1401 0
-1125 -1405 0
-1126 -1406 0
-1127 -1407 0
-1124 -1416 0
-1125 -1418 0
-1126 -1420 0
-1127 -1421 0
-1123 -1437 0
-1125 -1438 0
-1126 -1440 0
-1127 -1441 0
-1122 -1442 0
-1123 -1443 0
-1125 -1446 0
-1126 -1448 0
-1127 -1449 0
-1123 -1457 0
-1124 -1458 0
-1125 -1460 0
-1126 -1461 0
-1127 -1462 0
-1124 -1472 0
-1125 -1474 0
-1126 -1476 0
-1127 -1477 0
-1121 -1533 0
-1123 -1534 0
-1124 -1537 0
-1125 -1539 0
-1126 -1541 0
-1127 -1542 0
-1121 -1556 0
-1124 -1558 0
-1125 -1560 0
-1126 -1561 0
-1127 -1562 0
-1123 -1563 0
-1124 -1566 0
-1125 -1567 0
-1126 -1568 0
-1127 -1569 0
-1121 -1570 0
-1123 -1571 0
-1124 -1573 0
-1126 -1574 0
-1127 -1575 0
-1123 -1584 0
-1124 -1586 0
-1125 -1587 0
-1126 -1588 0
-1127 -1589 0
-1121 -1598 0
-1123 -1599 0
-1124 -1600 0
-1126 -1603 0
-1127 -1604 0
-1123 -1612 0
-1124 -1615 0
-1126 -1618 0
-1127 -1619 0
-1122 -1627 0
-1123 -1628 0
-1124 -1630 0
-1125 -1632 0
-1126 -1634 0
-1127 -1635 0
-1123 -1642 0
-1125 -1646 0
-1126 -1647 0
-1127 -1648 0
-1121 -1662 0
-1124 -1665 0
-1125 -1666 0
-1126 -1668 0
-1127 -1669 0
-1121 -1707 0
-1124 -1709 0
-1126 -1712 0
-1127 -1713 0
-1124 -1723 0
-1125 -1725 0
-1126 -1727 0
-1127 -1728 0
-1122 -1736 0
-1124 -1739 0
-1125 -1740 0
-1126 -1742 0
-1127 -1743 0
-1125 -1753 0
-1126 -1755 0
-1127 -1756 0
-1123 -1765 0
-1124 -1766 0
-1125 -1768 0
-1126 -1770 0
-1127 -1771 0
-1122 -1779 0
-1123 -1781 0
-1124 -1783 0
-1125 -1784 0
-1126 -1786 0
-1127 -1787 0
-1123 -1796 0
-1124 -1798 0
-1126 -1800 0
-1127 -1801 0
-1122 -1810 0
-1124 -1812 0
-1125 -1814 0
-1126 -1815 0
-1127 -1816 0
-1122 -1817 0
-1123 -1818 0
-1124 -1820 0
-1126 -1822 0
-1127 -1823 0
-1122 -1832 0
-1124 -1834 0
-1125 -1836 0
-1126 -1837 0
-1127 -1838 0
-1125 -1848 0
-1126 -1850 0
-1127 -1851 0
-1123 -1852 0
-1126 -1856 0
-1127 -1857 0
-1122 -1864 0
-1125 -1866 0
-1126 -1868 0
-1127 -1869 0
-1125 -1886 0
-1126 -1888 0
-1127 -1889 0
-1123 -1897 0
-1126 -1901 0
-1127 -1902 0
-1125 -1906 0
-1126 -1908 0
-1127 -1909 0
-1123 -1931 0
-1124 -1933 0
-1126 -1935 0
-1127 -1936 0
-1123 -1938 0
-1124 -1939 0
-1125 -1941 0
-1126 -1942 0
-1127 -1943 0
-1122 -1978 0
-1124 -1980 0
-1126 -1982 0
-1127 -1983 0
-1130 -1227 0
-1131 -1228 0
-1132 -1229 0
-1133 -1230 0
-1134 -1231 0
-1135 -1232 0
-1129 -1261 0
-1131 -1264 0
-1132 -1265 0
-1134 -1266 0
-1135 -1267 0
-1130 -1298 0
-1131 -1299 0
-1132 -1300 0
-1133 -1301 0
-1134 -1302 0
-1135 -1303 0
-1129 -1339 0
-1131 -1340 0
-1132 -1341 0
-1133 -1342 0
-1134 -1343 0
-1135 -1344 0
-1129 -1345 0
-1130 -1347 0
-1131 -1348 0
-1132 -1349 0
-1134 -1350 0
-1135 -1351 0
-1128 -1374 0
-1131 -1376 0
-1132 -1377 0
-1134 -1378 0
-1135 -1379 0
-1128 -1380 0
-1130 -1381 0
-1132 -1382 0
-1133 -1383 0
-1134 -1384 0
-1135 -1385 0
-1131 -1388 0
-1132 -1389 0
-1134 -1390 0
-1135 -1391 0
-1130 -1395 0
-1131 -1396 0
-1132 -1397 0
-1133 -1398 0
-1134 -1399 0
-1135 -1400 0
-1130 -1430 0
-1131 -1431 0
-1132 -1432 0
-1133 -1433 0
-1134 -1434 0
-1135 -1435 0
-1129 -1442 0
-1131 -1445 0
-1132 -1446 0
-1133 -1447 0
-1134 -1448 0
-1135 -1449 0
-1129 -1450 0
-1130 -1452 0
-1132 -1453 0
-1133 -1454 0
-1134 -1455 0
-1135 -1456 0
-1130 -1458 0
-1131 -1459 0
-1132 -1460 0
-1134 -1461 0
-1135 -1462 0
-1130 -1465 0
-1132 -1466 0
-1133 -1467 0
-1134 -1468 0
-1135 -1469 0
-1130 -1508 0
-1132 -1509 0
-1134 -1510 0
-1135 -1511 0
-1128 -1549 0
-1130 -1552 0
-1133 -1553 0
-1134 -1554 0
-1135 -1555 0
-1128 -1556 0
-1130 -1558 0
-1131 -1559 0
-1132 -1560 0
-1134 -1561 0
-1135 -1562 0
-1130 -1566 0
-1132 -1567 0
-1134 -1568 0
-1135 -1569 0
-1128 -1570 0
-1130 -1573 0
-1134 -1574 0
-1135 -1575 0
-1128 -1576 0
-1131 -1578 0
-1132 -1579 0
-1133 -1580 0
-1134 -1581 0
-1135 -1582 0
-1130 -1586 0
-1132 -1587 0
-1134 -1588 0
-1135 -1589 0
-1129 -1620 0
-1130 -1624 0
-1134 -1625 0
-1135 -1626 0
-1129 -1627 0
-1130 -1630 0
-1131 -1631 0
-1132 -1632 0
-1133 -1633 0
-1134 -1634 0
-1135 -1635 0
-1130 -1638 0
-1133 -1639 0
-1134 -1640 0
-1135 -1641 0
-1131 -1645 0
-1132 -1646 0
-1134 -1647 0
-1135 -1648 0
-1128 -1707 0
-1130 -1709 0
-1131 -1710 0
-1133 -1711 0
-1134 -1712 0
-1135 -1713 0
-1128 -1714 0
-1131 -1716 0
-1132 -1717 0
-1134 -1718 0
-1135 -1719 0
-1130 -1723 0
-1131 -1724 0
-1132 -1725 0
-1133 -1726 0
-1134 -1727 0
-1135 -1728 0
-1131 -1732 0
-1132 -1733 0
-1134 -1734 0
-1135 -1735 0
-1130 -1766 0
-1131 -1767 0
-1132 -1768 0
-1133 -1769 0
-1134 -1770 0
-1135 -1771 0
-1131 -1775 0
-1132 -1776 0
-1134 -1777 0
-1135 -1778 0
-1129 -1802 0
-1130 -1805 0
-1131 -1806 0
-1133 -1807 0
-1134 -1808 0
-1135 -1809 0
-1129 -1810 0
-1130 -1812 0
-1131 -1813 0
-1132 -1814 0
-1134 -1815 0
-1135 -1816 0
-1129 -1817 0
-1130 -1820 0
-1131 -1821 0
-1134 -1822 0
-1135 -1823 0
-1129 -1824 0
-1131 -1827 0
-1132 -1828 0
-1133 -1829 0
-1134 -1830 0
-1135 -1831 0
-1130 -1840 0
-1131 -1841 0
-1133 -1842 0
-1134 -1843 0
-1135 -1844 0
-1131 -1847 0
-1132 -1848 0
-1133 -1849 0
-1134 -1850 0
-1135 -1851 0
-1131 -1854 0
-1133 -1855 0
-1134 -1856 0
-1135 -1857 0
-1130 -1859 0
-1131 -1860 0
-1132 -1861 0
-1134 -1862 0
-1135 -1863 0
-1130 -1880 0
-1131 -1881 0
-1134 -1882 0
-1135 -1883 0
-1132 -1886 0
-1133 -1887 0
-1134 -1888 0
-1135 -1889 0
-1130 -1918 0
-1131 -1919 0
-1132 -1920 0
-1133 -1921 0
-1134 -1922 0
-1135 -1923 0
-1130 -1933 0
-1133 -1934 0
-1134 -1935 0
-1135 -1936 0
-1131 -1974 0
-1133 -1975 0
-1134 -1976 0
-1135 -1977 0
-1136 -1339 0
-1141 -1340 0
-1142 -1341 0
-1143 -1342 0
-1144 -1343 0
-1145 -1344 0
-1136 -1345 0
-1140 -1347 0
-1141 -1348 0
-1142 -1349 0
-1144 -1350 0
-1145 -1351 0
-1141 -1376 0
-1142 -1377 0
-1144 -1378 0
-1145 -1379 0
-1140 -1381 0
-1142 -1382 0
-1143 -1383 0
-1144 -1384 0
-1145 -1385 0
-1137 -1436 0
-1138 -1437 0
-1142 -1438 0
-1143 -1439 0
-1144 -1440 0
-1145 -1441 0
-1136 -1442 0
-1138 -1443 0
-1141 -1445 0
-1142 -1446 0
-1143 -1447 0
-1144 -1448 0
-1145 -1449 0
-1136 -1450 0
-1138 -1451 0
-1140 -1452 0
-1142 -1453 0
-1143 -1454 0
-1144 -1455 0
-1145 -1456 0
-1138 -1457 0
-1140 -1458 0
-1141 -1459 0
-1142 -1460 0
-1144 -1461 0
-1145 -1462 0
-1138 -1463 0
-1140 -1465 0
-1142 -1466 0
-1143 -1467 0
-1144 -1468 0
-1145 -1469 0
-1139 -1550 0
-1140 -1552 0
-1143 -1553 0
-1144 -1554 0
-1145 -1555 0
-1139 -1557 0
-1140 -1558 0
-1141 -1559 0
-1142 -1560 0
-1144 -1561 0
-1145 -1562 0
-1138 -1571 0
-1140 -1573 0
-1144 -1574 0
-1145 -1575 0
-1138 -1577 0
-1141 -1578 0
-1142 -1579 0
-1143 -1580 0
-1144 -1581 0
-1145 -1582 0
-1137 -1605 0
-1138 -1606 0
-1139 -1607 0
-1140 -1608 0
-1141 -1609 0
-1144 -1610 0
-1145 -1611 0
-1138 -1612 0
-1139 -1613 0
-1140 -1615 0
-1141 -1616 0
-1143 -1617 0
-1144 -1618 0
-1145 -1619 0
-1136 -1620 0
-1138 -1621 0
-1139 -1622 0
-1140 -1624 0
-1144 -1625 0
-1145 -1626 0
-1136 -1627 0
-1138 -1628 0
-1139 -1629 0
-1140 -1630 0
-1141 -1631 0
-1142 -1632 0
-1143 -1633 0
-1144 -1634 0
-1145 -1635 0
-1138 -1636 0
-1139 -1637 0
-1140 -1638 0
-1143 -1639 0
-1144 -1640 0
-1145 -1641 0
-1138 -1642 0
-1139 -1643 0
-1141 -1645 0
-1142 -1646 0
-1144 -1647 0
-1145 -1648 0
-1140 -1709 0
-1141 -1710 0
-1143 -1711 0
-1144 -1712 0
-1145 -1713 0
-1141 -1716 0
-1142 -1717 0
-1144 -1718 0
-1145 -1719 0
-1137 -1795 0
-1138 -1796 0
-1140 -1798 0
-1141 -1799 0
-1144 -1800 0
-1145 -1801 0
-1136 -1802 0
-1137 -1803 0
-1140 -1805 0
-1141 -1806 0
-1143 -1807 0
-1144 -1808 0
-1145 -1809 0
-1136 -1810 0
-1137 -1811 0
-1140 -1812 0
-1141 -1813 0
-1142 -1814 0
-1144 -1815 0
-1145 -1816 0
-1136 -1817 0
-1138 -1818 0
-1140 -1820 0
-1141 -1821 0
-1144 -1822 0
-1145 -1823 0
-1136 -1824 0
-1138 -1825 0
-1141 -1827 0
-1142 -1828 0
-1143 -1829 0
-1144 -1830 0
-1145 -1831 0
-1136 -1832 0
-1140 -1834 0
-1141 -1835 0
-1142 -1836 0
-1144 -1837 0
-1145 -1838 0
-1137 -1839 0
-1140 -1840 0
-1141 -1841 0
-1143 -1842 0
-1144 -1843 0
-1145 -1844 0
-1137 -1845 0
-1141 -1847 0
-1142 -1848 0
-1143 -1849 0
-1144 -1850 0
-1145 -1851 0
-1138 -1852 0
-1141 -1854 0
-1143 -1855 0
-1144 -1856 0
-1145 -1857 0
-1138 -1858 0
-1140 -1859 0
-1141 -1860 0
-1142 -1861 0
-1144 -1862 0
-1145 -1863 0
-1136 -1864 0
-1141 -1865 0
-1142 -1866 0
-1143 -1867 0
-1144 -1868 0
-1145 -1869 0
-1139 -1878 0
-1140 -1880 0
-1141 -1881 0
-1144 -1882 0
-1145 -1883 0
-1139 -1884 0
-1142 -1886 0
-1143 -1887 0
-1144 -1888 0
-1145 -1889 0
-1140 -1918 0
-1141 -1919 0
-1142 -1920 0
-1143 -1921 0
-1144 -1922 0
-1145 -1923 0
-1138 -1938 0
-1140 -1939 0
-1141 -1940 0
-1142 -1941 0
-1144 -1942 0
-1145 -1943 0
-1147 -1218 0
-1148 -1220 0
-1149 -1222 0
-1150 -1223 0
-1151 -1224 0
-1152 -1225 0
-1147 -1253 0
-1148 -1256 0
-1149 -1258 0
-1151 -1259 0
-1152 -1260 0
-1147 -1311 0
-1148 -1313 0
-1150 -1316 0
-1151 -1317 0
-1152 -1318 0
-1147 -1326 0
-1148 -1328 0
-1151 -1331 0
-1152 -1332 0
-1147 -1333 0
-1148 -1334 0
-1150 -1336 0
-1151 -1337 0
-1152 -1338 0
-1146 -1360 0
-1150 -1364 0
-1151 -1365 0
-1152 -1366 0
-1151 -1372 0
-1152 -1373 0
-1147 -1408 0
-1150 -1412 0
-1151 -1413 0
-1152 -1414 0
-1149 -1418 0
-1150 -1419 0
-1151 -1420 0
-1152 -1421 0
-1149 -1432 0
-1150 -1433 0
-1151 -1434 0
-1152 -1435 0
-1147 -1450 0
-1149 -1453 0
-1150 -1454 0
-1151 -1455 0
-1152 -1456 0
-1149 -1460 0
-1151 -1461 0
-1152 -1462 0
-1148 -1471 0
-1149 -1474 0
-1150 -1475 0
-1151 -1476 0
-1152 -1477 0
-1147 -1499 0
-1149 -1503 0
-1151 -1504 0
-1152 -1505 0
-1146 -1533 0
-1148 -1536 0
-1149 -1539 0
-1150 -1540 0
-1151 -1541 0
-1152 -1542 0
-1146 -1556 0
-1149 -1560 0
-1151 -1561 0
-1152 -1562 0
-1148 -1565 0
-1149 -1567 0
-1151 -1568 0
-1152 -1569 0
-1146 -1570 0
-1148 -1572 0
-1151 -1574 0
-1152 -1575 0
-1146 -1598 0
-1150 -1602 0
-1151 -1603 0
-1152 -1604 0
-1151 -1610 0
-1152 -1611 0
-1148 -1614 0
-1150 -1617 0
-1151 -1618 0
-1152 -1619 0
-1147 -1620 0
-1148 -1623 0
-1151 -1625 0
-1152 -1626 0
-1149 -1652 0
-1150 -1653 0
-1151 -1654 0
-1152 -1655 0
-1146 -1670 0
-1149 -1673 0
-1150 -1674 0
-1151 -1675 0
-1152 -1676 0
-1146 -1684 0
-1148 -1686 0
-1149 -1689 0
-1151 -1690 0
-1152 -1691 0
-1146 -1692 0
-1147 -1693 0
-1148 -1694 0
-1149 -1695 0
-1150 -1696 0
-1151 -1697 0
-1152 -1698 0
-1148 -1702 0
-1149 -1703 0
-1150 -1704 0
-1151 -1705 0
-1152 -1706 0
-1147 -1744 0
-1148 -1746 0
-1149 -1748 0
-1151 -1749 0
-1152 -1750 0
-1148 -1752 0
-1149 -1753 0
-1150 -1754 0
-1151 -1755 0
-1152 -1756 0
-1149 -1768 0
-1150 -1769 0
-1151 -1770 0
-1152 -1771 0
-1148 -1774 0
-1149 -1776 0
-1151 -1777 0
-1152 -1778 0
-1147 -1779 0
-1148 -1782 0
-1149 -1784 0
-1150 -1785 0
-1151 -1786 0
-1152 -1787 0
-1147 -1810 0
-1149 -1814 0
-1151 -1815 0
-1152 -1816 0
-1147 -1824 0
-1148 -1826 0
-1149 -1828 0
-1150 -1829 0
-1151 -1830 0
-1152 -1831 0
-1147 -1832 0
-1148 -1833 0
-1149 -1836 0
-1151 -1837 0
-1152 -1838 0
-1150 -1842 0
-1151 -1843 0
-1152 -1844 0
-1148 -1853 0
-1150 -1855 0
-1151 -1856 0
-1152 -1857 0
-1148 -1879 0
-1151 -1882 0
-1152 -1883 0
-1148 -1891 0
-1149 -1893 0
-1150 -1894 0
-1151 -1895 0
-1152 -1896 0
-1148 -1904 0
-1149 -1906 0
-1150 -1907 0
-1151 -1908 0
-1152 -1909 0
-1148 -1917 0
-1149 -1920 0
-1150 -1921 0
-1151 -1922 0
-1152 -1923 0
-1149 -1927 0
-1150 -1928 0
-1151 -1929 0
-1152 -1930 0
-1147 -1965 0
-1149 -1968 0
-1150 -1969 0
-1151 -1970 0
-1152 -1971 0
-1148 -1991 0
-1149 -1994 0
-1150 -1995 0
-1151 -1996 0
-1152 -1997 0
-1154 -1211 0
-1155 -1213 0
-1156 -1214 0
-1157 -1216 0
-1158 -1217 0
-1154 -1246 0
-1156 -1249 0
-1157 -1251 0
-1158 -1252 0
-1154 -1304 0
-1157 -1309 0
-1158 -1310 0
-1154 -1319 0
-1155 -1321 0
-1157 -1324 0
-1158 -1325 0
-1154 -1333 0
-1155 -1335 0
-1157 -1337 0
-1158 -1338 0
-1153 -1352 0
-1155 -1355 0
-1156 -1356 0
-1157 -1358 0
-1158 -1359 0
-1155 -1370 0
-1156 -1371 0
-1157 -1372 0
-1158 -1373 0
-1154 -1401 0
-1156 -1404 0
-1157 -1406 0
-1158 -1407 0
-1155 -1424 0
-1156 -1425 0
-1157 -1426 0
-1158 -1427 0
-1155 -1430 0
-1156 -1431 0
-1157 -1434 0
-1158 -1435 0
-1154 -1442 0
-1156 -1445 0
-1157 -1448 0
-1158 -1449 0
-1155 -1465 0
-1157 -1468 0
-1158 -1469 0
-1154 -1491 0
-1155 -1494 0
-1156 -1495 0
-1157 -1497 0
-1158 -1498 0
-1155 -1526 0
-1156 -1527 0
-1157 -1530 0
-1158 -1531 0
-1153 -1543 0
-1157 -1547 0
-1158 -1548 0
-1153 -1549 0
-1155 -1552 0
-1157 -1554 0
-1158 -1555 0
-1155 -1566 0
-1157 -1568 0
-1158 -1569 0
-1153 -1576 0
-1156 -1578 0
-1157 -1581 0
-1158 -1582 0
-1153 -1590 0
-1155 -1593 0
-1156 -1594 0
-1157 -1596 0
-1158 -1597 0
-1155 -1608 0
-1156 -1609 0
-1157 -1610 0
-1158 -1611 0
-1155 -1615 0
-1156 -1616 0
-1157 -1618 0
-1158 -1619 0
-1154 -1627 0
-1155 -1630 0
-1156 -1631 0
-1157 -1634 0
-1158 -1635 0
-1155 -1658 0
-1156 -1659 0
-1157 -1660 0
-1158 -1661 0
-1153 -1662 0
-1155 -1665 0
-1157 -1668 0
-1158 -1669 0
-1153 -1677 0
-1157 -1682 0
-1158 -1683 0
-1153 -1692 0
-1154 -1693 0
-1157 -1697 0
-1158 -1698 0
-1157 -1705 0
-1158 -1706 0
-1154 -1736 0
-1155 -1739 0
-1157 -1742 0
-1158 -1743 0
-1155 -1758 0
-1156 -1759 0
-1157 -1762 0
-1158 -1763 0
-1155 -1766 0
-1156 -1767 0
-1157 -1770 0
-1158 -1771 0
-1156 -1775 0
-1157 -1777 0
-1158 -1778 0
-1154 -1788 0
-1156 -1791 0
-1157 -1793 0
-1158 -1794 0
-1154 -1802 0
-1155 -1805 0
-1156 -1806 0
-1157 -1808 0
-1158 -1809 0
-1154 -1817 0
-1155 -1820 0
-1156 -1821 0
-1157 -1822 0
-1158 -1823 0
-1154 -1832 0
-1155 -1834 0
-1156 -1835 0
-1157 -1837 0
-1158 -1838 0
-1156 -1847 0
-1157 -1850 0
-1158 -1851 0
-1155 -1859 0
-1156 -1860 0
-1157 -1862 0
-1158 -1863 0
-1155 -1871 0
-1156 -1872 0
-1157 -1875 0
-1158 -1876 0
-1157 -1888 0
-1158 -1889 0
-1156 -1899 0
-1157 -1901 0
-1158 -1902 0
-1155 -1912 0
-1157 -1914 0
-1158 -1915 0
-1156 -1926 0
-1157 -1929 0
-1158 -1930 0
-1154 -1957 0
-1156 -1960 0
-1157 -1963 0
-1158 -1964 0
-1159 -1319 0
-1162 -1323 0
-1163 -1324 0
-1164 -1325 0
-1159 -1326 0
-1163 -1331 0
-1164 -1332 0
-1159 -1333 0
-1162 -1336 0
-1163 -1337 0
-1164 -1338 0
-1163 -1358 0
-1164 -1359 0
-1162 -1364 0
-1163 -1365 0
-1164 -1366 0
-1161 -1415 0
-1162 -1419 0
-1163 -1420 0
-1164 -1421 0
-1161 -1422 0
-1163 -1426 0
-1164 -1427 0
-1160 -1428 0
-1162 -1433 0
-1163 -1434 0
-1164 -1435 0
-1159 -1442 0
-1162 -1447 0
-1163 -1448 0
-1164 -1449 0
-1159 -1450 0
-1162 -1454 0
-1163 -1455 0
-1164 -1456 0
-1162 -1475 0
-1163 -1476 0
-1164 -1477 0
-1162 -1529 0
-1163 -1530 0
-1164 -1531 0
-1161 -1535 0
-1162 -1540 0
-1163 -1541 0
-1164 -1542 0
-1161 -1545 0
-1163 -1547 0
-1164 -1548 0
-1160 -1583 0
-1161 -1585 0
-1163 -1588 0
-1164 -1589 0
-1163 -1596 0
-1164 -1597 0
-1162 -1602 0
-1163 -1603 0
-1164 -1604 0
-1161 -1613 0
-1162 -1617 0
-1163 -1618 0
-1164 -1619 0
-1159 -1620 0
-1161 -1622 0
-1163 -1625 0
-1164 -1626 0
-1159 -1627 0
-1161 -1629 0
-1162 -1633 0
-1163 -1634 0
-1164 -1635 0
-1161 -1649 0
-1162 -1653 0
-1163 -1654 0
-1164 -1655 0
-1161 -1656 0
-1163 -1660 0
-1164 -1661 0
-1162 -1681 0
-1163 -1682 0
-1164 -1683 0
-1163 -1690 0
-1164 -1691 0
-1159 -1693 0
-1162 -1696 0
-1163 -1697 0
-1164 -1698 0
-1161 -1751 0
-1162 -1754 0
-1163 -1755 0
-1164 -1756 0
-1161 -1757 0
-1162 -1761 0
-1163 -1762 0
-1164 -1763 0
-1160 -1772 0
-1163 -1777 0
-1164 -1778 0
-1159 -1779 0
-1160 -1780 0
-1162 -1785 0
-1163 -1786 0
-1164 -1787 0
-1159 -1788 0
-1160 -1789 0
-1163 -1793 0
-1164 -1794 0
-1159 -1817 0
-1163 -1822 0
-1164 -1823 0
-1159 -1824 0
-1162 -1829 0
-1163 -1830 0
-1164 -1831 0
-1159 -1832 0
-1163 -1837 0
-1164 -1838 0
-1160 -1839 0
-1162 -1842 0
-1163 -1843 0
-1164 -1844 0
-1160 -1845 0
-1162 -1849 0
-1163 -1850 0
-1164 -1851 0
-1162 -1874 0
-1163 -1875 0
-1164 -1876 0
-1161 -1878 0
-1163 -1882 0
-1164 -1883 0
-1161 -1884 0
-1162 -1887 0
-1163 -1888 0
-1164 -1889 0
-1160 -1903 0
-1162 -1907 0
-1163 -1908 0
-1164 -1909 0
-1160 -1910 0
-1163 -1914 0
-1164 -1915 0
-1162 -1921 0
-1163 -1922 0
-1164 -1923 0
-1165 -1304 0
-1168 -1306 0
-1170 -1309 0
-1171 -1310 0
-1165 -1311 0
-1168 -1313 0
-1169 -1314 0
-1170 -1317 0
-1171 -1318 0
-1165 -1333 0
-1168 -1334 0
-1169 -1335 0
-1170 -1337 0
-1171 -1338 0
-1167 -1415 0
-1169 -1416 0
-1170 -1420 0
-1171 -1421 0
-1167 -1422 0
-1168 -1423 0
-1169 -1424 0
-1170 -1426 0
-1171 -1427 0
-1166 -1457 0
-1169 -1458 0
-1170 -1461 0
-1171 -1462 0
-1166 -1463 0
-1168 -1464 0
-1169 -1465 0
-1170 -1468 0
-1171 -1469 0
-1168 -1471 0
-1169 -1472 0
-1170 -1476 0
-1171 -1477 0
-1166 -1534 0
-1167 -1535 0
-1168 -1536 0
-1169 -1537 0
-1170 -1541 0
-1171 -1542 0
-1166 -1544 0
-1167 -1545 0
-1170 -1547 0
-1171 -1548 0
-1167 -1550 0
-1168 -1551 0
-1169 -1552 0
-1170 -1554 0
-1171 -1555 0
-1167 -1557 0
-1169 -1558 0
-1170 -1561 0
-1171 -1562 0
-1166 -1571 0
-1168 -1572 0
-1169 -1573 0
-1170 -1574 0
-1171 -1575 0
-1166 -1577 0
-1170 -1581 0
-1171 -1582 0
-1166 -1584 0
-1167 -1585 0
-1169 -1586 0
-1170 -1588 0
-1171 -1589 0
-1166 -1591 0
-1168 -1592 0
-1169 -1593 0
-1170 -1596 0
-1171 -1597 0
-1166 -1599 0
-1169 -1600 0
-1170 -1603 0
-1171 -1604 0
-1166 -1606 0
-1167 -1607 0
-1169 -1608 0
-1170 -1610 0
-1171 -1611 0
-1165 -1620 0
-1166 -1621 0
-1167 -1622 0
-1168 -1623 0
-1169 -1624 0
-1170 -1625 0
-1171 -1626 0
-1165 -1627 0
-1166 -1628 0
-1167 -1629 0
-1169 -1630 0
-1170 -1634 0
-1171 -1635 0
-1168 -1664 0
-1169 -1665 0
-1170 -1668 0
-1171 -1669 0
-1170 -1675 0
-1171 -1676 0
-1165 -1693 0
-1168 -1694 0
-1170 -1697 0
-1171 -1698 0
-1167 -1751 0
-1168 -1752 0
-1170 -1755 0
-1171 -1756 0
-1167 -1757 0
-1169 -1758 0
-1170 -1762 0
-1171 -1763 0
-1166 -1765 0
-1169 -1766 0
-1170 -1770 0
-1171 -1771 0
-1165 -1779 0
-1166 -1781 0
-1168 -1782 0
-1169 -1783 0
-1170 -1786 0
-1171 -1787 0
-1165 -1788 0
-1166 -1790 0
-1170 -1793 0
-1171 -1794 0
-1165 -1802 0
-1168 -1804 0
-1169 -1805 0
-1170 -1808 0
-1171 -1809 0
-1165 -1810 0
-1169 -1812 0
-1170 -1815 0
-1171 -1816 0
-1165 -1832 0
-1168 -1833 0
-1169 -1834 0
-1170 -1837 0
-1171 -1838 0
-1166 -1852 0
-1168 -1853 0
-1170 -1856 0
-1171 -1857 0
-1166 -1858 0
-1169 -1859 0
-1170 -1862 0
-1171 -1863 0
-1168 -1870 0
-1169 -1871 0
-1170 -1875 0
-1171 -1876 0
-1167 -1878 0
-1168 -1879 0
-1169 -1880 0
-1170 -1882 0
-1171 -1883 0
-1167 -1884 0
-1168 -1885 0
-1170 -1888 0
-1171 -1889 0
-1166 -1890 0
-1168 -1891 0
-1169 -1892 0
-1170 -1895 0
-1171 -1896 0
-1166 -1897 0
-1168 -1898 0
-1170 -1901 0
-1171 -1902 0
-1168 -1904 0
-1170 -1908 0
-1171 -1909 0
-1168 -1911 0
-1169 -1912 0
-1170 -1914 0
-1171 -1915 0
-1168 -1991 0
-1169 -1992 0
-1170 -1996 0
-1171 -1997 0
-1174 -1192 0
-1175 -1194 0
-1176 -1195 0
-1177 -1196 0
-1178 -1197 0
-1174 -1297 0
-1175 -1299 0
-1176 -1301 0
-1177 -1302 0
-1178 -1303 0
-1172 -1311 0
-1174 -1313 0
-1175 -1315 0
-1176 -1316 0
-1177 -1317 0
-1178 -1318 0
-1172 -1326 0
-1174 -1328 0
-1175 -1330 0
-1177 -1331 0
-1178 -1332 0
-1172 -1345 0
-1174 -1346 0
-1175 -1348 0
-1177 -1350 0
-1178 -1351 0
-1175 -1363 0
-1176 -1364 0
-1177 -1365 0
-1178 -1366 0
-1176 -1383 0
-1177 -1384 0
-1178 -1385 0
-1173 -1422 0
-1174 -1423 0
-1175 -1425 0
-1177 -1426 0
-1178 -1427 0
-1175 -1431 0
-1176 -1433 0
-1177 -1434 0
-1178 -1435 0
-1176 -1439 0
-1177 -1440 0
-1178 -1441 0
-1172 -1450 0
-1176 -1454 0
-1177 -1455 0
-1178 -1456 0
-1175 -1459 0
-1177 -1461 0
-1178 -1462 0
-1173 -1545 0
-1177 -1547 0
-1178 -1548 0
-1173 -1557 0
-1175 -1559 0
-1177 -1561 0
-1178 -1562 0
-1174 -1572 0
-1177 -1574 0
-1178 -1575 0
-1173 -1585 0
-1177 -1588 0
-1178 -1589 0
-1174 -1592 0
-1175 -1594 0
-1177 -1596 0
-1178 -1597 0
-1173 -1607 0
-1175 -1609 0
-1177 -1610 0
-1178 -1611 0
-1173 -1613 0
-1174 -1614 0
-1175 -1616 0
-1176 -1617 0
-1177 -1618 0
-1178 -1619 0
-1172 -1627 0
-1173 -1629 0
-1175 -1631 0
-1176 -1633 0
-1177 -1634 0
-1178 -1635 0
-1173 -1637 0
-1176 -1639 0
-1177 -1640 0
-1178 -1641 0
-1173 -1649 0
-1175 -1651 0
-1176 -1653 0
-1177 -1654 0
-1178 -1655 0
-1175 -1672 0
-1176 -1674 0
-1177 -1675 0
-1178 -1676 0
-1174 -1686 0
-1175 -1688 0
-1177 -1690 0
-1178 -1691 0
-1174 -1715 0
-1175 -1716 0
-1177 -1718 0
-1178 -1719 0
-1173 -1757 0
-1175 -1759 0
-1176 -1761 0
-1177 -1762 0
-1178 -1763 0
-1175 -1767 0
-1176 -1769 0
-1177 -1770 0
-1178 -1771 0
-1174 -1774 0
-1175 -1775 0
-1177 -1777 0
-1178 -1778 0
-1172 -1788 0
-1175 -1791 0
-1177 -1793 0
-1178 -1794 0
-1174 -1797 0
-1175 -1799 0
-1177 -1800 0
-1178 -1801 0
-1172 -1810 0
-1175 -1813 0
-1177 -1815 0
-1178 -1816 0
-1172 -1824 0
-1174 -1826 0
-1175 -1827 0
-1176 -1829 0
-1177 -1830 0
-1178 -1831 0
-1175 -1841 0
-1176 -1842 0
-1177 -1843 0
-1178 -1844 0
-1174 -1853 0
-1175 -1854 0
-1176 -1855 0
-1177 -1856 0
-1178 -1857 0
-1172 -1864 0
-1175 -1865 0
-1176 -1867 0
-1177 -1868 0
-1178 -1869 0
-1174 -1870 0
-1175 -1872 0
-1176 -1874 0
-1177 -1875 0
-1178 -1876 0
-1173 -1884 0
-1174 -1885 0
-1176 -1887 0
-1177 -1888 0
-1178 -1889 0
-1174 -1891 0
-1176 -1894 0
-1177 -1895 0
-1178 -1896 0
-1174 -1911 0
-1177 -1914 0
-1178 -1915 0
-1174 -1917 0
-1175 -1919 0
-1176 -1921 0
-1177 -1922 0
-1178 -1923 0
-1175 -1940 0
-1177 -1942 0
-1178 -1943 0
-1174 -1991 0
-1175 -1993 0
-1176 -1995 0
-1177 -1996 0
-1178 -1997 0
-1181 -1186 0
-1182 -1187 0
-1183 -1189 0
-1184 -1190 0
-1181 -1298 0
-1182 -1300 0
-1183 -1302 0
-1184 -1303 0
-1179 -1304 0
-1182 -1307 0
-1183 -1309 0
-1184 -1310 0
-1179 -1319 0
-1181 -1321 0
-1182 -1322 0
-1183 -1324 0
-1184 -1325 0
-1179 -1339 0
-1182 -1341 0
-1183 -1343 0
-1184 -1344 0
-1181 -1355 0
-1182 -1357 0
-1183 -1358 0
-1184 -1359 0
-1182 -1377 0
-1183 -1378 0
-1184 -1379 0
-1180 -1415 0
-1181 -1416 0
-1182 -1418 0
-1183 -1420 0
-1184 -1421 0
-1181 -1430 0
-1182 -1432 0
-1183 -1434 0
-1184 -1435 0
-1182 -1438 0
-1183 -1440 0
-1184 -1441 0
-1179 -1442 0
-1182 -1446 0
-1183 -1448 0
-1184 -1449 0
-1181 -1465 0
-1182 -1466 0
-1183 -1468 0
-1184 -1469 0
-1181 -1472 0
-1182 -1474 0
-1183 -1476 0
-1184 -1477 0
-1181 -1526 0
-1182 -1528 0
-1183 -1530 0
-1184 -1531 0
-1180 -1535 0
-1181 -1537 0
-1182 -1539 0
-1183 -1541 0
-1184 -1542 0
-1180 -1550 0
-1181 -1552 0
-1183 -1554 0
-1184 -1555 0
-1182 -1579 0
-1183 -1581 0
-1184 -1582 0
-1180 -1585 0
-1181 -1586 0
-1182 -1587 0
-1183 -1588 0
-1184 -1589 0
-1181 -1600 0
-1183 -1603 0
-1184 -1604 0
-1180 -1607 0
-1181 -1608 0
-1183 -1610 0
-1184 -1611 0
-1180 -1613 0
-1181 -1615 0
-1183 -1618 0
-1184 -1619 0
-1179 -1620 0
-1180 -1622 0
-1181 -1624 0
-1183 -1625 0
-1184 -1626 0
-1180 -1643 0
-1182 -1646 0
-1183 -1647 0
-1184 -1648 0
-1180 -1656 0
-1181 -1658 0
-1183 -1660 0
-1184 -1661 0
-1181 -1665 0
-1182 -1666 0
-1183 -1668 0
-1184 -1669 0
-1182 -1680 0
-1183 -1682 0
-1184 -1683 0
-1181 -1709 0
-1183 -1712 0
-1184 -1713 0
-1180 -1751 0
-1182 -1753 0
-1183 -1755 0
-1184 -1756 0
-1181 -1766 0
-1182 -1768 0
-1183 -1770 0
-1184 -1771 0
-1182 -1776 0
-1183 -1777 0
-1184 -1778 0
-1179 -1779 0
-1181 -1783 0
-1182 -1784 0
-1183 -1786 0
-1184 -1787 0
-1181 -1798 0
-1183 -1800 0
-1184 -1801 0
-1179 -1802 0
-1181 -1805 0
-1183 -1808 0
-1184 -1809 0
-1179 -1817 0
-1181 -1820 0
-1183 -1822 0
-1184 -1823 0
-1182 -1848 0
-1183 -1850 0
-1184 -1851 0
-1181 -1859 0
-1182 -1861 0
-1183 -1862 0
-1184 -1863 0
-1179 -1864 0
-1182 -1866 0
-1183 -1868 0
-1184 -1869 0
-1180 -1878 0
-1181 -1880 0
-1183 -1882 0
-1184 -1883 0
-1183 -1901 0
-1184 -1902 0
-1182 -1906 0
-1183 -1908 0
-1184 -1909 0
-1181 -1939 0
-1182 -1941 0
-1183 -1942 0
-1184 -1943 0
-1186 -1257 0
-1187 -1258 0
-1189 -1259 0
-1190 -1260 0
-1189 -1279 0
-1190 -1280 0
-1186 -1289 0
-1188 -1291 0
-1189 -1292 0
-1190 -1293 0
-1185 -1360 0
-1186 -1362 0
-1188 -1364 0
-1189 -1365 0
-1190 -1366 0
-1186 -1370 0
-1189 -1372 0
-1190 -1373 0
-1185 -1380 0
-1186 -1381 0
-1187 -1382 0
-1188 -1383 0
-1189 -1384 0
-1190 -1385 0
-1187 -1389 0
-1189 -1390 0
-1190 -1391 0
-1186 -1395 0
-1187 -1397 0
-1188 -1398 0
-1189 -1399 0
-1190 -1400 0
-1187 -1405 0
-1189 -1406 0
-1190 -1407 0
-1186 -1424 0
-1189 -1426 0
-1190 -1427 0
-1186 -1430 0
-1187 -1432 0
-1188 -1433 0
-1189 -1434 0
-1190 -1435 0
-1187 -1438 0
-1188 -1439 0
-1189 -1440 0
-1190 -1441 0
-1187 -1446 0
-1188 -1447 0
-1189 -1448 0
-1190 -1449 0
-1186 -1465 0
-1187 -1466 0
-1188 -1467 0
-1189 -1468 0
-1190 -1469 0
-1186 -1472 0
-1187 -1474 0
-1188 -1475 0
-1189 -1476 0
-1190 -1477 0
-1186 -1501 0
-1187 -1503 0
-1189 -1504 0
-1190 -1505 0
-1186 -1521 0
-1188 -1522 0
-1189 -1523 0
-1190 -1524 0
-1185 -1533 0
-1186 -1537 0
-1187 -1539 0
-1188 -1540 0
-1189 -1541 0
-1190 -1542 0
-1185 -1549 0
-1186 -1552 0
-1188 -1553 0
-1189 -1554 0
-1190 -1555 0
-1185 -1570 0
-1186 -1573 0
-1189 -1574 0
-1190 -1575 0
-1185 -1590 0
-1186 -1593 0
-1187 -1595 0
-1189 -1596 0
-1190 -1597 0
-1186 -1638 0
-1188 -1639 0
-1189 -1640 0
-1190 -1641 0
-1186 -1650 0
-1187 -1652 0
-1188 -1653 0
-1189 -1654 0
-1190 -1655 0
-1185 -1670 0
-1187 -1673 0
-1188 -1674 0
-1189 -1675 0
-1190 -1676 0
-1185 -1684 0
-1186 -1687 0
-1187 -1689 0
-1189 -1690 0
-1190 -1691 0
-1185 -1692 0
-1187 -1695 0
-1188 -1696 0
-1189 -1697 0
-1190 -1698 0
-1187 -1703 0
-1188 -1704 0
-1189 -1705 0
-1190 -1706 0
-1185 -1714 0
-1187 -1717 0
-1189 -1718 0
-1190 -1719 0
-1186 -1723 0
-1187 -1725 0
-1188 -1726 0
-1189 -1727 0
-1190 -1728 0
-1187 -1733 0
-1189 -1734 0
-1190 -1735 0
-1186 -1739 0
-1187 -1740 0
-1188 -1741 0
-1189 -1742 0
-1190 -1743 0
-1186 -1758 0
-1187 -1760 0
-1188 -1761 0
-1189 -1762 0
-1190 -1763 0
-1186 -1766 0
-1187 -1768 0
-1188 -1769 0
-1189 -1770 0
-1190 -1771 0
-1187 -1776 0
-1189 -1777 0
-1190 -1778 0
-1186 -1783 0
-1187 -1784 0
-1188 -1785 0
-1189 -1786 0
-1190 -1787 0
-1186 -1798 0
-1189 -1800 0
-1190 -1801 0
-1186 -1805 0
-1188 -1807 0
-1189 -1808 0
-1190 -1809 0
-1186 -1820 0
-1189 -1822 0
-1190 -1823 0
-1187 -1848 0
-1188 -1849 0
-1189 -1850 0
-1190 -1851 0
-1186 -1859 0
-1187 -1861 0
-1189 -1862 0
-1190 -1863 0
-1187 -1866 0
-1188 -1867 0
-1189 -1868 0
-1190 -1869 0
-1187 -1906 0
-1188 -1907 0
-1189 -1908 0
-1190 -1909 0
-1187 -1927 0
-1188 -1928 0
-1189 -1929 0
-1190 -1930 0
-1186 -1933 0
-1188 -1934 0
-1189 -1935 0
-1190 -1936 0
-1186 -1939 0
-1187 -1941 0
-1189 -1942 0
-1190 -1943 0
-1186 -1967 0
-1187 -1968 0
-1188 -1969 0
-1189 -1970 0
-1190 -1971 0
-1187 -1986 0
-1188 -1987 0
-1189 -1988 0
-1190 -1989 0
-1194 -1249 0
-1195 -1250 0
-1196 -1251 0
-1197 -1252 0
-1193 -1270 0
-1195 -1272 0
-1196 -1273 0
-1197 -1274 0
-1192 -1283 0
-1196 -1285 0
-1197 -1286 0
-1191 -1352 0
-1192 -1354 0
-1193 -1355 0
-1194 -1356 0
-1196 -1358 0
-1197 -1359 0
-1193 -1370 0
-1194 -1371 0
-1196 -1372 0
-1197 -1373 0
-1191 -1374 0
-1192 -1375 0
-1194 -1376 0
-1196 -1378 0
-1197 -1379 0
-1194 -1388 0
-1196 -1390 0
-1197 -1391 0
-1192 -1394 0
-1193 -1395 0
-1194 -1396 0
-1195 -1398 0
-1196 -1399 0
-1197 -1400 0
-1193 -1410 0
-1194 -1411 0
-1195 -1412 0
-1196 -1413 0
-1197 -1414 0
-1193 -1416 0
-1194 -1417 0
-1195 -1419 0
-1196 -1420 0
-1197 -1421 0
-1193 -1430 0
-1194 -1431 0
-1195 -1433 0
-1196 -1434 0
-1197 -1435 0
-1195 -1439 0
-1196 -1440 0
-1197 -1441 0
-1193 -1452 0
-1195 -1454 0
-1196 -1455 0
-1197 -1456 0
-1193 -1458 0
-1194 -1459 0
-1196 -1461 0
-1197 -1462 0
-1192 -1493 0
-1193 -1494 0
-1194 -1495 0
-1195 -1496 0
-1196 -1497 0
-1197 -1498 0
-1192 -1513 0
-1193 -1514 0
-1194 -1515 0
-1196 -1517 0
-1197 -1518 0
-1191 -1543 0
-1196 -1547 0
-1197 -1548 0
-1191 -1556 0
-1193 -1558 0
-1194 -1559 0
-1196 -1561 0
-1197 -1562 0
-1191 -1576 0
-1194 -1578 0
-1195 -1580 0
-1196 -1581 0
-1197 -1582 0
-1191 -1598 0
-1193 -1600 0
-1194 -1601 0
-1195 -1602 0
-1196 -1603 0
-1197 -1604 0
-1192 -1644 0
-1194 -1645 0
-1196 -1647 0
-1197 -1648 0
-1192 -1657 0
-1193 -1658 0
-1194 -1659 0
-1196 -1660 0
-1197 -1661 0
-1191 -1662 0
-1192 -1664 0
-1193 -1665 0
-1195 -1667 0
-1196 -1668 0
-1197 -1669 0
-1191 -1677 0
-1192 -1679 0
-1195 -1681 0
-1196 -1682 0
-1197 -1683 0
-1191 -1692 0
-1192 -1694 0
-1195 -1696 0
-1196 -1697 0
-1197 -1698 0
-1192 -1702 0
-1195 -1704 0
-1196 -1705 0
-1197 -1706 0
-1191 -1707 0
-1192 -1708 0
-1193 -1709 0
-1194 -1710 0
-1195 -1711 0
-1196 -1712 0
-1197 -1713 0
-1192 -1722 0
-1193 -1723 0
-1194 -1724 0
-1195 -1726 0
-1196 -1727 0
-1197 -1728 0
-1192 -1731 0
-1194 -1732 0
-1196 -1734 0
-1197 -1735 0
-1192 -1746 0
-1194 -1747 0
-1196 -1749 0
-1197 -1750 0
-1192 -1752 0
-1195 -1754 0
-1196 -1755 0
-1197 -1756 0
-1193 -1766 0
-1194 -1767 0
-1195 -1769 0
-1196 -1770 0
-1197 -1771 0
-1192 -1774 0
-1194 -1775 0
-1196 -1777 0
-1197 -1778 0
-1194 -1791 0
-1196 -1793 0
-1197 -1794 0
-1192 -1797 0
-1193 -1798 0
-1194 -1799 0
-1196 -1800 0
-1197 -1801 0
-1193 -1812 0
-1194 -1813 0
-1196 -1815 0
-1197 -1816 0
-1192 -1826 0
-1194 -1827 0
-1195 -1829 0
-1196 -1830 0
-1197 -1831 0
-1193 -1840 0
-1194 -1841 0
-1195 -1842 0
-1196 -1843 0
-1197 -1844 0
-1192 -1853 0
-1194 -1854 0
-1195 -1855 0
-1196 -1856 0
-1197 -1857 0
-1194 -1865 0
-1195 -1867 0
-1196 -1868 0
-1197 -1869 0
-1192 -1870 0
-1193 -1871 0
-1194 -1872 0
-1195 -1874 0
-1196 -1875 0
-1197 -1876 0
-1192 -1911 0
-1193 -1912 0
-1196 -1914 0
-1197 -1915 0
-1192 -1917 0
-1193 -1918 0
-1194 -1919 0
-1195 -1921 0
-1196 -1922 0
-1197 -1923 0
-1194 -1926 0
-1195 -1928 0
-1196 -1929 0
-1197 -1930 0
-1193 -1933 0
-1195 -1934 0
-1196 -1935 0
-1197 -1936 0
-1193 -1939 0
-1194 -1940 0
-1196 -1942 0
-1197 -1943 0
-1192 -1959 0
-1194 -1960 0
-1195 -1962 0
-1196 -1963 0
-1197 -1964 0
-1192 -1979 0
-1193 -1980 0
-1195 -1981 0
-1196 -1982 0
-1197 -1983 0
-1200 -1283 0
-1203 -1285 0
-1204 -1286 0
-1201 -1289 0
-1202 -1291 0
-1203 -1292 0
-1204 -1293 0
-1200 -1354 0
-1201 -1355 0
-1203 -1358 0
-1204 -1359 0
-1201 -1362 0
-1202 -1364 0
-1203 -1365 0
-1204 -1366 0
-1200 -1375 0
-1203 -1378 0
-1204 -1379 0
-1201 -1381 0
-1202 -1383 0
-1203 -1384 0
-1204 -1385 0
-1199 -1393 0
-1200 -1394 0
-1201 -1395 0
-1202 -1398 0
-1203 -1399 0
-1204 -1400 0
-1199 -1402 0
-1200 -1403 0
-1203 -1406 0
-1204 -1407 0
-1199 -1409 0
-1201 -1410 0
-1202 -1412 0
-1203 -1413 0
-1204 -1414 0
-1198 -1428 0
-1201 -1430 0
-1202 -1433 0
-1203 -1434 0
-1204 -1435 0
-1198 -1436 0
-1202 -1439 0
-1203 -1440 0
-1204 -1441 0
-1201 -1458 0
-1203 -1461 0
-1204 -1462 0
-1200 -1464 0
-1201 -1465 0
-1202 -1467 0
-1203 -1468 0
-1204 -1469 0
-1200 -1471 0
-1201 -1472 0
-1202 -1475 0
-1203 -1476 0
-1204 -1477 0
-1200 -1513 0
-1201 -1514 0
-1203 -1517 0
-1204 -1518 0
-1200 -1520 0
-1201 -1521 0
-1202 -1522 0
-1203 -1523 0
-1204 -1524 0
-1199 -1535 0
-1200 -1536 0
-1201 -1537 0
-1202 -1540 0
-1203 -1541 0
-1204 -1542 0
-1199 -1545 0
-1203 -1547 0
-1204 -1548 0
-1199 -1550 0
-1200 -1551 0
-1201 -1552 0
-1202 -1553 0
-1203 -1554 0
-1204 -1555 0
-1199 -1557 0
-1201 -1558 0
-1203 -1561 0
-1204 -1562 0
-1199 -1564 0
-1200 -1565 0
-1201 -1566 0
-1203 -1568 0
-1204 -1569 0
-1198 -1583 0
-1199 -1585 0
-1201 -1586 0
-1203 -1588 0
-1204 -1589 0
-1198 -1605 0
-1199 -1607 0
-1201 -1608 0
-1203 -1610 0
-1204 -1611 0
-1199 -1637 0
-1201 -1638 0
-1202 -1639 0
-1203 -1640 0
-1204 -1641 0
-1199 -1643 0
-1200 -1644 0
-1203 -1647 0
-1204 -1648 0
-1199 -1649 0
-1201 -1650 0
-1202 -1653 0
-1203 -1654 0
-1204 -1655 0
-1199 -1656 0
-1200 -1657 0
-1201 -1658 0
-1203 -1660 0
-1204 -1661 0
-1200 -1679 0
-1202 -1681 0
-1203 -1682 0
-1204 -1683 0
-1200 -1686 0
-1201 -1687 0
-1203 -1690 0
-1204 -1691 0
-1200 -1694 0
-1202 -1696 0
-1203 -1697 0
-1204 -1698 0
-1200 -1708 0
-1201 -1709 0
-1202 -1711 0
-1203 -1712 0
-1204 -1713 0
-1200 -1715 0
-1203 -1718 0
-1204 -1719 0
-1199 -1730 0
-1200 -1731 0
-1203 -1734 0
-1204 -1735 0
-1199 -1737 0
-1200 -1738 0
-1201 -1739 0
-1202 -1741 0
-1203 -1742 0
-1204 -1743 0
-1199 -1745 0
-1200 -1746 0
-1203 -1749 0
-1204 -1750 0
-1198 -1772 0
-1200 -1774 0
-1203 -1777 0
-1204 -1778 0
-1198 -1780 0
-1200 -1782 0
-1201 -1783 0
-1202 -1785 0
-1203 -1786 0
-1204 -1787 0
-1198 -1789 0
-1203 -1793 0
-1204 -1794 0
-1198 -1795 0
-1200 -1797 0
-1201 -1798 0
-1203 -1800 0
-1204 -1801 0
-1198 -1803 0
-1200 -1804 0
-1201 -1805 0
-1202 -1807 0
-1203 -1808 0
-1204 -1809 0
-1198 -1811 0
-1201 -1812 0
-1203 -1815 0
-1204 -1816 0
-1200 -1853 0
-1202 -1855 0
-1203 -1856 0
-1204 -1857 0
-1201 -1859 0
-1203 -1862 0
-1204 -1863 0
-1202 -1867 0
-1203 -1868 0
-1204 -1869 0
-1200 -1870 0
-1201 -1871 0
-1202 -1874 0
-1203 -1875 0
-1204 -1876 0
-1198 -1903 0
-1200 -1904 0
-1202 -1907 0
-1203 -1908 0
-1204 -1909 0
-1198 -1910 0
-1200 -1911 0
-1201 -1912 0
-1203 -1914 0
-1204 -1915 0
-1201 -1939 0
-1203 -1942 0
-1204 -1943 0
-1207 -1270 0
-1208 -1272 0
-1209 -1273 0
-1210 -1274 0
-1209 -1279 0
-1210 -1280 0
-1209 -1378 0
-1210 -1379 0
-1207 -1381 0
-1208 -1383 0
-1209 -1384 0
-1210 -1385 0
-1206 -1387 0
-1209 -1390 0
-1210 -1391 0
-1206 -1402 0
-1209 -1406 0
-1210 -1407 0
-1206 -1409 0
-1207 -1410 0
-1208 -1412 0
-1209 -1413 0
-1210 -1414 0
-1205 -1437 0
-1208 -1439 0
-1209 -1440 0
-1210 -1441 0
-1205 -1443 0
-1208 -1447 0
-1209 -1448 0
-1210 -1449 0
-1205 -1451 0
-1207 -1452 0
-1208 -1454 0
-1209 -1455 0
-1210 -1456 0
-1207 -1472 0
-1208 -1475 0
-1209 -1476 0
-1210 -1477 0
-1205 -1534 0
-1206 -1535 0
-1207 -1537 0
-1208 -1540 0
-1209 -1541 0
-1210 -1542 0
-1205 -1544 0
-1206 -1545 0
-1209 -1547 0
-1210 -1548 0
-1205 -1563 0
-1206 -1564 0
-1207 -1566 0
-1209 -1568 0
-1210 -1569 0
-1205 -1571 0
-1207 -1573 0
-1209 -1574 0
-1210 -1575 0
-1205 -1577 0
-1208 -1580 0
-1209 -1581 0
-1210 -1582 0
-1205 -1584 0
-1206 -1585 0
-1207 -1586 0
-1209 -1588 0
-1210 -1589 0
-1205 -1612 0
-1206 -1613 0
-1207 -1615 0
-1208 -1617 0
-1209 -1618 0
-1210 -1619 0
-1205 -1636 0
-1206 -1637 0
-1207 -1638 0
-1208 -1639 0
-1209 -1640 0
-1210 -1641 0
-1205 -1642 0
-1206 -1643 0
-1209 -1647 0
-1210 -1648 0
-1207 -1665 0
-1208 -1667 0
-1209 -1668 0
-1210 -1669 0
-1208 -1674 0
-1209 -1675 0
-1210 -1676 0
-1208 -1696 0
-1209 -1697 0
-1210 -1698 0
-1207 -1709 0
-1208 -1711 0
-1209 -1712 0
-1210 -1713 0
-1209 -1718 0
-1210 -1719 0
-1206 -1721 0
-1207 -1723 0
-1208 -1726 0
-1209 -1727 0
-1210 -1728 0
-1206 -1737 0
-1207 -1739 0
-1208 -1741 0
-1209 -1742 0
-1210 -1743 0
-1206 -1745 0
-1209 -1749 0
-1210 -1750 0
-1205 -1765 0
-1207 -1766 0
-1208 -1769 0
-1209 -1770 0
-1210 -1771 0
-1205 -1781 0
-1207 -1783 0
-1208 -1785 0
-1209 -1786 0
-1210 -1787 0
-1205 -1790 0
-1209 -1793 0
-1210 -1794 0
-1205 -1796 0
-1207 -1798 0
-1209 -1800 0
-1210 -1801 0
-1205 -1818 0
-1207 -1820 0
-1209 -1822 0
-1210 -1823 0
-1205 -1825 0
-1208 -1829 0
-1209 -1830 0
-1210 -1831 0
-1207 -1840 0
-1208 -1842 0
-1209 -1843 0
-1210 -1844 0
-1208 -1849 0
-1209 -1850 0
-1210 -1851 0
-1208 -1867 0
-1209 -1868 0
-1210 -1869 0
-1207 -1871 0
-1208 -1874 0
-1209 -1875 0
-1210 -1876 0
-1208 -1907 0
-1209 -1908 0
-1210 -1909 0
-1207 -1912 0
-1209 -1914 0
-1210 -1915 0
-1207 -1918 0
-1208 -1921 0
-1209 -1922 0
-1210 -1923 0
-1205 -1931 0
-1206 -1932 0
-1207 -1933 0
-1208 -1934 0
-1209 -1935 0
-1210 -1936 0
-1205 -1938 0
-1207 -1939 0
-1209 -1942 0
-1210 -1943 0
-1207 -1980 0
-1208 -1981 0
-1209 -1982 0
-1210 -1983 0
-1208 -1987 0
-1209 -1988 0
-1210 -1989 0
-1211 -1261 0
-1214 -1264 0
-1216 -1266 0
-1217 -1267 0
-1211 -1275 0
-1214 -1278 0
-1216 -1279 0
-1217 -1280 0
-1211 -1287 0
-1213 -1289 0
-1214 -1290 0
-1215 -1291 0
-1216 -1292 0
-1217 -1293 0
-1211 -1345 0
-1213 -1347 0
-1214 -1348 0
-1216 -1350 0
-1217 -1351 0
-1213 -1362 0
-1214 -1363 0
-1215 -1364 0
-1216 -1365 0
-1217 -1366 0
-1214 -1376 0
-1216 -1378 0
-1217 -1379 0
-1212 -1387 0
-1214 -1388 0
-1216 -1390 0
-1217 -1391 0
-1212 -1393 0
-1213 -1395 0
-1214 -1396 0
-1215 -1398 0
-1216 -1399 0
-1217 -1400 0
-1211 -1408 0
-1212 -1409 0
-1213 -1410 0
-1214 -1411 0
-1215 -1412 0
-1216 -1413 0
-1217 -1414 0
-1213 -1430 0
-1214 -1431 0
-1215 -1433 0
-1216 -1434 0
-1217 -1435 0
-1211 -1442 0
-1214 -1445 0
-1215 -1447 0
-1216 -1448 0
-1217 -1449 0
-1213 -1465 0
-1215 -1467 0
-1216 -1468 0
-1217 -1469 0
-1213 -1508 0
-1216 -1510 0
-1217 -1511 0
-1211 -1519 0
-1213 -1521 0
-1215 -1522 0
-1216 -1523 0
-1217 -1524 0
-1212 -1545 0
-1216 -1547 0
-1217 -1548 0
-1212 -1550 0
-1213 -1552 0
-1215 -1553 0
-1216 -1554 0
-1217 -1555 0
-1212 -1564 0
-1213 -1566 0
-1216 -1568 0
-1217 -1569 0
-1213 -1573 0
-1216 -1574 0
-1217 -1575 0
-1212 -1585 0
-1213 -1586 0
-1216 -1588 0
-1217 -1589 0
-1211 -1620 0
-1212 -1622 0
-1213 -1624 0
-1216 -1625 0
-1217 -1626 0
-1212 -1643 0
-1214 -1645 0
-1216 -1647 0
-1217 -1648 0
-1212 -1649 0
-1213 -1650 0
-1214 -1651 0
-1215 -1653 0
-1216 -1654 0
-1217 -1655 0
-1214 -1672 0
-1215 -1674 0
-1216 -1675 0
-1217 -1676 0
-1213 -1687 0
-1214 -1688 0
-1216 -1690 0
-1217 -1691 0
-1213 -1709 0
-1214 -1710 0
-1215 -1711 0
-1216 -1712 0
-1217 -1713 0
-1212 -1721 0
-1213 -1723 0
-1214 -1724 0
-1215 -1726 0
-1216 -1727 0
-1217 -1728 0
-1212 -1730 0
-1214 -1732 0
-1216 -1734 0
-1217 -1735 0
-1211 -1744 0
-1212 -1745 0
-1214 -1747 0
-1216 -1749 0
-1217 -1750 0
-1213 -1766 0
-1214 -1767 0
-1215 -1769 0
-1216 -1770 0
-1217 -1771 0
-1214 -1775 0
-1216 -1777 0
-1217 -1778 0
-1211 -1788 0
-1214 -1791 0
-1216 -1793 0
-1217 -1794 0
-1211 -1802 0
-1213 -1805 0
-1214 -1806 0
-1215 -1807 0
-1216 -1808 0
-1217 -1809 0
-1211 -1817 0
-1213 -1820 0
-1214 -1821 0
-1216 -1822 0
-1217 -1823 0
-1211 -1832 0
-1213 -1834 0
-1214 -1835 0
-1216 -1837 0
-1217 -1838 0
-1214 -1847 0
-1215 -1849 0
-1216 -1850 0
-1217 -1851 0
-1213 -1859 0
-1214 -1860 0
-1216 -1862 0
-1217 -1863 0
-1213 -1871 0
-1214 -1872 0
-1215 -1874 0
-1216 -1875 0
-1217 -1876 0
-1212 -1878 0
-1213 -1880 0
-1214 -1881 0
-1216 -1882 0
-1217 -1883 0
-1213 -1912 0
-1216 -1914 0
-1217 -1915 0
-1212 -1932 0
-1213 -1933 0
-1215 -1934 0
-1216 -1935 0
-1217 -1936 0
-1214 -1974 0
-1215 -1975 0
-1216 -1976 0
-1217 -1977 0
-1211 -1984 0
-1214 -1985 0
-1215 -1987 0
-1216 -1988 0
-1217 -1989 0
-1218 -1261 0
-1222 -1265 0
-1224 -1266 0
-1225 -1267 0
-1218 -1268 0
-1221 -1270 0
-1222 -1271 0
-1223 -1272 0
-1224 -1273 0
-1225 -1274 0
-1218 -1281 0
-1220 -1283 0
-1222 -1284 0
-1224 -1285 0
-1225 -1286 0
-1218 -1339 0
-1222 -1341 0
-1223 -1342 0
-1224 -1343 0
-1225 -1344 0
-1220 -1354 0
-1221 -1355 0
-1222 -1357 0
-1224 -1358 0
-1225 -1359 0
-1221 -1381 0
-1222 -1382 0
-1223 -1383 0
-1224 -1384 0
-1225 -1385 0
-1219 -1387 0
-1222 -1389 0
-1224 -1390 0
-1225 -1391 0
-1219 -1393 0
-1220 -1394 0
-1221 -1395 0
-1222 -1397 0
-1223 -1398 0
-1224 -1399 0
-1225 -1400 0
-1218 -1401 0
-1219 -1402 0
-1220 -1403 0
-1222 -1405 0
-1224 -1406 0
-1225 -1407 0
-1221 -1430 0
-1222 -1432 0
-1223 -1433 0
-1224 -1434 0
-1225 -1435 0
-1218 -1450 0
-1221 -1452 0
-1222 -1453 0
-1223 -1454 0
-1224 -1455 0
-1225 -1456 0
-1221 -1458 0
-1222 -1460 0
-1224 -1461 0
-1225 -1462 0
-1220 -1471 0
-1221 -1472 0
-1222 -1474 0
-1223 -1475 0
-1224 -1476 0
-1225 -1477 0
-1220 -1507 0
-1221 -1508 0
-1222 -1509 0
-1224 -1510 0
-1225 -1511 0
-1218 -1512 0
-1220 -1513 0
-1221 -1514 0
-1222 -1516 0
-1224 -1517 0
-1225 -1518 0
-1219 -1535 0
-1220 -1536 0
-1221 -1537 0
-1222 -1539 0
-1223 -1540 0
-1224 -1541 0
-1225 -1542 0
-1219 -1557 0
-1221 -1558 0
-1222 -1560 0
-1224 -1561 0
-1225 -1562 0
-1219 -1564 0
-1220 -1565 0
-1221 -1566 0
-1222 -1567 0
-1224 -1568 0
-1225 -1569 0
-1222 -1579 0
-1223 -1580 0
-1224 -1581 0
-1225 -1582 0
-1219 -1585 0
-1221 -1586 0
-1222 -1587 0
-1224 -1588 0
-1225 -1589 0
-1218 -1627 0
-1219 -1629 0
-1221 -1630 0
-1222 -1632 0
-1223 -1633 0
-1224 -1634 0
-1225 -1635 0
-1219 -1637 0
-1221 -1638 0
-1223 -1639 0
-1224 -1640 0
-1225 -1641 0
-1219 -1656 0
-1220 -1657 0
-1221 -1658 0
-1224 -1660 0
-1225 -1661 0
-1220 -1664 0
-1221 -1665 0
-1222 -1666 0
-1223 -1667 0
-1224 -1668 0
-1225 -1669 0
-1220 -1679 0
-1222 -1680 0
-1223 -1681 0
-1224 -1682 0
-1225 -1683 0
-1220 -1715 0
-1222 -1717 0
-1224 -1718 0
-1225 -1719 0
-1219 -1721 0
-1220 -1722 0
-1221 -1723 0
-1222 -1725 0
-1223 -1726 0
-1224 -1727 0
-1225 -1728 0
-1219 -1730 0
-1220 -1731 0
-1222 -1733 0
-1224 -1734 0
-1225 -1735 0
-1218 -1736 0
-1219 -1737 0
-1220 -1738 0
-1221 -1739 0
-1222 -1740 0
-1223 -1741 0
-1224 -1742 0
-1225 -1743 0
-1221 -1766 0
-1222 -1768 0
-1223 -1769 0
-1224 -1770 0
-1225 -1771 0
-1220 -1774 0
-1222 -1776 0
-1224 -1777 0
-1225 -1778 0
-1218 -1779 0
-1220 -1782 0
-1221 -1783 0
-1222 -1784 0
-1223 -1785 0
-1224 -1786 0
-1225 -1787 0
-1218 -1810 0
-1221 -1812 0
-1222 -1814 0
-1224 -1815 0
-1225 -1816 0
-1218 -1824 0
-1220 -1826 0
-1222 -1828 0
-1223 -1829 0
-1224 -1830 0
-1225 -1831 0
-1218 -1832 0
-1220 -1833 0
-1221 -1834 0
-1222 -1836 0
-1224 -1837 0
-1225 -1838 0
-1221 -1840 0
-1223 -1842 0
-1224 -1843 0
-1225 -1844 0
-1220 -1853 0
-1223 -1855 0
-1224 -1856 0
-1225 -1857 0
-1219 -1884 0
-1220 -1885 0
-1222 -1886 0
-1223 -1887 0
-1224 -1888 0
-1225 -1889 0
-1220 -1904 0
-1222 -1906 0
-1223 -1907 0
-1224 -1908 0
-1225 -1909 0
-1220 -1917 0
-1221 -1918 0
-1222 -1920 0
-1223 -1921 0
-1224 -1922 0
-1225 -1923 0
-1219 -1932 0
-1221 -1933 0
-1223 -1934 0
-1224 -1935 0
-1225 -1936 0
-1220 -1973 0
-1223 -1975 0
-1224 -1976 0
-1225 -1977 0
-1218 -1978 0
-1220 -1979 0
-1221 -1980 0
-1223 -1981 0
-1224 -1982 0
-1225 -1983 0
-1228 -1249 0
-1230 -1250 0
-1231 -1251 0
-1232 -1252 0
-1227 -1257 0
-1229 -1258 0
-1231 -1259 0
-1232 -1260 0
-1227 -1335 0
-1230 -1336 0
-1231 -1337 0
-1232 -1338 0
-1227 -1355 0
-1228 -1356 0
-1229 -1357 0
-1231 -1358 0
-1232 -1359 0
-1227 -1362 0
-1228 -1363 0
-1230 -1364 0
-1231 -1365 0
-1232 -1366 0
-1226 -1369 0
-1227 -1370 0
-1228 -1371 0
-1231 -1372 0
-1232 -1373 0
-1226 -1402 0
-1228 -1404 0
-1229 -1405 0
-1231 -1406 0
-1232 -1407 0
-1226 -1409 0
-1227 -1410 0
-1228 -1411 0
-1230 -1412 0
-1231 -1413 0
-1232 -1414 0
-1226 -1415 0
-1227 -1416 0
-1228 -1417 0
-1229 -1418 0
-1230 -1419 0
-1231 -1420 0
-1232 -1421 0
-1226 -1422 0
-1227 -1424 0
-1228 -1425 0
-1231 -1426 0
-1232 -1427 0
-1227 -1430 0
-1228 -1431 0
-1229 -1432 0
-1230 -1433 0
-1231 -1434 0
-1232 -1435 0
-1228 -1445 0
-1229 -1446 0
-1230 -1447 0
-1231 -1448 0
-1232 -1449 0
-1227 -1452 0
-1229 -1453 0
-1230 -1454 0
-1231 -1455 0
-1232 -1456 0
-1227 -1458 0
-1228 -1459 0
-1229 -1460 0
-1231 -1461 0
-1232 -1462 0
-1227 -1465 0
-1229 -1466 0
-1230 -1467 0
-1231 -1468 0
-1232 -1469 0
-1227 -1494 0
-1228 -1495 0
-1230 -1496 0
-1231 -1497 0
-1232 -1498 0
-1227 -1501 0
-1228 -1502 0
-1229 -1503 0
-1231 -1504 0
-1232 -1505 0
-1226 -1550 0
-1227 -1552 0
-1230 -1553 0
-1231 -1554 0
-1232 -1555 0
-1226 -1557 0
-1227 -1558 0
-1228 -1559 0
-1229 -1560 0
-1231 -1561 0
-1232 -1562 0
-1226 -1564 0
-1227 -1566 0
-1229 -1567 0
-1231 -1568 0
-1232 -1569 0
-1227 -1593 0
-1228 -1594 0
-1229 -1595 0
-1231 -1596 0
-1232 -1597 0
-1227 -1600 0
-1228 -1601 0
-1230 -1602 0
-1231 -1603 0
-1232 -1604 0
-1226 -1607 0
-1227 -1608 0
-1228 -1609 0
-1231 -1610 0
-1232 -1611 0
-1226 -1613 0
-1227 -1615 0
-1228 -1616 0
-1230 -1617 0
-1231 -1618 0
-1232 -1619 0
-1226 -1649 0
-1227 -1650 0
-1228 -1651 0
-1229 -1652 0
-1230 -1653 0
-1231 -1654 0
-1232 -1655 0
-1226 -1656 0
-1227 -1658 0
-1228 -1659 0
-1231 -1660 0
-1232 -1661 0
-1227 -1665 0
-1229 -1666 0
-1230 -1667 0
-1231 -1668 0
-1232 -1669 0
-1228 -1672 0
-1229 -1673 0
-1230 -1674 0
-1231 -1675 0
-1232 -1676 0
-1229 -1680 0
-1230 -1681 0
-1231 -1682 0
-1232 -1683 0
-1227 -1687 0
-1228 -1688 0
-1229 -1689 0
-1231 -1690 0
-1232 -1691 0
-1226 -1701 0
-1229 -1703 0
-1230 -1704 0
-1231 -1705 0
-1232 -1706 0
-1226 -1737 0
-1227 -1739 0
-1229 -1740 0
-1230 -1741 0
-1231 -1742 0
-1232 -1743 0
-1226 -1745 0
-1228 -1747 0
-1229 -1748 0
-1231 -1749 0
-1232 -1750 0
-1226 -1751 0
-1229 -1753 0
-1230 -1754 0
-1231 -1755 0
-1232 -1756 0
-1226 -1757 0
-1227 -1758 0
-1228 -1759 0
-1229 -1760 0
-1230 -1761 0
-1231 -1762 0
-1232 -1763 0
-1227 -1766 0
-1228 -1767 0
-1229 -1768 0
-1230 -1769 0
-1231 -1770 0
-1232 -1771 0
-1228 -1775 0
-1229 -1776 0
-1231 -1777 0
-1232 -1778 0
-1227 -1805 0
-1228 -1806 0
-1230 -1807 0
-1231 -1808 0
-1232 -1809 0
-1227 -1812 0
-1228 -1813 0
-1229 -1814 0
-1231 -1815 0
-1232 -1816 0
-1227 -1820 0
-1228 -1821 0
-1231 -1822 0
-1232 -1823 0
-1228 -1827 0
-1229 -1828 0
-1230 -1829 0
-1231 -1830 0
-1232 -1831 0
-1227 -1840 0
-1228 -1841 0
-1230 -1842 0
-1231 -1843 0
-1232 -1844 0
-1228 -1847 0
-1229 -1848 0
-1230 -1849 0
-1231 -1850 0
-1232 -1851 0
-1228 -1854 0
-1230 -1855 0
-1231 -1856 0
-1232 -1857 0
-1227 -1859 0
-1228 -1860 0
-1229 -1861 0
-1231 -1862 0
-1232 -1863 0
-1227 -1918 0
-1228 -1919 0
-1229 -1920 0
-1230 -1921 0
-1231 -1922 0
-1232 -1923 0
-1226 -1925 0
-1228 -1926 0
-1229 -1927 0
-1230 -1928 0
-1231 -1929 0
-1232 -1930 0
-1228 -1960 0
-1229 -1961 0
-1230 -1962 0
-1231 -1963 0
-1232 -1964 0
-1227 -1967 0
-1229 -1968 0
-1230 -1969 0
-1231 -1970 0
-1232 -1971 0
-1235 -1353 0
-1236 -1354 0
-1238 -1358 0
-1239 -1359 0
-1235 -1361 0
-1237 -1364 0
-1238 -1365 0
-1239 -1366 0
-1236 -1375 0
-1238 -1378 0
-1239 -1379 0
-1237 -1383 0
-1238 -1384 0
-1239 -1385 0
-1235 -1392 0
-1236 -1394 0
-1237 -1398 0
-1238 -1399 0
-1239 -1400 0
-1233 -1401 0
-1236 -1403 0
-1238 -1406 0
-1239 -1407 0
-1233 -1408 0
-1237 -1412 0
-1238 -1413 0
-1239 -1414 0
-1237 -1419 0
-1238 -1420 0
-1239 -1421 0
-1236 -1423 0
-1238 -1426 0
-1239 -1427 0
-1233 -1442 0
-1235 -1443 0
-1236 -1444 0
-1237 -1447 0
-1238 -1448 0
-1239 -1449 0
-1233 -1450 0
-1235 -1451 0
-1237 -1454 0
-1238 -1455 0
-1239 -1456 0
-1235 -1457 0
-1238 -1461 0
-1239 -1462 0
-1235 -1463 0
-1236 -1464 0
-1237 -1467 0
-1238 -1468 0
-1239 -1469 0
-1236 -1471 0
-1237 -1475 0
-1238 -1476 0
-1239 -1477 0
-1233 -1512 0
-1236 -1513 0
-1238 -1517 0
-1239 -1518 0
-1233 -1519 0
-1236 -1520 0
-1237 -1522 0
-1238 -1523 0
-1239 -1524 0
-1236 -1525 0
-1237 -1529 0
-1238 -1530 0
-1239 -1531 0
-1235 -1534 0
-1236 -1536 0
-1237 -1540 0
-1238 -1541 0
-1239 -1542 0
-1235 -1544 0
-1238 -1547 0
-1239 -1548 0
-1236 -1551 0
-1237 -1553 0
-1238 -1554 0
-1239 -1555 0
-1238 -1561 0
-1239 -1562 0
-1235 -1563 0
-1236 -1565 0
-1238 -1568 0
-1239 -1569 0
-1235 -1571 0
-1236 -1572 0
-1238 -1574 0
-1239 -1575 0
-1235 -1577 0
-1237 -1580 0
-1238 -1581 0
-1239 -1582 0
-1235 -1591 0
-1236 -1592 0
-1238 -1596 0
-1239 -1597 0
-1235 -1599 0
-1237 -1602 0
-1238 -1603 0
-1239 -1604 0
-1235 -1612 0
-1236 -1614 0
-1237 -1617 0
-1238 -1618 0
-1239 -1619 0
-1233 -1620 0
-1235 -1621 0
-1236 -1623 0
-1238 -1625 0
-1239 -1626 0
-1233 -1627 0
-1235 -1628 0
-1237 -1633 0
-1238 -1634 0
-1239 -1635 0
-1235 -1636 0
-1237 -1639 0
-1238 -1640 0
-1239 -1641 0
-1235 -1642 0
-1236 -1644 0
-1238 -1647 0
-1239 -1648 0
-1237 -1653 0
-1238 -1654 0
-1239 -1655 0
-1236 -1657 0
-1238 -1660 0
-1239 -1661 0
-1235 -1678 0
-1236 -1679 0
-1237 -1681 0
-1238 -1682 0
-1239 -1683 0
-1235 -1685 0
-1236 -1686 0
-1238 -1690 0
-1239 -1691 0
-1233 -1693 0
-1236 -1694 0
-1237 -1696 0
-1238 -1697 0
-1239 -1698 0
-1236 -1708 0
-1237 -1711 0
-1238 -1712 0
-1239 -1713 0
-1236 -1715 0
-1238 -1718 0
-1239 -1719 0
-1235 -1729 0
-1236 -1731 0
-1238 -1734 0
-1239 -1735 0
-1233 -1736 0
-1236 -1738 0
-1237 -1741 0
-1238 -1742 0
-1239 -1743 0
-1233 -1744 0
-1236 -1746 0
-1238 -1749 0
-1239 -1750 0
-1236 -1752 0
-1237 -1754 0
-1238 -1755 0
-1239 -1756 0
-1237 -1761 0
-1238 -1762 0
-1239 -1763 0
-1233 -1817 0
-1235 -1818 0
-1236 -1819 0
-1238 -1822 0
-1239 -1823 0
-1233 -1824 0
-1235 -1825 0
-1236 -1826 0
-1237 -1829 0
-1238 -1830 0
-1239 -1831 0
-1233 -1832 0
-1236 -1833 0
-1238 -1837 0
-1239 -1838 0
-1235 -1852 0
-1236 -1853 0
-1237 -1855 0
-1238 -1856 0
-1239 -1857 0
-1235 -1858 0
-1238 -1862 0
-1239 -1863 0
-1233 -1864 0
-1237 -1867 0
-1238 -1868 0
-1239 -1869 0
-1236 -1870 0
-1237 -1874 0
-1238 -1875 0
-1239 -1876 0
-1234 -1903 0
-1236 -1904 0
-1237 -1907 0
-1238 -1908 0
-1239 -1909 0
-1234 -1910 0
-1236 -1911 0
-1238 -1914 0
-1239 -1915 0
-1244 -1378 0
-1245 -1379 0
-1243 -1381 0
-1244 -1384 0
-1245 -1385 0
-1241 -1386 0
-1244 -1390 0
-1245 -1391 0
-1240 -1401 0
-1244 -1406 0
-1245 -1407 0
-1240 -1408 0
-1243 -1410 0
-1244 -1413 0
-1245 -1414 0
-1243 -1416 0
-1244 -1420 0
-1245 -1421 0
-1243 -1424 0
-1244 -1426 0
-1245 -1427 0
-1243 -1472 0
-1244 -1476 0
-1245 -1477 0
-1242 -1534 0
-1243 -1537 0
-1244 -1541 0
-1245 -1542 0
-1242 -1544 0
-1244 -1547 0
-1245 -1548 0
-1242 -1563 0
-1243 -1566 0
-1244 -1568 0
-1245 -1569 0
-1242 -1591 0
-1243 -1593 0
-1244 -1596 0
-1245 -1597 0
-1242 -1599 0
-1243 -1600 0
-1244 -1603 0
-1245 -1604 0
-1241 -1605 0
-1242 -1606 0
-1243 -1608 0
-1244 -1610 0
-1245 -1611 0
-1240 -1620 0
-1242 -1621 0
-1243 -1624 0
-1244 -1625 0
-1245 -1626 0
-1240 -1627 0
-1242 -1628 0
-1243 -1630 0
-1244 -1634 0
-1245 -1635 0
-1242 -1636 0
-1243 -1638 0
-1244 -1640 0
-1245 -1641 0
-1242 -1642 0
-1244 -1647 0
-1245 -1648 0
-1241 -1663 0
-1243 -1665 0
-1244 -1668 0
-1245 -1669 0
-1241 -1671 0
-1244 -1675 0
-1245 -1676 0
-1240 -1693 0
-1244 -1697 0
-1245 -1698 0
-1243 -1709 0
-1244 -1712 0
-1245 -1713 0
-1244 -1718 0
-1245 -1719 0
-1241 -1720 0
-1243 -1723 0
-1244 -1727 0
-1245 -1728 0
-1240 -1736 0
-1243 -1739 0
-1244 -1742 0
-1245 -1743 0
-1240 -1744 0
-1244 -1749 0
-1245 -1750 0
-1244 -1755 0
-1245 -1756 0
-1243 -1758 0
-1244 -1762 0
-1245 -1763 0
-1240 -1802 0
-1241 -1803 0
-1243 -1805 0
-1244 -1808 0
-1245 -1809 0
-1240 -1810 0
-1241 -1811 0
-1243 -1812 0
-1244 -1815 0
-1245 -1816 0
-1240 -1832 0
-1243 -1834 0
-1244 -1837 0
-1245 -1838 0
-1241 -1839 0
-1243 -1840 0
-1244 -1843 0
-1245 -1844 0
-1241 -1845 0
-1244 -1850 0
-1245 -1851 0
-1240 -1864 0
-1244 -1868 0
-1245 -1869 0
-1243 -1871 0
-1244 -1875 0
-1245 -1876 0
-1242 -1890 0
-1243 -1892 0
-1244 -1895 0
-1245 -1896 0
-1242 -1897 0
-1244 -1901 0
-1245 -1902 0
-1241 -1903 0
-1244 -1908 0
-1245 -1909 0
-1241 -1910 0
-1243 -1912 0
-1244 -1914 0
-1245 -1915 0
-1243 -1918 0
-1244 -1922 0
-1245 -1923 0
-1242 -1931 0
-1243 -1933 0
-1244 -1935 0
-1245 -1936 0
-1240 -1978 0
-1243 -1980 0
-1244 -1982 0
-1245 -1983 0
-1240 -1984 0
-1244 -1988 0
-1245 -1989 0
-1243 -1992 0
-1244 -1996 0
-1245 -1997 0
-1246 -1345 0
-1249 -1348 0
-1251 -1350 0
-1252 -1351 0
-1248 -1361 0
-1249 -1363 0
-1250 -1364 0
-1251 -1365 0
-1252 -1366 0
-1249 -1376 0
-1251 -1378 0
-1252 -1379 0
-1247 -1386 0
-1249 -1388 0
-1251 -1390 0
-1252 -1391 0
-1248 -1392 0
-1249 -1396 0
-1250 -1398 0
-1251 -1399 0
-1252 -1400 0
-1246 -1408 0
-1249 -1411 0
-1250 -1412 0
-1251 -1413 0
-1252 -1414 0
-1249 -1425 0
-1251 -1426 0
-1252 -1427 0
-1247 -1436 0
-1248 -1437 0
-1250 -1439 0
-1251 -1440 0
-1252 -1441 0
-1246 -1450 0
-1248 -1451 0
-1250 -1454 0
-1251 -1455 0
-1252 -1456 0
-1248 -1463 0
-1250 -1467 0
-1251 -1468 0
-1252 -1469 0
-1247 -1506 0
-1251 -1510 0
-1252 -1511 0
-1246 -1519 0
-1250 -1522 0
-1251 -1523 0
-1252 -1524 0
-1248 -1544 0
-1251 -1547 0
-1252 -1548 0
-1250 -1553 0
-1251 -1554 0
-1252 -1555 0
-1248 -1563 0
-1251 -1568 0
-1252 -1569 0
-1248 -1577 0
-1249 -1578 0
-1250 -1580 0
-1251 -1581 0
-1252 -1582 0
-1248 -1591 0
-1249 -1594 0
-1251 -1596 0
-1252 -1597 0
-1247 -1605 0
-1248 -1606 0
-1249 -1609 0
-1251 -1610 0
-1252 -1611 0
-1248 -1612 0
-1249 -1616 0
-1250 -1617 0
-1251 -1618 0
-1252 -1619 0
-1246 -1627 0
-1248 -1628 0
-1249 -1631 0
-1250 -1633 0
-1251 -1634 0
-1252 -1635 0
-1248 -1642 0
-1249 -1645 0
-1251 -1647 0
-1252 -1648 0
-1249 -1651 0
-1250 -1653 0
-1251 -1654 0
-1252 -1655 0
-1247 -1671 0
-1249 -1672 0
-1250 -1674 0
-1251 -1675 0
-1252 -1676 0
-1248 -1685 0
-1249 -1688 0
-1251 -1690 0
-1252 -1691 0
-1249 -1710 0
-1250 -1711 0
-1251 -1712 0
-1252 -1713 0
-1247 -1720 0
-1249 -1724 0
-1250 -1726 0
-1251 -1727 0
-1252 -1728 0
-1248 -1729 0
-1249 -1732 0
-1251 -1734 0
-1252 -1735 0
-1246 -1744 0
-1249 -1747 0
-1251 -1749 0
-1252 -1750 0
-1249 -1759 0
-1250 -1761 0
-1251 -1762 0
-1252 -1763 0
-1247 -1795 0
-1248 -1796 0
-1249 -1799 0
-1251 -1800 0
-1252 -1801 0
-1246 -1810 0
-1247 -1811 0
-1249 -1813 0
-1251 -1815 0
-1252 -1816 0
-1246 -1824 0
-1248 -1825 0
-1249 -1827 0
-1250 -1829 0
-1251 -1830 0
-1252 -1831 0
-1247 -1845 0
-1249 -1847 0
-1250 -1849 0
-1251 -1850 0
-1252 -1851 0
-1248 -1858 0
-1249 -1860 0
-1251 -1862 0
-1252 -1863 0
-1249 -1872 0
-1250 -1874 0
-1251 -1875 0
-1252 -1876 0
-1249 -1881 0
-1251 -1882 0
-1252 -1883 0
-1248 -1890 0
-1250 -1894 0
-1251 -1895 0
-1252 -1896 0
-1247 -1910 0
-1251 -1914 0
-1252 -1915 0
-1248 -1931 0
-1250 -1934 0
-1251 -1935 0
-1252 -1936 0
-1248 -1938 0
-1249 -1940 0
-1251 -1942 0
-1252 -1943 0
-1248 -1972 0
-1249 -1974 0
-1250 -1975 0
-1251 -1976 0
-1252 -1977 0
-1246 -1984 0
-1249 -1985 0
-1250 -1987 0
-1251 -1988 0
-1252 -1989 0
-1249 -1993 0
-1250 -1995 0
-1251 -1996 0
-1252 -1997 0
-1253 -1339 0
-1258 -1341 0
-1259 -1343 0
-1260 -1344 0
-1255 -1353 0
-1256 -1354 0
-1257 -1355 0
-1258 -1357 0
-1259 -1358 0
-1260 -1359 0
-1257 -1381 0
-1258 -1382 0
-1259 -1384 0
-1260 -1385 0
-1254 -1386 0
-1258 -1389 0
-1259 -1390 0
-1260 -1391 0
-1255 -1392 0
-1256 -1394 0
-1257 -1395 0
-1258 -1397 0
-1259 -1399 0
-1260 -1400 0
-1253 -1401 0
-1256 -1403 0
-1258 -1405 0
-1259 -1406 0
-1260 -1407 0
-1257 -1416 0
-1258 -1418 0
-1259 -1420 0
-1260 -1421 0
-1254 -1436 0
-1255 -1437 0
-1258 -1438 0
-1259 -1440 0
-1260 -1441 0
-1253 -1442 0
-1255 -1443 0
-1256 -1444 0
-1258 -1446 0
-1259 -1448 0
-1260 -1449 0
-1255 -1457 0
-1257 -1458 0
-1258 -1460 0
-1259 -1461 0
-1260 -1462 0
-1256 -1471 0
-1257 -1472 0
-1258 -1474 0
-1259 -1476 0
-1260 -1477 0
-1254 -1506 0
-1256 -1507 0
-1257 -1508 0
-1258 -1509 0
-1259 -1510 0
-1260 -1511 0
-1253 -1512 0
-1256 -1513 0
-1257 -1514 0
-1258 -1516 0
-1259 -1517 0
-1260 -1518 0
-1256 -1525 0
-1257 -1526 0
-1258 -1528 0
-1259 -1530 0
-1260 -1531 0
-1255 -1534 0
-1256 -1536 0
-1257 -1537 0
-1258 -1539 0
-1259 -1541 0
-1260 -1542 0
-1257 -1558 0
-1258 -1560 0
-1259 -1561 0
-1260 -1562 0
-1255 -1563 0
-1256 -1565 0
-1257 -1566 0
-1258 -1567 0
-1259 -1568 0
-1260 -1569 0
-1255 -1571 0
-1256 -1572 0
-1257 -1573 0
-1259 -1574 0
-1260 -1575 0
-1255 -1599 0
-1257 -1600 0
-1259 -1603 0
-1260 -1604 0
-1254 -1605 0
-1255 -1606 0
-1257 -1608 0
-1259 -1610 0
-1260 -1611 0
-1255 -1612 0
-1256 -1614 0
-1257 -1615 0
-1259 -1618 0
-1260 -1619 0
-1253 -1620 0
-1255 -1621 0
-1256 -1623 0
-1257 -1624 0
-1259 -1625 0
-1260 -1626 0
-1255 -1636 0
-1257 -1638 0
-1259 -1640 0
-1260 -1641 0
-1256 -1657 0
-1257 -1658 0
-1259 -1660 0
-1260 -1661 0
-1254 -1663 0
-1256 -1664 0
-1257 -1665 0
-1258 -1666 0
-1259 -1668 0
-1260 -1669 0
-1255 -1678 0
-1256 -1679 0
-1258 -1680 0
-1259 -1682 0
-1260 -1683 0
-1256 -1715 0
-1258 -1717 0
-1259 -1718 0
-1260 -1719 0
-1254 -1720 0
-1256 -1722 0
-1257 -1723 0
-1258 -1725 0
-1259 -1727 0
-1260 -1728 0
-1255 -1729 0
-1256 -1731 0
-1258 -1733 0
-1259 -1734 0
-1260 -1735 0
-1253 -1736 0
-1256 -1738 0
-1257 -1739 0
-1258 -1740 0
-1259 -1742 0
-1260 -1743 0
-1256 -1752 0
-1258 -1753 0
-1259 -1755 0
-1260 -1756 0
-1254 -1795 0
-1255 -1796 0
-1256 -1797 0
-1257 -1798 0
-1259 -1800 0
-1260 -1801 0
-1253 -1802 0
-1254 -1803 0
-1256 -1804 0
-1257 -1805 0
-1259 -1808 0
-1260 -1809 0
-1253 -1817 0
-1255 -1818 0
-1256 -1819 0
-1257 -1820 0
-1259 -1822 0
-1260 -1823 0
-1254 -1839 0
-1257 -1840 0
-1259 -1843 0
-1260 -1844 0
-1255 -1852 0
-1256 -1853 0
-1259 -1856 0
-1260 -1857 0
-1256 -1885 0
-1258 -1886 0
-1259 -1888 0
-1260 -1889 0
-1255 -1897 0
-1256 -1898 0
-1259 -1901 0
-1260 -1902 0
-1254 -1903 0
-1256 -1904 0
-1258 -1906 0
-1259 -1908 0
-1260 -1909 0
-1256 -1917 0
-1257 -1918 0
-1258 -1920 0
-1259 -1922 0
-1260 -1923 0
-1255 -1931 0
-1257 -1933 0
-1259 -1935 0
-1260 -1936 0
-1255 -1938 0
-1257 -1939 0
-1258 -1941 0
-1259 -1942 0
-1260 -1943 0
-1255 -1972 0
-1256 -1973 0
-1259 -1976 0
-1260 -1977 0
-1253 -1978 0
-1256 -1979 0
-1257 -1980 0
-1259 -1982 0
-1260 -1983 0
-1261 -1333 0
-1266 -1337 0
-1267 -1338 0
-1263 -1353 0
-1264 -1356 0
-1265 -1357 0
-1266 -1358 0
-1267 -1359 0
-1263 -1361 0
-1264 -1363 0
-1266 -1365 0
-1267 -1366 0
-1262 -1367 0
-1263 -1368 0
-1264 -1371 0
-1266 -1372 0
-1267 -1373 0
-1261 -1401 0
-1264 -1404 0
-1265 -1405 0
-1266 -1406 0
-1267 -1407 0
-1261 -1408 0
-1264 -1411 0
-1266 -1413 0
-1267 -1414 0
-1263 -1457 0
-1264 -1459 0
-1265 -1460 0
-1266 -1461 0
-1267 -1462 0
-1263 -1463 0
-1265 -1466 0
-1266 -1468 0
-1267 -1469 0
-1261 -1491 0
-1262 -1492 0
-1264 -1495 0
-1266 -1497 0
-1267 -1498 0
-1261 -1499 0
-1262 -1500 0
-1264 -1502 0
-1265 -1503 0
-1266 -1504 0
-1267 -1505 0
-1264 -1527 0
-1265 -1528 0
-1266 -1530 0
-1267 -1531 0
-1266 -1554 0
-1267 -1555 0
-1264 -1559 0
-1265 -1560 0
-1266 -1561 0
-1267 -1562 0
-1263 -1563 0
-1265 -1567 0
-1266 -1568 0
-1267 -1569 0
-1263 -1571 0
-1266 -1574 0
-1267 -1575 0
-1263 -1577 0
-1264 -1578 0
-1265 -1579 0
-1266 -1581 0
-1267 -1582 0
-1262 -1583 0
-1263 -1584 0
-1265 -1587 0
-1266 -1588 0
-1267 -1589 0
-1261 -1620 0
-1263 -1621 0
-1266 -1625 0
-1267 -1626 0
-1261 -1627 0
-1263 -1628 0
-1264 -1631 0
-1265 -1632 0
-1266 -1634 0
-1267 -1635 0
-1264 -1651 0
-1265 -1652 0
-1266 -1654 0
-1267 -1655 0
-1264 -1659 0
-1266 -1660 0
-1267 -1661 0
-1262 -1663 0
-1265 -1666 0
-1266 -1668 0
-1267 -1669 0
-1262 -1671 0
-1264 -1672 0
-1265 -1673 0
-1266 -1675 0
-1267 -1676 0
-1263 -1678 0
-1265 -1680 0
-1266 -1682 0
-1267 -1683 0
-1263 -1685 0
-1264 -1688 0
-1265 -1689 0
-1266 -1690 0
-1267 -1691 0
-1262 -1699 0
-1263 -1700 0
-1265 -1703 0
-1266 -1705 0
-1267 -1706 0
-1261 -1736 0
-1265 -1740 0
-1266 -1742 0
-1267 -1743 0
-1261 -1744 0
-1264 -1747 0
-1265 -1748 0
-1266 -1749 0
-1267 -1750 0
-1261 -1779 0
-1262 -1780 0
-1263 -1781 0
-1265 -1784 0
-1266 -1786 0
-1267 -1787 0
-1261 -1788 0
-1262 -1789 0
-1263 -1790 0
-1264 -1791 0
-1265 -1792 0
-1266 -1793 0
-1267 -1794 0
-1261 -1832 0
-1264 -1835 0
-1265 -1836 0
-1266 -1837 0
-1267 -1838 0
-1262 -1839 0
-1264 -1841 0
-1266 -1843 0
-1267 -1844 0
-1262 -1845 0
-1264 -1847 0
-1265 -1848 0
-1266 -1850 0
-1267 -1851 0
-1263 -1852 0
-1264 -1854 0
-1266 -1856 0
-1267 -1857 0
-1263 -1858 0
-1264 -1860 0
-1265 -1861 0
-1266 -1862 0
-1267 -1863 0
-1263 -1890 0
-1265 -1893 0
-1266 -1895 0
-1267 -1896 0
-1263 -1897 0
-1264 -1899 0
-1266 -1901 0
-1267 -1902 0
-1264 -1919 0
-1265 -1920 0
-1266 -1922 0
-1267 -1923 0
-1263 -1924 0
-1264 -1926 0
-1265 -1927 0
-1266 -1929 0
-1267 -1930 0
-1261 -1957 0
-1263 -1958 0
-1264 -1960 0
-1265 -1961 0
-1266 -1963 0
-1267 -1964 0
-1261 -1965 0
-1263 -1966 0
-1265 -1968 0
-1266 -1970 0
-1267 -1971 0
-1264 -1993 0
-1265 -1994 0
-1266 -1996 0
-1267 -1997 0
-1268 -1326 0
-1270 -1329 0
-1273 -1331 0
-1274 -1332 0
-1270 -1355 0
-1271 -1357 0
-1273 -1358 0
-1274 -1359 0
-1269 -1367 0
-1270 -1370 0
-1273 -1372 0
-1274 -1373 0
-1270 -1381 0
-1271 -1382 0
-1272 -1383 0
-1273 -1384 0
-1274 -1385 0
-1270 -1395 0
-1271 -1397 0
-1272 -1398 0
-1273 -1399 0
-1274 -1400 0
-1268 -1408 0
-1270 -1410 0
-1272 -1412 0
-1273 -1413 0
-1274 -1414 0
-1270 -1416 0
-1271 -1418 0
-1272 -1419 0
-1273 -1420 0
-1274 -1421 0
-1269 -1428 0
-1270 -1430 0
-1271 -1432 0
-1272 -1433 0
-1273 -1434 0
-1274 -1435 0
-1268 -1450 0
-1270 -1452 0
-1271 -1453 0
-1272 -1454 0
-1273 -1455 0
-1274 -1456 0
-1270 -1458 0
-1271 -1460 0
-1273 -1461 0
-1274 -1462 0
-1270 -1472 0
-1271 -1474 0
-1272 -1475 0
-1273 -1476 0
-1274 -1477 0
-1269 -1484 0
-1270 -1487 0
-1273 -1489 0
-1274 -1490 0
-1268 -1499 0
-1269 -1500 0
-1270 -1501 0
-1271 -1503 0
-1273 -1504 0
-1274 -1505 0
-1268 -1519 0
-1270 -1521 0
-1272 -1522 0
-1273 -1523 0
-1274 -1524 0
-1270 -1526 0
-1271 -1528 0
-1272 -1529 0
-1273 -1530 0
-1274 -1531 0
-1270 -1537 0
-1271 -1539 0
-1272 -1540 0
-1273 -1541 0
-1274 -1542 0
-1270 -1558 0
-1271 -1560 0
-1273 -1561 0
-1274 -1562 0
-1270 -1566 0
-1271 -1567 0
-1273 -1568 0
-1274 -1569 0
-1270 -1573 0
-1273 -1574 0
-1274 -1575 0
-1269 -1583 0
-1270 -1586 0
-1271 -1587 0
-1273 -1588 0
-1274 -1589 0
-1270 -1600 0
-1272 -1602 0
-1273 -1603 0
-1274 -1604 0
-1270 -1615 0
-1272 -1617 0
-1273 -1618 0
-1274 -1619 0
-1268 -1627 0
-1270 -1630 0
-1271 -1632 0
-1272 -1633 0
-1273 -1634 0
-1274 -1635 0
-1270 -1638 0
-1272 -1639 0
-1273 -1640 0
-1274 -1641 0
-1270 -1658 0
-1273 -1660 0
-1274 -1661 0
-1269 -1671 0
-1271 -1673 0
-1272 -1674 0
-1273 -1675 0
-1274 -1676 0
-1271 -1680 0
-1272 -1681 0
-1273 -1682 0
-1274 -1683 0
-1268 -1693 0
-1271 -1695 0
-1272 -1696 0
-1273 -1697 0
-1274 -1698 0
-1269 -1699 0
-1271 -1703 0
-1272 -1704 0
-1273 -1705 0
-1274 -1706 0
-1271 -1717 0
-1273 -1718 0
-1274 -1719 0
-1271 -1733 0
-1273 -1734 0
-1274 -1735 0
-1268 -1744 0
-1271 -1748 0
-1273 -1749 0
-1274 -1750 0
-1271 -1753 0
-1272 -1754 0
-1273 -1755 0
-1274 -1756 0
-1269 -1772 0
-1271 -1776 0
-1273 -1777 0
-1274 -1778 0
-1268 -1788 0
-1269 -1789 0
-1271 -1792 0
-1273 -1793 0
-1274 -1794 0
-1268 -1824 0
-1271 -1828 0
-1272 -1829 0
-1273 -1830 0
-1274 -1831 0
-1269 -1845 0
-1271 -1848 0
-1272 -1849 0
-1273 -1850 0
-1274 -1851 0
-1272 -1855 0
-1273 -1856 0
-1274 -1857 0
-1268 -1864 0
-1271 -1866 0
-1272 -1867 0
-1273 -1868 0
-1274 -1869 0
-1270 -1880 0
-1273 -1882 0
-1274 -1883 0
-1270 -1892 0
-1271 -1893 0
-1272 -1894 0
-1273 -1895 0
-1274 -1896 0
-1269 -1903 0
-1271 -1906 0
-1272 -1907 0
-1273 -1908 0
-1274 -1909 0
-1271 -1927 0
-1272 -1928 0
-1273 -1929 0
-1274 -1930 0
-1270 -1952 0
-1271 -1953 0
-1272 -1954 0
-1273 -1955 0
-1274 -1956 0
-1268 -1965 0
-1270 -1967 0
-1271 -1968 0
-1272 -1969 0
-1273 -1970 0
-1274 -1971 0
-1270 -1992 0
-1271 -1994 0
-1272 -1995 0
-1273 -1996 0
-1274 -1997 0
-1275 -1319 0
-1279 -1324 0
-1280 -1325 0
-1278 -1363 0
-1279 -1365 0
-1280 -1366 0
-1276 -1367 0
-1278 -1371 0
-1279 -1372 0
-1280 -1373 0
-1277 -1375 0
-1278 -1376 0
-1279 -1378 0
-1280 -1379 0
-1277 -1394 0
-1278 -1396 0
-1279 -1399 0
-1280 -1400 0
-1275 -1401 0
-1277 -1403 0
-1278 -1404 0
-1279 -1406 0
-1280 -1407 0
-1277 -1423 0
-1278 -1425 0
-1279 -1426 0
-1280 -1427 0
-1276 -1428 0
-1278 -1431 0
-1279 -1434 0
-1280 -1435 0
-1275 -1442 0
-1277 -1444 0
-1278 -1445 0
-1279 -1448 0
-1280 -1449 0
-1277 -1464 0
-1279 -1468 0
-1280 -1469 0
-1276 -1484 0
-1277 -1486 0
-1278 -1488 0
-1279 -1489 0
-1280 -1490 0
-1275 -1491 0
-1276 -1492 0
-1277 -1493 0
-1278 -1495 0
-1279 -1497 0
-1280 -1498 0
-1275 -1512 0
-1277 -1513 0
-1278 -1515 0
-1279 -1517 0
-1280 -1518 0
-1279 -1547 0
-1280 -1548 0
-1277 -1551 0
-1279 -1554 0
-1280 -1555 0
-1277 -1565 0
-1279 -1568 0
-1280 -1569 0
-1278 -1578 0
-1279 -1581 0
-1280 -1582 0
-1276 -1583 0
-1279 -1588 0
-1280 -1589 0
-1277 -1592 0
-1278 -1594 0
-1279 -1596 0
-1280 -1597 0
-1277 -1614 0
-1278 -1616 0
-1279 -1618 0
-1280 -1619 0
-1275 -1620 0
-1277 -1623 0
-1279 -1625 0
-1280 -1626 0
-1277 -1644 0
-1278 -1645 0
-1279 -1647 0
-1280 -1648 0
-1278 -1651 0
-1279 -1654 0
-1280 -1655 0
-1276 -1663 0
-1277 -1664 0
-1279 -1668 0
-1280 -1669 0
-1277 -1686 0
-1278 -1688 0
-1279 -1690 0
-1280 -1691 0
-1275 -1693 0
-1277 -1694 0
-1279 -1697 0
-1280 -1698 0
-1276 -1699 0
-1277 -1702 0
-1279 -1705 0
-1280 -1706 0
-1277 -1708 0
-1278 -1710 0
-1279 -1712 0
-1280 -1713 0
-1277 -1731 0
-1278 -1732 0
-1279 -1734 0
-1280 -1735 0
-1275 -1736 0
-1277 -1738 0
-1279 -1742 0
-1280 -1743 0
-1278 -1759 0
-1279 -1762 0
-1280 -1763 0
-1276 -1772 0
-1277 -1774 0
-1278 -1775 0
-1279 -1777 0
-1280 -1778 0
-1275 -1779 0
-1276 -1780 0
-1277 -1782 0
-1279 -1786 0
-1280 -1787 0
-1275 -1817 0
-1277 -1819 0
-1278 -1821 0
-1279 -1822 0
-1280 -1823 0
-1276 -1839 0
-1278 -1841 0
-1279 -1843 0
-1280 -1844 0
-1278 -1860 0
-1279 -1862 0
-1280 -1863 0
-1275 -1864 0
-1278 -1865 0
-1279 -1868 0
-1280 -1869 0
-1277 -1870 0
-1278 -1872 0
-1279 -1875 0
-1280 -1876 0
-1277 -1885 0
-1279 -1888 0
-1280 -1889 0
-1277 -1898 0
-1278 -1899 0
-1279 -1901 0
-1280 -1902 0
-1276 -1910 0
-1277 -1911 0
-1279 -1914 0
-1280 -1915 0
-1277 -1917 0
-1278 -1919 0
-1279 -1922 0
-1280 -1923 0
-1278 -1926 0
-1279 -1929 0
-1280 -1930 0
-1277 -1951 0
-1279 -1955 0
-1280 -1956 0
-1275 -1957 0
-1277 -1959 0
-1278 -1960 0
-1279 -1963 0
-1280 -1964 0
-1281 -1311 0
-1283 -1313 0
-1285 -1317 0
-1286 -1318 0
-1282 -1361 0
-1285 -1365 0
-1286 -1366 0
-1282 -1368 0
-1285 -1372 0
-1286 -1373 0
-1284 -1382 0
-1285 -1384 0
-1286 -1385 0
-1284 -1389 0
-1285 -1390 0
-1286 -1391 0
-1281 -1408 0
-1285 -1413 0
-1286 -1414 0
-1284 -1418 0
-1285 -1420 0
-1286 -1421 0
-1282 -1463 0
-1283 -1464 0
-1284 -1466 0
-1285 -1468 0
-1286 -1469 0
-1283 -1471 0
-1284 -1474 0
-1285 -1476 0
-1286 -1477 0
-1285 -1482 0
-1286 -1483 0
-1281 -1499 0
-1284 -1503 0
-1285 -1504 0
-1286 -1505 0
-1282 -1534 0
-1283 -1536 0
-1284 -1539 0
-1285 -1541 0
-1286 -1542 0
-1283 -1551 0
-1285 -1554 0
-1286 -1555 0
-1282 -1563 0
-1283 -1565 0
-1284 -1567 0
-1285 -1568 0
-1286 -1569 0
-1282 -1577 0
-1284 -1579 0
-1285 -1581 0
-1286 -1582 0
-1282 -1584 0
-1284 -1587 0
-1285 -1588 0
-1286 -1589 0
-1282 -1599 0
-1285 -1603 0
-1286 -1604 0
-1282 -1606 0
-1285 -1610 0
-1286 -1611 0
-1281 -1627 0
-1282 -1628 0
-1284 -1632 0
-1285 -1634 0
-1286 -1635 0
-1282 -1636 0
-1285 -1640 0
-1286 -1641 0
-1284 -1652 0
-1285 -1654 0
-1286 -1655 0
-1283 -1664 0
-1284 -1666 0
-1285 -1668 0
-1286 -1669 0
-1282 -1685 0
-1283 -1686 0
-1284 -1689 0
-1285 -1690 0
-1286 -1691 0
-1281 -1693 0
-1283 -1694 0
-1284 -1695 0
-1285 -1697 0
-1286 -1698 0
-1282 -1700 0
-1283 -1702 0
-1284 -1703 0
-1285 -1705 0
-1286 -1706 0
-1283 -1715 0
-1284 -1717 0
-1285 -1718 0
-1286 -1719 0
-1283 -1722 0
-1284 -1725 0
-1285 -1727 0
-1286 -1728 0
-1281 -1744 0
-1283 -1746 0
-1284 -1748 0
-1285 -1749 0
-1286 -1750 0
-1283 -1752 0
-1284 -1753 0
-1285 -1755 0
-1286 -1756 0
-1282 -1765 0
-1284 -1768 0
-1285 -1770 0
-1286 -1771 0
-1281 -1788 0
-1282 -1790 0
-1284 -1792 0
-1285 -1793 0
-1286 -1794 0
-1281 -1810 0
-1284 -1814 0
-1285 -1815 0
-1286 -1816 0
-1285 -1843 0
-1286 -1844 0
-1282 -1858 0
-1284 -1861 0
-1285 -1862 0
-1286 -1863 0
-1281 -1864 0
-1284 -1866 0
-1285 -1868 0
-1286 -1869 0
-1283 -1879 0
-1285 -1882 0
-1286 -1883 0
-1282 -1897 0
-1283 -1898 0
-1285 -1901 0
-1286 -1902 0
-1283 -1904 0
-1284 -1906 0
-1285 -1908 0
-1286 -1909 0
-1283 -1917 0
-1284 -1920 0
-1285 -1922 0
-1286 -1923 0
-1282 -1924 0
-1284 -1927 0
-1285 -1929 0
-1286 -1930 0
-1282 -1931 0
-1285 -1935 0
-1286 -1936 0
-1282 -1945 0
-1284 -1946 0
-1285 -1948 0
-1286 -1949 0
-1281 -1965 0
-1282 -1966 0
-1284 -1968 0
-1285 -1970 0
-1286 -1971 0
-1281 -1984 0
-1284 -1986 0
-1285 -1988 0
-1286 -1989 0
-1287 -1304 0
-1291 -1308 0
-1292 -1309 0
-1293 -1310 0
-1288 -1353 0
-1289 -1355 0
-1290 -1356 0
-1292 -1358 0
-1293 -1359 0
-1288 -1368 0
-1289 -1370 0
-1290 -1371 0
-1292 -1372 0
-1293 -1373 0
-1290 -1376 0
-1292 -1378 0
-1293 -1379 0
-1290 -1388 0
-1292 -1390 0
-1293 -1391 0
-1287 -1401 0
-1290 -1404 0
-1292 -1406 0
-1293 -1407 0
-1289 -1424 0
-1290 -1425 0
-1292 -1426 0
-1293 -1427 0
-1288 -1457 0
-1289 -1458 0
-1290 -1459 0
-1292 -1461 0
-1293 -1462 0
-1289 -1479 0
-1290 -1480 0
-1291 -1481 0
-1292 -1482 0
-1293 -1483 0
-1287 -1491 0
-1289 -1494 0
-1290 -1495 0
-1291 -1496 0
-1292 -1497 0
-1293 -1498 0
-1289 -1526 0
-1290 -1527 0
-1291 -1529 0
-1292 -1530 0
-1293 -1531 0
-1288 -1544 0
-1292 -1547 0
-1293 -1548 0
-1289 -1558 0
-1290 -1559 0
-1292 -1561 0
-1293 -1562 0
-1288 -1563 0
-1289 -1566 0
-1292 -1568 0
-1293 -1569 0
-1288 -1571 0
-1289 -1573 0
-1292 -1574 0
-1293 -1575 0
-1288 -1584 0
-1289 -1586 0
-1292 -1588 0
-1293 -1589 0
-1288 -1591 0
-1289 -1593 0
-1290 -1594 0
-1292 -1596 0
-1293 -1597 0
-1288 -1606 0
-1289 -1608 0
-1290 -1609 0
-1292 -1610 0
-1293 -1611 0
-1287 -1620 0
-1288 -1621 0
-1289 -1624 0
-1292 -1625 0
-1293 -1626 0
-1288 -1642 0
-1290 -1645 0
-1292 -1647 0
-1293 -1648 0
-1289 -1658 0
-1290 -1659 0
-1292 -1660 0
-1293 -1661 0
-1290 -1672 0
-1291 -1674 0
-1292 -1675 0
-1293 -1676 0
-1288 -1678 0
-1291 -1681 0
-1292 -1682 0
-1293 -1683 0
-1287 -1693 0
-1291 -1696 0
-1292 -1697 0
-1293 -1698 0
-1288 -1700 0
-1291 -1704 0
-1292 -1705 0
-1293 -1706 0
-1289 -1709 0
-1290 -1710 0
-1291 -1711 0
-1292 -1712 0
-1293 -1713 0
-1289 -1723 0
-1290 -1724 0
-1291 -1726 0
-1292 -1727 0
-1293 -1728 0
-1287 -1736 0
-1289 -1739 0
-1291 -1741 0
-1292 -1742 0
-1293 -1743 0
-1289 -1758 0
-1290 -1759 0
-1291 -1761 0
-1292 -1762 0
-1293 -1763 0
-1288 -1765 0
-1289 -1766 0
-1290 -1767 0
-1291 -1769 0
-1292 -1770 0
-1293 -1771 0
-1287 -1779 0
-1288 -1781 0
-1289 -1783 0
-1291 -1785 0
-1292 -1786 0
-1293 -1787 0
-1287 -1802 0
-1289 -1805 0
-1290 -1806 0
-1291 -1807 0
-1292 -1808 0
-1293 -1809 0
-1290 -1847 0
-1291 -1849 0
-1292 -1850 0
-1293 -1851 0
-1288 -1852 0
-1290 -1854 0
-1291 -1855 0
-1292 -1856 0
-1293 -1857 0
-1287 -1864 0
-1290 -1865 0
-1291 -1867 0
-1292 -1868 0
-1293 -1869 0
-1289 -1871 0
-1290 -1872 0
-1291 -1874 0
-1292 -1875 0
-1293 -1876 0
-1291 -1887 0
-1292 -1888 0
-1293 -1889 0
-1288 -1890 0
-1289 -1892 0
-1291 -1894 0
-1292 -1895 0
-1293 -1896 0
-1289 -1912 0
-1292 -1914 0
-1293 -1915 0
-1288 -1924 0
-1290 -1926 0
-1291 -1928 0
-1292 -1929 0
-1293 -1930 0
-1288 -1931 0
-1289 -1933 0
-1291 -1934 0
-1292 -1935 0
-1293 -1936 0
-1288 -1945 0
-1291 -1947 0
-1292 -1948 0
-1293 -1949 0
-1287 -1957 0
-1288 -1958 0
-1290 -1960 0
-1291 -1962 0
-1292 -1963 0
-1293 -1964 0
-1287 -1978 0
-1289 -1980 0
-1291 -1981 0
-1292 -1982 0
-1293 -1983 0
-1289 -1992 0
-1290 -1993 0
-1291 -1995 0
-1292 -1996 0
-1293 -1997 0
-1296 -1353 0
-1297 -1354 0
-1298 -1355 0
-1299 -1356 0
-1300 -1357 0
-1302 -1358 0
-1303 -1359 0
-1296 -1361 0
-1298 -1362 0
-1299 -1363 0
-1301 -1364 0
-1302 -1365 0
-1303 -1366 0
-1295 -1367 0
-1296 -1368 0
-1298 -1370 0
-1299 -1371 0
-1302 -1372 0
-1303 -1373 0
-1297 -1375 0
-1299 -1376 0
-1300 -1377 0
-1302 -1378 0
-1303 -1379 0
-1298 -1381 0
-1300 -1382 0
-1301 -1383 0
-1302 -1384 0
-1303 -1385 0
-1295 -1386 0
-1299 -1388 0
-1300 -1389 0
-1302 -1390 0
-1303 -1391 0
-1296 -1392 0
-1297 -1394 0
-1298 -1395 0
-1299 -1396 0
-1300 -1397 0
-1301 -1398 0
-1302 -1399 0
-1303 -1400 0
-1298 -1416 0
-1299 -1417 0
-1300 -1418 0
-1301 -1419 0
-1302 -1420 0
-1303 -1421 0
-1297 -1423 0
-1298 -1424 0
-1299 -1425 0
-1302 -1426 0
-1303 -1427 0
-1296 -1443 0
-1297 -1444 0
-1299 -1445 0
-1300 -1446 0
-1301 -1447 0
-1302 -1448 0
-1303 -1449 0
-1296 -1451 0
-1298 -1452 0
-1300 -1453 0
-1301 -1454 0
-1302 -1455 0
-1303 -1456 0
-1295 -1492 0
-1297 -1493 0
-1298 -1494 0
-1299 -1495 0
-1301 -1496 0
-1302 -1497 0
-1303 -1498 0
-1295 -1500 0
-1298 -1501 0
-1299 -1502 0
-1300 -1503 0
-1302 -1504 0
-1303 -1505 0
-1297 -1513 0
-1298 -1514 0
-1299 -1515 0
-1300 -1516 0
-1302 -1517 0
-1303 -1518 0
-1297 -1520 0
-1298 -1521 0
-1301 -1522 0
-1302 -1523 0
-1303 -1524 0
-1296 -1571 0
-1297 -1572 0
-1298 -1573 0
-1302 -1574 0
-1303 -1575 0
-1296 -1577 0
-1299 -1578 0
-1300 -1579 0
-1301 -1580 0
-1302 -1581 0
-1303 -1582 0
-1295 -1583 0
-1296 -1584 0
-1298 -1586 0
-1300 -1587 0
-1302 -1588 0
-1303 -1589 0
-1296 -1591 0
-1297 -1592 0
-1298 -1593 0
-1299 -1594 0
-1300 -1595 0
-1302 -1596 0
-1303 -1597 0
-1296 -1599 0
-1298 -1600 0
-1299 -1601 0
-1301 -1602 0
-1302 -1603 0
-1303 -1604 0
-1295 -1605 0
-1296 -1606 0
-1298 -1608 0
-1299 -1609 0
-1302 -1610 0
-1303 -1611 0
-1296 -1612 0
-1297 -1614 0
-1298 -1615 0
-1299 -1616 0
-1301 -1617 0
-1302 -1618 0
-1303 -1619 0
-1296 -1636 0
-1298 -1638 0
-1301 -1639 0
-1302 -1640 0
-1303 -1641 0
-1296 -1642 0
-1297 -1644 0
-1299 -1645 0
-1300 -1646 0
-1302 -1647 0
-1303 -1648 0
-1298 -1650 0
-1299 -1651 0
-1300 -1652 0
-1301 -1653 0
-1302 -1654 0
-1303 -1655 0
-1297 -1657 0
-1298 -1658 0
-1299 -1659 0
-1302 -1660 0
-1303 -1661 0
-1295 -1663 0
-1297 -1664 0
-1298 -1665 0
-1300 -1666 0
-1301 -1667 0
-1302 -1668 0
-1303 -1669 0
-1295 -1671 0
-1299 -1672 0
-1300 -1673 0
-1301 -1674 0
-1302 -1675 0
-1303 -1676 0
-1296 -1678 0
-1297 -1679 0
-1300 -1680 0
-1301 -1681 0
-1302 -1682 0
-1303 -1683 0
-1296 -1685 0
-1297 -1686 0
-1298 -1687 0
-1299 -1688 0
-1300 -1689 0
-1302 -1690 0
-1303 -1691 0
-1295 -1699 0
-1296 -1700 0
-1297 -1702 0
-1300 -1703 0
-1301 -1704 0
-1302 -1705 0
-1303 -1706 0
-1297 -1708 0
-1298 -1709 0
-1299 -1710 0
-1301 -1711 0
-1302 -1712 0
-1303 -1713 0
-1297 -1715 0
-1299 -1716 0
-1300 -1717 0
-1302 -1718 0
-1303 -1719 0
-1295 -1720 0
-1297 -1722 0
-1298 -1723 0
-1299 -1724 0
-1300 -1725 0
-1301 -1726 0
-1302 -1727 0
-1303 -1728 0
-1296 -1729 0
-1297 -1731 0
-1299 -1732 0
-1300 -1733 0
-1302 -1734 0
-1303 -1735 0
-1297 -1752 0
-1300 -1753 0
-1301 -1754 0
-1302 -1755 0
-1303 -1756 0
-1298 -1758 0
-1299 -1759 0
-1300 -1760 0
-1301 -1761 0
-1302 -1762 0
-1303 -1763 0
-1295 -1780 0
-1296 -1781 0
-1297 -1782 0
-1298 -1783 0
-1300 -1784 0
-1301 -1785 0
-1302 -1786 0
-1303 -1787 0
-1295 -1789 0
-1296 -1790 0
-1299 -1791 0
-1300 -1792 0
-1302 -1793 0
-1303 -1794 0
-1295 -1803 0
-1297 -1804 0
-1298 -1805 0
-1299 -1806 0
-1301 -1807 0
-1302 -1808 0
-1303 -1809 0
-1295 -1811 0
-1298 -1812 0
-1299 -1813 0
-1300 -1814 0
-1302 -1815 0
-1303 -1816 0
-1296 -1818 0
-1297 -1819 0
-1298 -1820 0
-1299 -1821 0
-1302 -1822 0
-1303 -1823 0
-1296 -1825 0
-1297 -1826 0
-1299 -1827 0
-1300 -1828 0
-1301 -1829 0
-1302 -1830 0
-1303 -1831 0
-1299 -1865 0
-1300 -1866 0
-1301 -1867 0
-1302 -1868 0
-1303 -1869 0
-1296 -1924 0
-1299 -1926 0
-1300 -1927 0
-1301 -1928 0
-1302 -1929 0
-1303 -1930 0
-1296 -1931 0
-1298 -1933 0
-1301 -1934 0
-1302 -1935 0
-1303 -1936 0
-1296 -1958 0
-1297 -1959 0
-1299 -1960 0
-1300 -1961 0
-1301 -1962 0
-1302 -1963 0
-1303 -1964 0
-1296 -1966 0
-1298 -1967 0
-1300 -1968 0
-1301 -1969 0
-1302 -1970 0
-1303 -1971 0
-1297 -1979 0
-1298 -1980 0
-1301 -1981 0
-1302 -1982 0
-1303 -1983 0
-1299 -1985 0
-1300 -1986 0
-1301 -1987 0
-1302 -1988 0
-1303 -1989 0
-1306 -1354 0
-1307 -1357 0
-1309 -1358 0
-1310 -1359 0
-1305 -1367 0
-1309 -1372 0
-1310 -1373 0
-1306 -1375 0
-1307 -1377 0
-1309 -1378 0
-1310 -1379 0
-1305 -1386 0
-1307 -1389 0
-1309 -1390 0
-1310 -1391 0
-1304 -1401 0
-1306 -1403 0
-1307 -1405 0
-1309 -1406 0
-1310 -1407 0
-1306 -1423 0
-1309 -1426 0
-1310 -1427 0
-1305 -1428 0
-1307 -1432 0
-1308 -1433 0
-1309 -1434 0
-1310 -1435 0
-1305 -1436 0
-1307 -1438 0
-1308 -1439 0
-1309 -1440 0
-1310 -1441 0
-1304 -1442 0
-1306 -1444 0
-1307 -1446 0
-1308 -1447 0
-1309 -1448 0
-1310 -1449 0
-1306 -1464 0
-1307 -1466 0
-1308 -1467 0
-1309 -1468 0
-1310 -1469 0
-1306 -1471 0
-1307 -1474 0
-1308 -1475 0
-1309 -1476 0
-1310 -1477 0
-1305 -1484 0
-1306 -1486 0
-1309 -1489 0
-1310 -1490 0
-1304 -1499 0
-1305 -1500 0
-1307 -1503 0
-1309 -1504 0
-1310 -1505 0
-1305 -1506 0
-1306 -1507 0
-1307 -1509 0
-1309 -1510 0
-1310 -1511 0
-1304 -1512 0
-1306 -1513 0
-1307 -1516 0
-1309 -1517 0
-1310 -1518 0
-1306 -1536 0
-1307 -1539 0
-1308 -1540 0
-1309 -1541 0
-1310 -1542 0
-1306 -1551 0
-1308 -1553 0
-1309 -1554 0
-1310 -1555 0
-1306 -1572 0
-1309 -1574 0
-1310 -1575 0
-1305 -1583 0
-1307 -1587 0
-1309 -1588 0
-1310 -1589 0
-1306 -1592 0
-1307 -1595 0
-1309 -1596 0
-1310 -1597 0
-1305 -1605 0
-1309 -1610 0
-1310 -1611 0
-1304 -1620 0
-1306 -1623 0
-1309 -1625 0
-1310 -1626 0
-1306 -1644 0
-1307 -1646 0
-1309 -1647 0
-1310 -1648 0
-1306 -1657 0
-1309 -1660 0
-1310 -1661 0
-1305 -1671 0
-1307 -1673 0
-1308 -1674 0
-1309 -1675 0
-1310 -1676 0
-1306 -1679 0
-1307 -1680 0
-1308 -1681 0
-1309 -1682 0
-1310 -1683 0
-1304 -1693 0
-1306 -1694 0
-1307 -1695 0
-1308 -1696 0
-1309 -1697 0
-1310 -1698 0
-1305 -1699 0
-1306 -1702 0
-1307 -1703 0
-1308 -1704 0
-1309 -1705 0
-1310 -1706 0
-1306 -1708 0
-1308 -1711 0
-1309 -1712 0
-1310 -1713 0
-1305 -1720 0
-1306 -1722 0
-1307 -1725 0
-1308 -1726 0
-1309 -1727 0
-1310 -1728 0
-1304 -1736 0
-1306 -1738 0
-1307 -1740 0
-1308 -1741 0
-1309 -1742 0
-1310 -1743 0
-1307 -1760 0
-1308 -1761 0
-1309 -1762 0
-1310 -1763 0
-1305 -1772 0
-1306 -1774 0
-1307 -1776 0
-1309 -1777 0
-1310 -1778 0
-1304 -1788 0
-1305 -1789 0
-1307 -1792 0
-1309 -1793 0
-1310 -1794 0
-1305 -1795 0
-1306 -1797 0
-1309 -1800 0
-1310 -1801 0
-1304 -1810 0
-1305 -1811 0
-1307 -1814 0
-1309 -1815 0
-1310 -1816 0
-1304 -1817 0
-1306 -1819 0
-1309 -1822 0
-1310 -1823 0
-1304 -1832 0
-1306 -1833 0
-1307 -1836 0
-1309 -1837 0
-1310 -1838 0
-1307 -1861 0
-1309 -1862 0
-1310 -1863 0
-1305 -1903 0
-1306 -1904 0
-1307 -1906 0
-1308 -1907 0
-1309 -1908 0
-1310 -1909 0
-1307 -1927 0
-1308 -1928 0
-1309 -1929 0
-1310 -1930 0
-1308 -1934 0
-1309 -1935 0
-1310 -1936 0
-1307 -1941 0
-1309 -1942 0
-1310 -1943 0
-1306 -1951 0
-1307 -1953 0
-1308 -1954 0
-1309 -1955 0
-1310 -1956 0
-1304 -1965 0
-1307 -1968 0
-1308 -1969 0
-1309 -1970 0
-1310 -1971 0
-1306 -1973 0
-1308 -1975 0
-1309 -1976 0
-1310 -1977 0
-1304 -1984 0
-1307 -1986 0
-1308 -1987 0
-1309 -1988 0
-1310 -1989 0
-1314 -1362 0
-1315 -1363 0
-1316 -1364 0
-1317 -1365 0
-1318 -1366 0
-1312 -1367 0
-1314 -1370 0
-1315 -1371 0
-1317 -1372 0
-1318 -1373 0
-1314 -1381 0
-1316 -1383 0
-1317 -1384 0
-1318 -1385 0
-1312 -1386 0
-1315 -1388 0
-1317 -1390 0
-1318 -1391 0
-1311 -1408 0
-1314 -1410 0
-1315 -1411 0
-1316 -1412 0
-1317 -1413 0
-1318 -1414 0
-1314 -1416 0
-1315 -1417 0
-1316 -1419 0
-1317 -1420 0
-1318 -1421 0
-1312 -1428 0
-1314 -1430 0
-1315 -1431 0
-1316 -1433 0
-1317 -1434 0
-1318 -1435 0
-1312 -1436 0
-1316 -1439 0
-1317 -1440 0
-1318 -1441 0
-1311 -1450 0
-1314 -1452 0
-1316 -1454 0
-1317 -1455 0
-1318 -1456 0
-1314 -1458 0
-1315 -1459 0
-1317 -1461 0
-1318 -1462 0
-1312 -1484 0
-1313 -1486 0
-1314 -1487 0
-1315 -1488 0
-1317 -1489 0
-1318 -1490 0
-1311 -1491 0
-1312 -1492 0
-1313 -1493 0
-1314 -1494 0
-1315 -1495 0
-1316 -1496 0
-1317 -1497 0
-1318 -1498 0
-1312 -1506 0
-1313 -1507 0
-1314 -1508 0
-1317 -1510 0
-1318 -1511 0
-1311 -1519 0
-1313 -1520 0
-1314 -1521 0
-1316 -1522 0
-1317 -1523 0
-1318 -1524 0
-1313 -1525 0
-1314 -1526 0
-1315 -1527 0
-1316 -1529 0
-1317 -1530 0
-1318 -1531 0
-1317 -1547 0
-1318 -1548 0
-1314 -1558 0
-1315 -1559 0
-1317 -1561 0
-1318 -1562 0
-1315 -1578 0
-1316 -1580 0
-1317 -1581 0
-1318 -1582 0
-1312 -1583 0
-1314 -1586 0
-1317 -1588 0
-1318 -1589 0
-1314 -1600 0
-1315 -1601 0
-1316 -1602 0
-1317 -1603 0
-1318 -1604 0
-1312 -1605 0
-1314 -1608 0
-1315 -1609 0
-1317 -1610 0
-1318 -1611 0
-1311 -1627 0
-1314 -1630 0
-1315 -1631 0
-1316 -1633 0
-1317 -1634 0
-1318 -1635 0
-1314 -1638 0
-1316 -1639 0
-1317 -1640 0
-1318 -1641 0
-1314 -1650 0
-1315 -1651 0
-1316 -1653 0
-1317 -1654 0
-1318 -1655 0
-1312 -1663 0
-1313 -1664 0
-1314 -1665 0
-1316 -1667 0
-1317 -1668 0
-1318 -1669 0
-1313 -1686 0
-1314 -1687 0
-1315 -1688 0
-1317 -1690 0
-1318 -1691 0
-1311 -1693 0
-1313 -1694 0
-1316 -1696 0
-1317 -1697 0
-1318 -1698 0
-1312 -1699 0
-1313 -1702 0
-1316 -1704 0
-1317 -1705 0
-1318 -1706 0
-1313 -1715 0
-1315 -1716 0
-1317 -1718 0
-1318 -1719 0
-1312 -1720 0
-1313 -1722 0
-1314 -1723 0
-1315 -1724 0
-1316 -1726 0
-1317 -1727 0
-1318 -1728 0
-1311 -1744 0
-1313 -1746 0
-1315 -1747 0
-1317 -1749 0
-1318 -1750 0
-1313 -1752 0
-1316 -1754 0
-1317 -1755 0
-1318 -1756 0
-1312 -1772 0
-1313 -1774 0
-1315 -1775 0
-1317 -1777 0
-1318 -1778 0
-1311 -1779 0
-1312 -1780 0
-1313 -1782 0
-1314 -1783 0
-1316 -1785 0
-1317 -1786 0
-1318 -1787 0
-1312 -1795 0
-1313 -1797 0
-1314 -1798 0
-1315 -1799 0
-1317 -1800 0
-1318 -1801 0
-1311 -1802 0
-1312 -1803 0
-1313 -1804 0
-1314 -1805 0
-1315 -1806 0
-1316 -1807 0
-1317 -1808 0
-1318 -1809 0
-1311 -1824 0
-1313 -1826 0
-1315 -1827 0
-1316 -1829 0
-1317 -1830 0
-1318 -1831 0
-1311 -1832 0
-1313 -1833 0
-1314 -1834 0
-1315 -1835 0
-1317 -1837 0
-1318 -1838 0
-1313 -1853 0
-1315 -1854 0
-1316 -1855 0
-1317 -1856 0
-1318 -1857 0
-1313 -1870 0
-1314 -1871 0
-1315 -1872 0
-1316 -1874 0
-1317 -1875 0
-1318 -1876 0
-1312 -1910 0
-1313 -1911 0
-1314 -1912 0
-1317 -1914 0
-1318 -1915 0
-1315 -1926 0
-1316 -1928 0
-1317 -1929 0
-1318 -1930 0
-1314 -1933 0
-1316 -1934 0
-1317 -1935 0
-1318 -1936 0
-1314 -1939 0
-1315 -1940 0
-1317 -1942 0
-1318 -1943 0
-1313 -1951 0
-1314 -1952 0
-1316 -1954 0
-1317 -1955 0
-1318 -1956 0
-1311 -1957 0
-1313 -1959 0
-1315 -1960 0
-1316 -1962 0
-1317 -1963 0
-1318 -1964 0
-1313 -1973 0
-1315 -1974 0
-1316 -1975 0
-1317 -1976 0
-1318 -1977 0
-1311 -1978 0
-1313 -1979 0
-1314 -1980 0
-1316 -1981 0
-1317 -1982 0
-1318 -1983 0
-1320 -1361 0
-1321 -1362 0
-1323 -1364 0
-1324 -1365 0
-1325 -1366 0
-1320 -1368 0
-1321 -1370 0
-1324 -1372 0
-1325 -1373 0
-1322 -1377 0
-1324 -1378 0
-1325 -1379 0
-1320 -1392 0
-1321 -1395 0
-1322 -1397 0
-1323 -1398 0
-1324 -1399 0
-1325 -1400 0
-1319 -1401 0
-1322 -1405 0
-1324 -1406 0
-1325 -1407 0
-1321 -1424 0
-1324 -1426 0
-1325 -1427 0
-1320 -1437 0
-1322 -1438 0
-1323 -1439 0
-1324 -1440 0
-1325 -1441 0
-1319 -1450 0
-1320 -1451 0
-1321 -1452 0
-1322 -1453 0
-1323 -1454 0
-1324 -1455 0
-1325 -1456 0
-1321 -1472 0
-1322 -1474 0
-1323 -1475 0
-1324 -1476 0
-1325 -1477 0
-1321 -1479 0
-1323 -1481 0
-1324 -1482 0
-1325 -1483 0
-1319 -1499 0
-1321 -1501 0
-1322 -1503 0
-1324 -1504 0
-1325 -1505 0
-1321 -1508 0
-1322 -1509 0
-1324 -1510 0
-1325 -1511 0
-1319 -1519 0
-1321 -1521 0
-1323 -1522 0
-1324 -1523 0
-1325 -1524 0
-1320 -1534 0
-1321 -1537 0
-1322 -1539 0
-1323 -1540 0
-1324 -1541 0
-1325 -1542 0
-1320 -1577 0
-1322 -1579 0
-1323 -1580 0
-1324 -1581 0
-1325 -1582 0
-1320 -1584 0
-1321 -1586 0
-1322 -1587 0
-1324 -1588 0
-1325 -1589 0
-1320 -1591 0
-1321 -1593 0
-1322 -1595 0
-1324 -1596 0
-1325 -1597 0
-1320 -1612 0
-1321 -1615 0
-1323 -1617 0
-1324 -1618 0
-1325 -1619 0
-1319 -1620 0
-1320 -1621 0
-1321 -1624 0
-1324 -1625 0
-1325 -1626 0
-1320 -1642 0
-1322 -1646 0
-1324 -1647 0
-1325 -1648 0
-1321 -1650 0
-1322 -1652 0
-1323 -1653 0
-1324 -1654 0
-1325 -1655 0
-1321 -1665 0
-1322 -1666 0
-1323 -1667 0
-1324 -1668 0
-1325 -1669 0
-1320 -1685 0
-1321 -1687 0
-1322 -1689 0
-1324 -1690 0
-1325 -1691 0
-1319 -1693 0
-1322 -1695 0
-1323 -1696 0
-1324 -1697 0
-1325 -1698 0
-1320 -1700 0
-1322 -1703 0
-1323 -1704 0
-1324 -1705 0
-1325 -1706 0
-1321 -1709 0
-1323 -1711 0
-1324 -1712 0
-1325 -1713 0
-1320 -1729 0
-1322 -1733 0
-1324 -1734 0
-1325 -1735 0
-1319 -1736 0
-1321 -1739 0
-1322 -1740 0
-1323 -1741 0
-1324 -1742 0
-1325 -1743 0
-1321 -1758 0
-1322 -1760 0
-1323 -1761 0
-1324 -1762 0
-1325 -1763 0
-1320 -1765 0
-1321 -1766 0
-1322 -1768 0
-1323 -1769 0
-1324 -1770 0
-1325 -1771 0
-1319 -1788 0
-1320 -1790 0
-1322 -1792 0
-1324 -1793 0
-1325 -1794 0
-1320 -1796 0
-1321 -1798 0
-1324 -1800 0
-1325 -1801 0
-1319 -1802 0
-1321 -1805 0
-1323 -1807 0
-1324 -1808 0
-1325 -1809 0
-1319 -1824 0
-1320 -1825 0
-1322 -1828 0
-1323 -1829 0
-1324 -1830 0
-1325 -1831 0
-1319 -1832 0
-1321 -1834 0
-1322 -1836 0
-1324 -1837 0
-1325 -1838 0
-1322 -1848 0
-1323 -1849 0
-1324 -1850 0
-1325 -1851 0
-1320 -1890 0
-1321 -1892 0
-1322 -1893 0
-1323 -1894 0
-1324 -1895 0
-1325 -1896 0
-1322 -1906 0
-1323 -1907 0
-1324 -1908 0
-1325 -1909 0
-1320 -1924 0
-1322 -1927 0
-1323 -1928 0
-1324 -1929 0
-1325 -1930 0
-1320 -1938 0
-1321 -1939 0
-1322 -1941 0
-1324 -1942 0
-1325 -1943 0
-1320 -1945 0
-1322 -1946 0
-1323 -1947 0
-1324 -1948 0
-1325 -1949 0
-1319 -1965 0
-1320 -1966 0
-1321 -1967 0
-1322 -1968 0
-1323 -1969 0
-1324 -1970 0
-1325 -1971 0
-1320 -1972 0
-1323 -1975 0
-1324 -1976 0
-1325 -1977 0
-1319 -1978 0
-1321 -1980 0
-1323 -1981 0
-1324 -1982 0
-1325 -1983 0
-1321 -1992 0
-1322 -1994 0
-1323 -1995 0
-1324 -1996 0
-1325 -1997 0
-1327 -1353 0
-1328 -1354 0
-1329 -1355 0
-1330 -1356 0
-1331 -1358 0
-1332 -1359 0
-1327 -1368 0
-1329 -1370 0
-1330 -1371 0
-1331 -1372 0
-1332 -1373 0
-1329 -1381 0
-1331 -1384 0
-1332 -1385 0
-1327 -1392 0
-1328 -1394 0
-1329 -1395 0
-1330 -1396 0
-1331 -1399 0
-1332 -1400 0
-1326 -1408 0
-1329 -1410 0
-1330 -1411 0
-1331 -1413 0
-1332 -1414 0
-1329 -1416 0
-1330 -1417 0
-1331 -1420 0
-1332 -1421 0
-1327 -1437 0
-1331 -1440 0
-1332 -1441 0
-1326 -1442 0
-1327 -1443 0
-1328 -1444 0
-1330 -1445 0
-1331 -1448 0
-1332 -1449 0
-1329 -1479 0
-1330 -1480 0
-1331 -1482 0
-1332 -1483 0
-1326 -1491 0
-1328 -1493 0
-1329 -1494 0
-1330 -1495 0
-1331 -1497 0
-1332 -1498 0
-1328 -1507 0
-1329 -1508 0
-1331 -1510 0
-1332 -1511 0
-1326 -1512 0
-1328 -1513 0
-1329 -1514 0
-1330 -1515 0
-1331 -1517 0
-1332 -1518 0
-1327 -1544 0
-1331 -1547 0
-1332 -1548 0
-1327 -1571 0
-1328 -1572 0
-1329 -1573 0
-1331 -1574 0
-1332 -1575 0
-1327 -1584 0
-1329 -1586 0
-1331 -1588 0
-1332 -1589 0
-1327 -1599 0
-1329 -1600 0
-1330 -1601 0
-1331 -1603 0
-1332 -1604 0
-1327 -1612 0
-1328 -1614 0
-1329 -1615 0
-1330 -1616 0
-1331 -1618 0
-1332 -1619 0
-1326 -1627 0
-1327 -1628 0
-1329 -1630 0
-1330 -1631 0
-1331 -1634 0
-1332 -1635 0
-1327 -1636 0
-1329 -1638 0
-1331 -1640 0
-1332 -1641 0
-1328 -1657 0
-1329 -1658 0
-1330 -1659 0
-1331 -1660 0
-1332 -1661 0
-1330 -1672 0
-1331 -1675 0
-1332 -1676 0
-1327 -1678 0
-1328 -1679 0
-1331 -1682 0
-1332 -1683 0
-1326 -1693 0
-1328 -1694 0
-1331 -1697 0
-1332 -1698 0
-1327 -1700 0
-1328 -1702 0
-1331 -1705 0
-1332 -1706 0
-1328 -1715 0
-1330 -1716 0
-1331 -1718 0
-1332 -1719 0
-1327 -1729 0
-1328 -1731 0
-1330 -1732 0
-1331 -1734 0
-1332 -1735 0
-1326 -1744 0
-1328 -1746 0
-1330 -1747 0
-1331 -1749 0
-1332 -1750 0
-1328 -1752 0
-1331 -1755 0
-1332 -1756 0
-1327 -1765 0
-1329 -1766 0
-1330 -1767 0
-1331 -1770 0
-1332 -1771 0
-1326 -1779 0
-1327 -1781 0
-1328 -1782 0
-1329 -1783 0
-1331 -1786 0
-1332 -1787 0
-1327 -1796 0
-1328 -1797 0
-1329 -1798 0
-1330 -1799 0
-1331 -1800 0
-1332 -1801 0
-1326 -1810 0
-1329 -1812 0
-1330 -1813 0
-1331 -1815 0
-1332 -1816 0
-1326 -1817 0
-1327 -1818 0
-1328 -1819 0
-1329 -1820 0
-1330 -1821 0
-1331 -1822 0
-1332 -1823 0
-1326 -1832 0
-1328 -1833 0
-1329 -1834 0
-1330 -1835 0
-1331 -1837 0
-1332 -1838 0
-1329 -1840 0
-1330 -1841 0
-1331 -1843 0
-1332 -1844 0
-1328 -1870 0
-1329 -1871 0
-1330 -1872 0
-1331 -1875 0
-1332 -1876 0
-1327 -1897 0
-1328 -1898 0
-1330 -1899 0
-1331 -1901 0
-1332 -1902 0
-1328 -1911 0
-1329 -1912 0
-1331 -1914 0
-1332 -1915 0
-1328 -1917 0
-1329 -1918 0
-1330 -1919 0
-1331 -1922 0
-1332 -1923 0
-1327 -1924 0
-1330 -1926 0
-1331 -1929 0
-1332 -1930 0
-1327 -1938 0
-1329 -1939 0
-1330 -1940 0
-1331 -1942 0
-1332 -1943 0
-1327 -1945 0
-1331 -1948 0
-1332 -1949 0
-1326 -1957 0
-1327 -1958 0
-1328 -1959 0
-1330 -1960 0
-1331 -1963 0
-1332 -1964 0
-1327 -1972 0
-1328 -1973 0
-1330 -1974 0
-1331 -1976 0
-1332 -1977 0
-1326 -1984 0
-1330 -1985 0
-1331 -1988 0
-1332 -1989 0
-1334 -1354 0
-1335 -1355 0
-1337 -1358 0
-1338 -1359 0
-1335 -1362 0
-1336 -1364 0
-1337 -1365 0
-1338 -1366 0
-1335 -1370 0
-1337 -1372 0
-1338 -1373 0
-1333 -1401 0
-1334 -1403 0
-1337 -1406 0
-1338 -1407 0
-1333 -1408 0
-1335 -1410 0
-1336 -1412 0
-1337 -1413 0
-1338 -1414 0
-1335 -1430 0
-1336 -1433 0
-1337 -1434 0
-1338 -1435 0
-1333 -1442 0
-1334 -1444 0
-1336 -1447 0
-1337 -1448 0
-1338 -1449 0
-1333 -1450 0
-1335 -1452 0
-1336 -1454 0
-1337 -1455 0
-1338 -1456 0
-1334 -1471 0
-1335 -1472 0
-1336 -1475 0
-1337 -1476 0
-1338 -1477 0
-1335 -1479 0
-1336 -1481 0
-1337 -1482 0
-1338 -1483 0
-1334 -1486 0
-1335 -1487 0
-1337 -1489 0
-1338 -1490 0
-1333 -1512 0
-1334 -1513 0
-1335 -1514 0
-1337 -1517 0
-1338 -1518 0
-1333 -1519 0
-1334 -1520 0
-1335 -1521 0
-1336 -1522 0
-1337 -1523 0
-1338 -1524 0
-1334 -1536 0
-1335 -1537 0
-1336 -1540 0
-1337 -1541 0
-1338 -1542 0
-1337 -1547 0
-1338 -1548 0
-1334 -1572 0
-1335 -1573 0
-1337 -1574 0
-1338 -1575 0
-1336 -1580 0
-1337 -1581 0
-1338 -1582 0
-1335 -1586 0
-1337 -1588 0
-1338 -1589 0
-1333 -1620 0
-1334 -1623 0
-1335 -1624 0
-1337 -1625 0
-1338 -1626 0
-1333 -1627 0
-1335 -1630 0
-1336 -1633 0
-1337 -1634 0
-1338 -1635 0
-1335 -1650 0
-1336 -1653 0
-1337 -1654 0
-1338 -1655 0
-1334 -1657 0
-1335 -1658 0
-1337 -1660 0
-1338 -1661 0
-1334 -1664 0
-1335 -1665 0
-1336 -1667 0
-1337 -1668 0
-1338 -1669 0
-1336 -1674 0
-1337 -1675 0
-1338 -1676 0
-1334 -1679 0
-1336 -1681 0
-1337 -1682 0
-1338 -1683 0
-1334 -1686 0
-1335 -1687 0
-1337 -1690 0
-1338 -1691 0
-1334 -1702 0
-1336 -1704 0
-1337 -1705 0
-1338 -1706 0
-1333 -1736 0
-1334 -1738 0
-1335 -1739 0
-1336 -1741 0
-1337 -1742 0
-1338 -1743 0
-1333 -1744 0
-1334 -1746 0
-1337 -1749 0
-1338 -1750 0
-1335 -1766 0
-1336 -1769 0
-1337 -1770 0
-1338 -1771 0
-1334 -1774 0
-1337 -1777 0
-1338 -1778 0
-1333 -1802 0
-1334 -1804 0
-1335 -1805 0
-1336 -1807 0
-1337 -1808 0
-1338 -1809 0
-1333 -1810 0
-1335 -1812 0
-1337 -1815 0
-1338 -1816 0
-1333 -1817 0
-1334 -1819 0
-1335 -1820 0
-1337 -1822 0
-1338 -1823 0
-1333 -1824 0
-1334 -1826 0
-1336 -1829 0
-1337 -1830 0
-1338 -1831 0
-1334 -1870 0
-1335 -1871 0
-1336 -1874 0
-1337 -1875 0
-1338 -1876 0
-1334 -1904 0
-1336 -1907 0
-1337 -1908 0
-1338 -1909 0
-1334 -1911 0
-1335 -1912 0
-1337 -1914 0
-1338 -1915 0
-1336 -1928 0
-1337 -1929 0
-1338 -1930 0
-1336 -1947 0
-1337 -1948 0
-1338 -1949 0
-1334 -1951 0
-1335 -1952 0
-1336 -1954 0
-1337 -1955 0
-1338 -1956 0
-1333 -1978 0
-1334 -1979 0
-1335 -1980 0
-1336 -1981 0
-1337 -1982 0
-1338 -1983 0
-1333 -1984 0
-1336 -1987 0
-1337 -1988 0
-1338 -1989 0
-1340 -1356 0
-1341 -1357 0
-1343 -1358 0
-1344 -1359 0
-1341 -1382 0
-1342 -1383 0
-1343 -1384 0
-1344 -1385 0
-1340 -1388 0
-1341 -1389 0
-1343 -1390 0
-1344 -1391 0
-1340 -1396 0
-1341 -1397 0
-1342 -1398 0
-1343 -1399 0
-1344 -1400 0
-1339 -1401 0
-1340 -1404 0
-1341 -1405 0
-1343 -1406 0
-1344 -1407 0
-1340 -1417 0
-1341 -1418 0
-1342 -1419 0
-1343 -1420 0
-1344 -1421 0
-1340 -1431 0
-1341 -1432 0
-1342 -1433 0
-1343 -1434 0
-1344 -1435 0
-1339 -1450 0
-1341 -1453 0
-1342 -1454 0
-1343 -1455 0
-1344 -1456 0
-1341 -1466 0
-1342 -1467 0
-1343 -1468 0
-1344 -1469 0
-1340 -1480 0
-1342 -1481 0
-1343 -1482 0
-1344 -1483 0
-1340 -1488 0
-1343 -1489 0
-1344 -1490 0
-1339 -1491 0
-1340 -1495 0
-1342 -1496 0
-1343 -1497 0
-1344 -1498 0
-1339 -1519 0
-1342 -1522 0
-1343 -1523 0
-1344 -1524 0
-1342 -1553 0
-1343 -1554 0
-1344 -1555 0
-1343 -1574 0
-1344 -1575 0
-1340 -1601 0
-1342 -1602 0
-1343 -1603 0
-1344 -1604 0
-1340 -1609 0
-1343 -1610 0
-1344 -1611 0
-1340 -1616 0
-1342 -1617 0
-1343 -1618 0
-1344 -1619 0
-1339 -1620 0
-1343 -1625 0
-1344 -1626 0
-1342 -1639 0
-1343 -1640 0
-1344 -1641 0
-1340 -1659 0
-1343 -1660 0
-1344 -1661 0
-1341 -1666 0
-1342 -1667 0
-1343 -1668 0
-1344 -1669 0
-1341 -1680 0
-1342 -1681 0
-1343 -1682 0
-1344 -1683 0
-1340 -1716 0
-1341 -1717 0
-1343 -1718 0
-1344 -1719 0
-1340 -1724 0
-1341 -1725 0
-1342 -1726 0
-1343 -1727 0
-1344 -1728 0
-1340 -1732 0
-1341 -1733 0
-1343 -1734 0
-1344 -1735 0
-1339 -1736 0
-1341 -1740 0
-1342 -1741 0
-1343 -1742 0
-1344 -1743 0
-1341 -1753 0
-1342 -1754 0
-1343 -1755 0
-1344 -1756 0
-1340 -1767 0
-1341 -1768 0
-1342 -1769 0
-1343 -1770 0
-1344 -1771 0
-1340 -1775 0
-1341 -1776 0
-1343 -1777 0
-1344 -1778 0
-1339 -1779 0
-1341 -1784 0
-1342 -1785 0
-1343 -1786 0
-1344 -1787 0
-1339 -1810 0
-1340 -1813 0
-1341 -1814 0
-1343 -1815 0
-1344 -1816 0
-1339 -1824 0
-1340 -1827 0
-1341 -1828 0
-1342 -1829 0
-1343 -1830 0
-1344 -1831 0
-1339 -1832 0
-1340 -1835 0
-1341 -1836 0
-1343 -1837 0
-1344 -1838 0
-1340 -1847 0
-1341 -1848 0
-1342 -1849 0
-1343 -1850 0
-1344 -1851 0
-1340 -1860 0
-1341 -1861 0
-1343 -1862 0
-1344 -1863 0
-1339 -1864 0
-1340 -1865 0
-1341 -1866 0
-1342 -1867 0
-1343 -1868 0
-1344 -1869 0
-1341 -1893 0
-1342 -1894 0
-1343 -1895 0
-1344 -1896 0
-1342 -1934 0
-1343 -1935 0
-1344 -1936 0
-1341 -1946 0
-1342 -1947 0
-1343 -1948 0
-1344 -1949 0
-1341 -1953 0
-1342 -1954 0
-1343 -1955 0
-1344 -1956 0
-1339 -1957 0
-1340 -1960 0
-1341 -1961 0
-1342 -1962 0
-1343 -1963 0
-1344 -1964 0
-1339 -1984 0
-1340 -1985 0
-1341 -1986 0
-1342 -1987 0
-1343 -1988 0
-1344 -1989 0
-1340 -1993 0
-1341 -1994 0
-1342 -1995 0
-1343 -1996 0
-1344 -1997 0
-1347 -1362 0
-1348 -1363 0
-1350 -1365 0
-1351 -1366 0
-1346 -1375 0
-1348 -1376 0
-1349 -1377 0
-1350 -1378 0
-1351 -1379 0
-1348 -1388 0
-1349 -1389 0
-1350 -1390 0
-1351 -1391 0
-1346 -1394 0
-1347 -1395 0
-1348 -1396 0
-1349 -1397 0
-1350 -1399 0
-1351 -1400 0
-1345 -1408 0
-1347 -1410 0
-1348 -1411 0
-1350 -1413 0
-1351 -1414 0
-1346 -1423 0
-1347 -1424 0
-1348 -1425 0
-1350 -1426 0
-1351 -1427 0
-1347 -1430 0
-1348 -1431 0
-1349 -1432 0
-1350 -1434 0
-1351 -1435 0
-1345 -1442 0
-1346 -1444 0
-1348 -1445 0
-1349 -1446 0
-1350 -1448 0
-1351 -1449 0
-1347 -1458 0
-1348 -1459 0
-1349 -1460 0
-1350 -1461 0
-1351 -1462 0
-1347 -1479 0
-1348 -1480 0
-1350 -1482 0
-1351 -1483 0
-1346 -1486 0
-1347 -1487 0
-1348 -1488 0
-1350 -1489 0
-1351 -1490 0
-1345 -1499 0
-1347 -1501 0
-1348 -1502 0
-1349 -1503 0
-1350 -1504 0
-1351 -1505 0
-1345 -1512 0
-1346 -1513 0
-1347 -1514 0
-1348 -1515 0
-1349 -1516 0
-1350 -1517 0
-1351 -1518 0
-1346 -1525 0
-1347 -1526 0
-1348 -1527 0
-1349 -1528 0
-1350 -1530 0
-1351 -1531 0
-1347 -1558 0
-1348 -1559 0
-1349 -1560 0
-1350 -1561 0
-1351 -1562 0
-1348 -1578 0
-1349 -1579 0
-1350 -1581 0
-1351 -1582 0
-1346 -1592 0
-1347 -1593 0
-1348 -1594 0
-1349 -1595 0
-1350 -1596 0
-1351 -1597 0
-1347 -1608 0
-1348 -1609 0
-1350 -1610 0
-1351 -1611 0
-1346 -1614 0
-1347 -1615 0
-1348 -1616 0
-1350 -1618 0
-1351 -1619 0
-1345 -1627 0
-1347 -1630 0
-1348 -1631 0
-1349 -1632 0
-1350 -1634 0
-1351 -1635 0
-1346 -1644 0
-1348 -1645 0
-1349 -1646 0
-1350 -1647 0
-1351 -1648 0
-1347 -1650 0
-1348 -1651 0
-1349 -1652 0
-1350 -1654 0
-1351 -1655 0
-1348 -1672 0
-1349 -1673 0
-1350 -1675 0
-1351 -1676 0
-1346 -1686 0
-1347 -1687 0
-1348 -1688 0
-1349 -1689 0
-1350 -1690 0
-1351 -1691 0
-1346 -1708 0
-1347 -1709 0
-1348 -1710 0
-1350 -1712 0
-1351 -1713 0
-1346 -1722 0
-1347 -1723 0
-1348 -1724 0
-1349 -1725 0
-1350 -1727 0
-1351 -1728 0
-1346 -1731 0
-1348 -1732 0
-1349 -1733 0
-1350 -1734 0
-1351 -1735 0
-1345 -1744 0
-1346 -1746 0
-1348 -1747 0
-1349 -1748 0
-1350 -1749 0
-1351 -1750 0
-1347 -1758 0
-1348 -1759 0
-1349 -1760 0
-1350 -1762 0
-1351 -1763 0
-1347 -1766 0
-1348 -1767 0
-1349 -1768 0
-1350 -1770 0
-1351 -1771 0
-1346 -1774 0
-1348 -1775 0
-1349 -1776 0
-1350 -1777 0
-1351 -1778 0
-1345 -1788 0
-1348 -1791 0
-1349 -1792 0
-1350 -1793 0
-1351 -1794 0
-1345 -1802 0
-1346 -1804 0
-1347 -1805 0
-1348 -1806 0
-1350 -1808 0
-1351 -1809 0
-1345 -1817 0
-1346 -1819 0
-1347 -1820 0
-1348 -1821 0
-1350 -1822 0
-1351 -1823 0
-1345 -1832 0
-1346 -1833 0
-1347 -1834 0
-1348 -1835 0
-1349 -1836 0
-1350 -1837 0
-1351 -1838 0
-1347 -1840 0
-1348 -1841 0
-1350 -1843 0
-1351 -1844 0
-1346 -1853 0
-1348 -1854 0
-1350 -1856 0
-1351 -1857 0
-1345 -1864 0
-1348 -1865 0
-1349 -1866 0
-1350 -1868 0
-1351 -1869 0
-1346 -1898 0
-1348 -1899 0
-1350 -1901 0
-1351 -1902 0
-1346 -1917 0
-1347 -1918 0
-1348 -1919 0
-1349 -1920 0
-1350 -1922 0
-1351 -1923 0
-1347 -1933 0
-1350 -1935 0
-1351 -1936 0
-1349 -1946 0
-1350 -1948 0
-1351 -1949 0
-1346 -1951 0
-1347 -1952 0
-1349 -1953 0
-1350 -1955 0
-1351 -1956 0
-1345 -1965 0
-1347 -1967 0
-1349 -1968 0
-1350 -1970 0
-1351 -1971 0
-1345 -1978 0
-1346 -1979 0
-1347 -1980 0
-1350 -1982 0
-1351 -1983 0
-1354 -1471 0
-1355 -1472 0
-1356 -1473 0
-1357 -1474 0
-1358 -1476 0
-1359 -1477 0
-1352 -1543 0
-1353 -1544 0
-1357 -1546 0
-1358 -1547 0
-1359 -1548 0
-1352 -1549 0
-1354 -1551 0
-1355 -1552 0
-1358 -1554 0
-1359 -1555 0
-1353 -1563 0
-1354 -1565 0
-1355 -1566 0
-1357 -1567 0
-1358 -1568 0
-1359 -1569 0
-1352 -1576 0
-1353 -1577 0
-1356 -1578 0
-1357 -1579 0
-1358 -1581 0
-1359 -1582 0
-1353 -1584 0
-1355 -1586 0
-1357 -1587 0
-1358 -1588 0
-1359 -1589 0
-1352 -1590 0
-1353 -1591 0
-1354 -1592 0
-1355 -1593 0
-1356 -1594 0
-1357 -1595 0
-1358 -1596 0
-1359 -1597 0
-1353 -1612 0
-1354 -1614 0
-1355 -1615 0
-1356 -1616 0
-1358 -1618 0
-1359 -1619 0
-1353 -1621 0
-1354 -1623 0
-1355 -1624 0
-1358 -1625 0
-1359 -1626 0
-1353 -1636 0
-1355 -1638 0
-1358 -1640 0
-1359 -1641 0
-1352 -1662 0
-1354 -1664 0
-1355 -1665 0
-1357 -1666 0
-1358 -1668 0
-1359 -1669 0
-1352 -1684 0
-1353 -1685 0
-1354 -1686 0
-1355 -1687 0
-1356 -1688 0
-1357 -1689 0
-1358 -1690 0
-1359 -1691 0
-1352 -1692 0
-1354 -1694 0
-1357 -1695 0
-1358 -1697 0
-1359 -1698 0
-1353 -1700 0
-1354 -1702 0
-1357 -1703 0
-1358 -1705 0
-1359 -1706 0
-1352 -1707 0
-1354 -1708 0
-1355 -1709 0
-1356 -1710 0
-1358 -1712 0
-1359 -1713 0
-1353 -1729 0
-1354 -1731 0
-1356 -1732 0
-1357 -1733 0
-1358 -1734 0
-1359 -1735 0
-1354 -1738 0
-1355 -1739 0
-1357 -1740 0
-1358 -1742 0
-1359 -1743 0
-1354 -1752 0
-1357 -1753 0
-1358 -1755 0
-1359 -1756 0
-1353 -1773 0
-1354 -1774 0
-1356 -1775 0
-1357 -1776 0
-1358 -1777 0
-1359 -1778 0
-1353 -1781 0
-1354 -1782 0
-1355 -1783 0
-1357 -1784 0
-1358 -1786 0
-1359 -1787 0
-1353 -1818 0
-1354 -1819 0
-1355 -1820 0
-1356 -1821 0
-1358 -1822 0
-1359 -1823 0
-1353 -1852 0
-1354 -1853 0
-1356 -1854 0
-1358 -1856 0
-1359 -1857 0
-1354 -1885 0
-1357 -1886 0
-1358 -1888 0
-1359 -1889 0
-1353 -1897 0
-1354 -1898 0
-1356 -1899 0
-1358 -1901 0
-1359 -1902 0
-1354 -1911 0
-1355 -1912 0
-1357 -1913 0
-1358 -1914 0
-1359 -1915 0
-1354 -1917 0
-1355 -1918 0
-1356 -1919 0
-1357 -1920 0
-1358 -1922 0
-1359 -1923 0
-1353 -1931 0
-1355 -1933 0
-1358 -1935 0
-1359 -1936 0
-1353 -1938 0
-1355 -1939 0
-1356 -1940 0
-1357 -1941 0
-1358 -1942 0
-1359 -1943 0
-1353 -1945 0
-1357 -1946 0
-1358 -1948 0
-1359 -1949 0
-1353 -1966 0
-1355 -1967 0
-1357 -1968 0
-1358 -1970 0
-1359 -1971 0
-1353 -1972 0
-1354 -1973 0
-1356 -1974 0
-1358 -1976 0
-1359 -1977 0
-1354 -1979 0
-1355 -1980 0
-1358 -1982 0
-1359 -1983 0
-1360 -1533 0
-1361 -1534 0
-1362 -1537 0
-1363 -1538 0
-1364 -1540 0
-1365 -1541 0
-1366 -1542 0
-1360 -1556 0
-1362 -1558 0
-1363 -1559 0
-1365 -1561 0
-1366 -1562 0
-1361 -1563 0
-1362 -1566 0
-1365 -1568 0
-1366 -1569 0
-1360 -1570 0
-1361 -1571 0
-1362 -1573 0
-1365 -1574 0
-1366 -1575 0
-1361 -1584 0
-1362 -1586 0
-1365 -1588 0
-1366 -1589 0
-1360 -1598 0
-1361 -1599 0
-1362 -1600 0
-1363 -1601 0
-1364 -1602 0
-1365 -1603 0
-1366 -1604 0
-1361 -1612 0
-1362 -1615 0
-1363 -1616 0
-1364 -1617 0
-1365 -1618 0
-1366 -1619 0
-1361 -1628 0
-1362 -1630 0
-1363 -1631 0
-1364 -1633 0
-1365 -1634 0
-1366 -1635 0
-1361 -1642 0
-1363 -1645 0
-1365 -1647 0
-1366 -1648 0
-1360 -1670 0
-1363 -1672 0
-1364 -1674 0
-1365 -1675 0
-1366 -1676 0
-1360 -1677 0
-1361 -1678 0
-1364 -1681 0
-1365 -1682 0
-1366 -1683 0
-1360 -1692 0
-1364 -1696 0
-1365 -1697 0
-1366 -1698 0
-1361 -1700 0
-1364 -1704 0
-1365 -1705 0
-1366 -1706 0
-1360 -1714 0
-1363 -1716 0
-1365 -1718 0
-1366 -1719 0
-1361 -1729 0
-1363 -1732 0
-1365 -1734 0
-1366 -1735 0
-1363 -1747 0
-1365 -1749 0
-1366 -1750 0
-1362 -1758 0
-1363 -1759 0
-1364 -1761 0
-1365 -1762 0
-1366 -1763 0
-1361 -1773 0
-1363 -1775 0
-1365 -1777 0
-1366 -1778 0
-1361 -1790 0
-1363 -1791 0
-1365 -1793 0
-1366 -1794 0
-1361 -1825 0
-1363 -1827 0
-1364 -1829 0
-1365 -1830 0
-1366 -1831 0
-1361 -1858 0
-1362 -1859 0
-1363 -1860 0
-1365 -1862 0
-1366 -1863 0
-1362 -1880 0
-1363 -1881 0
-1365 -1882 0
-1366 -1883 0
-1361 -1890 0
-1362 -1892 0
-1364 -1894 0
-1365 -1895 0
-1366 -1896 0
-1363 -1905 0
-1364 -1907 0
-1365 -1908 0
-1366 -1909 0
-1361 -1931 0
-1362 -1933 0
-1364 -1934 0
-1365 -1935 0
-1366 -1936 0
-1361 -1938 0
-1362 -1939 0
-1363 -1940 0
-1365 -1942 0
-1366 -1943 0
-1361 -1945 0
-1364 -1947 0
-1365 -1948 0
-1366 -1949 0
-1361 -1958 0
-1363 -1960 0
-1364 -1962 0
-1365 -1963 0
-1366 -1964 0
-1361 -1972 0
-1363 -1974 0
-1364 -1975 0
-1365 -1976 0
-1366 -1977 0
-1363 -1985 0
-1364 -1987 0
-1365 -1988 0
-1366 -1989 0
-1362 -1992 0
-1363 -1993 0
-1364 -1995 0
-1365 -1996 0
-1366 -1997 0
-1370 -1472 0
-1371 -1473 0
-1372 -1476 0
-1373 -1477 0
-1369 -1550 0
-1370 -1552 0
-1372 -1554 0
-1373 -1555 0
-1369 -1557 0
-1370 -1558 0
-1371 -1559 0
-1372 -1561 0
-1373 -1562 0
-1368 -1571 0
-1370 -1573 0
-1372 -1574 0
-1373 -1575 0
-1368 -1577 0
-1371 -1578 0
-1372 -1581 0
-1373 -1582 0
-1367 -1605 0
-1368 -1606 0
-1369 -1607 0
-1370 -1608 0
-1371 -1609 0
-1372 -1610 0
-1373 -1611 0
-1368 -1612 0
-1369 -1613 0
-1370 -1615 0
-1371 -1616 0
-1372 -1618 0
-1373 -1619 0
-1368 -1621 0
-1369 -1622 0
-1370 -1624 0
-1372 -1625 0
-1373 -1626 0
-1368 -1628 0
-1369 -1629 0
-1370 -1630 0
-1371 -1631 0
-1372 -1634 0
-1373 -1635 0
-1368 -1636 0
-1369 -1637 0
-1370 -1638 0
-1372 -1640 0
-1373 -1641 0
-1368 -1642 0
-1369 -1643 0
-1371 -1645 0
-1372 -1647 0
-1373 -1648 0
-1367 -1663 0
-1370 -1665 0
-1372 -1668 0
-1373 -1669 0
-1367 -1671 0
-1371 -1672 0
-1372 -1675 0
-1373 -1676 0
-1368 -1678 0
-1372 -1682 0
-1373 -1683 0
-1368 -1685 0
-1370 -1687 0
-1371 -1688 0
-1372 -1690 0
-1373 -1691 0
-1372 -1697 0
-1373 -1698 0
-1367 -1720 0
-1369 -1721 0
-1370 -1723 0
-1371 -1724 0
-1372 -1727 0
-1373 -1728 0
-1368 -1729 0
-1369 -1730 0
-1371 -1732 0
-1372 -1734 0
-1373 -1735 0
-1369 -1737 0
-1370 -1739 0
-1372 -1742 0
-1373 -1743 0
-1369 -1745 0
-1371 -1747 0
-1372 -1749 0
-1373 -1750 0
-1369 -1751 0
-1372 -1755 0
-1373 -1756 0
-1369 -1757 0
-1370 -1758 0
-1371 -1759 0
-1372 -1762 0
-1373 -1763 0
-1367 -1764 0
-1368 -1765 0
-1370 -1766 0
-1371 -1767 0
-1372 -1770 0
-1373 -1771 0
-1367 -1772 0
-1368 -1773 0
-1371 -1775 0
-1372 -1777 0
-1373 -1778 0
-1367 -1780 0
-1368 -1781 0
-1370 -1783 0
-1372 -1786 0
-1373 -1787 0
-1367 -1789 0
-1368 -1790 0
-1371 -1791 0
-1372 -1793 0
-1373 -1794 0
-1368 -1890 0
-1370 -1892 0
-1372 -1895 0
-1373 -1896 0
-1368 -1897 0
-1371 -1899 0
-1372 -1901 0
-1373 -1902 0
-1370 -1918 0
-1371 -1919 0
-1372 -1922 0
-1373 -1923 0
-1368 -1938 0
-1370 -1939 0
-1371 -1940 0
-1372 -1942 0
-1373 -1943 0
-1368 -1972 0
-1371 -1974 0
-1372 -1976 0
-1373 -1977 0
-1370 -1980 0
-1372 -1982 0
-1373 -1983 0
-1371 -1985 0
-1372 -1988 0
-1373 -1989 0
-1370 -1992 0
-1371 -1993 0
-1372 -1996 0
-1373 -1997 0
-1375 -1423 0
-1376 -1425 0
-1378 -1426 0
-1379 -1427 0
-1375 -1464 0
-1377 -1466 0
-1378 -1468 0
-1379 -1469 0
-1376 -1502 0
-1377 -1503 0
-1378 -1504 0
-1379 -1505 0
-1374 -1533 0
-1375 -1536 0
-1376 -1538 0
-1377 -1539 0
-1378 -1541 0
-1379 -1542 0
-1374 -1556 0
-1376 -1559 0
-1377 -1560 0
-1378 -1561 0
-1379 -1562 0
-1375 -1565 0
-1377 -1567 0
-1378 -1568 0
-1379 -1569 0
-1374 -1570 0
-1375 -1572 0
-1378 -1574 0
-1379 -1575 0
-1374 -1598 0
-1376 -1601 0
-1378 -1603 0
-1379 -1604 0
-1376 -1609 0
-1378 -1610 0
-1379 -1611 0
-1375 -1614 0
-1376 -1616 0
-1378 -1618 0
-1379 -1619 0
-1375 -1623 0
-1378 -1625 0
-1379 -1626 0
-1376 -1651 0
-1377 -1652 0
-1378 -1654 0
-1379 -1655 0
-1374 -1662 0
-1375 -1664 0
-1377 -1666 0
-1378 -1668 0
-1379 -1669 0
-1374 -1677 0
-1375 -1679 0
-1377 -1680 0
-1378 -1682 0
-1379 -1683 0
-1374 -1714 0
-1375 -1715 0
-1376 -1716 0
-1377 -1717 0
-1378 -1718 0
-1379 -1719 0
-1375 -1722 0
-1376 -1724 0
-1377 -1725 0
-1378 -1727 0
-1379 -1728 0
-1375 -1731 0
-1376 -1732 0
-1377 -1733 0
-1378 -1734 0
-1379 -1735 0
-1375 -1738 0
-1377 -1740 0
-1378 -1742 0
-1379 -1743 0
-1375 -1797 0
-1376 -1799 0
-1378 -1800 0
-1379 -1801 0
-1375 -1804 0
-1376 -1806 0
-1378 -1808 0
-1379 -1809 0
-1375 -1819 0
-1376 -1821 0
-1378 -1822 0
-1379 -1823 0
-1375 -1870 0
-1376 -1872 0
-1377 -1873 0
-1378 -1875 0
-1379 -1876 0
-1375 -1885 0
-1377 -1886 0
-1378 -1888 0
-1379 -1889 0
-1375 -1898 0
-1376 -1899 0
-1378 -1901 0
-1379 -1902 0
-1375 -1904 0
-1376 -1905 0
-1377 -1906 0
-1378 -1908 0
-1379 -1909 0
-1375 -1917 0
-1376 -1919 0
-1377 -1920 0
-1378 -1922 0
-1379 -1923 0
-1376 -1926 0
-1377 -1927 0
-1378 -1929 0
-1379 -1930 0
-1377 -1946 0
-1378 -1948 0
-1379 -1949 0
-1375 -1951 0
-1377 -1953 0
-1378 -1955 0
-1379 -1956 0
-1375 -1959 0
-1376 -1960 0
-1377 -1961 0
-1378 -1963 0
-1379 -1964 0
-1376 -1985 0
-1377 -1986 0
-1378 -1988 0
-1379 -1989 0
-1381 -1416 0
-1382 -1418 0
-1383 -1419 0
-1384 -1420 0
-1385 -1421 0
-1381 -1458 0
-1382 -1460 0
-1384 -1461 0
-1385 -1462 0
-1381 -1494 0
-1383 -1496 0
-1384 -1497 0
-1385 -1498 0
-1381 -1526 0
-1382 -1528 0
-1383 -1529 0
-1384 -1530 0
-1385 -1531 0
-1380 -1543 0
-1382 -1546 0
-1384 -1547 0
-1385 -1548 0
-1380 -1549 0
-1381 -1552 0
-1383 -1553 0
-1384 -1554 0
-1385 -1555 0
-1381 -1566 0
-1382 -1567 0
-1384 -1568 0
-1385 -1569 0
-1380 -1576 0
-1382 -1579 0
-1383 -1580 0
-1384 -1581 0
-1385 -1582 0
-1380 -1590 0
-1381 -1593 0
-1382 -1595 0
-1384 -1596 0
-1385 -1597 0
-1381 -1608 0
-1384 -1610 0
-1385 -1611 0
-1381 -1615 0
-1383 -1617 0
-1384 -1618 0
-1385 -1619 0
-1381 -1630 0
-1382 -1632 0
-1383 -1633 0
-1384 -1634 0
-1385 -1635 0
-1381 -1658 0
-1384 -1660 0
-1385 -1661 0
-1380 -1670 0
-1382 -1673 0
-1383 -1674 0
-1384 -1675 0
-1385 -1676 0
-1380 -1684 0
-1381 -1687 0
-1382 -1689 0
-1384 -1690 0
-1385 -1691 0
-1380 -1707 0
-1381 -1709 0
-1383 -1711 0
-1384 -1712 0
-1385 -1713 0
-1381 -1723 0
-1382 -1725 0
-1383 -1726 0
-1384 -1727 0
-1385 -1728 0
-1382 -1733 0
-1384 -1734 0
-1385 -1735 0
-1382 -1748 0
-1384 -1749 0
-1385 -1750 0
-1381 -1798 0
-1384 -1800 0
-1385 -1801 0
-1381 -1812 0
-1382 -1814 0
-1384 -1815 0
-1385 -1816 0
-1382 -1828 0
-1383 -1829 0
-1384 -1830 0
-1385 -1831 0
-1381 -1880 0
-1384 -1882 0
-1385 -1883 0
-1381 -1892 0
-1382 -1893 0
-1383 -1894 0
-1384 -1895 0
-1385 -1896 0
-1381 -1912 0
-1382 -1913 0
-1384 -1914 0
-1385 -1915 0
-1382 -1927 0
-1383 -1928 0
-1384 -1929 0
-1385 -1930 0
-1382 -1946 0
-1383 -1947 0
-1384 -1948 0
-1385 -1949 0
-1381 -1952 0
-1382 -1953 0
-1383 -1954 0
-1384 -1955 0
-1385 -1956 0
-1381 -1967 0
-1382 -1968 0
-1383 -1969 0
-1384 -1970 0
-1385 -1971 0
-1381 -1980 0
-1383 -1981 0
-1384 -1982 0
-1385 -1983 0
-1381 -1992 0
-1382 -1994 0
-1383 -1995 0
-1384 -1996 0
-1385 -1997 0
-1388 -1459 0
-1389 -1460 0
-1390 -1461 0
-1391 -1462 0
-1389 -1466 0
-1390 -1468 0
-1391 -1469 0
-1388 -1527 0
-1389 -1528 0
-1390 -1530 0
-1391 -1531 0
-1387 -1535 0
-1388 -1538 0
-1389 -1539 0
-1390 -1541 0
-1391 -1542 0
-1387 -1545 0
-1389 -1546 0
-1390 -1547 0
-1391 -1548 0
-1386 -1583 0
-1387 -1585 0
-1389 -1587 0
-1390 -1588 0
-1391 -1589 0
-1388 -1594 0
-1389 -1595 0
-1390 -1596 0
-1391 -1597 0
-1388 -1601 0
-1390 -1603 0
-1391 -1604 0
-1387 -1613 0
-1388 -1616 0
-1390 -1618 0
-1391 -1619 0
-1387 -1622 0
-1390 -1625 0
-1391 -1626 0
-1387 -1629 0
-1388 -1631 0
-1389 -1632 0
-1390 -1634 0
-1391 -1635 0
-1387 -1649 0
-1388 -1651 0
-1389 -1652 0
-1390 -1654 0
-1391 -1655 0
-1387 -1656 0
-1388 -1659 0
-1390 -1660 0
-1391 -1661 0
-1386 -1663 0
-1389 -1666 0
-1390 -1668 0
-1391 -1669 0
-1386 -1671 0
-1388 -1672 0
-1389 -1673 0
-1390 -1675 0
-1391 -1676 0
-1386 -1699 0
-1387 -1701 0
-1389 -1703 0
-1390 -1705 0
-1391 -1706 0
-1388 -1710 0
-1390 -1712 0
-1391 -1713 0
-1388 -1716 0
-1389 -1717 0
-1390 -1718 0
-1391 -1719 0
-1387 -1730 0
-1388 -1732 0
-1389 -1733 0
-1390 -1734 0
-1391 -1735 0
-1387 -1737 0
-1389 -1740 0
-1390 -1742 0
-1391 -1743 0
-1387 -1745 0
-1388 -1747 0
-1389 -1748 0
-1390 -1749 0
-1391 -1750 0
-1386 -1764 0
-1388 -1767 0
-1389 -1768 0
-1390 -1770 0
-1391 -1771 0
-1386 -1795 0
-1388 -1799 0
-1390 -1800 0
-1391 -1801 0
-1386 -1803 0
-1388 -1806 0
-1390 -1808 0
-1391 -1809 0
-1386 -1811 0
-1388 -1813 0
-1389 -1814 0
-1390 -1815 0
-1391 -1816 0
-1389 -1893 0
-1390 -1895 0
-1391 -1896 0
-1388 -1899 0
-1390 -1901 0
-1391 -1902 0
-1386 -1903 0
-1388 -1905 0
-1389 -1906 0
-1390 -1908 0
-1391 -1909 0
-1386 -1910 0
-1389 -1913 0
-1390 -1914 0
-1391 -1915 0
-1388 -1919 0
-1389 -1920 0
-1390 -1922 0
-1391 -1923 0
-1389 -1953 0
-1390 -1955 0
-1391 -1956 0
-1388 -1960 0
-1389 -1961 0
-1390 -1963 0
-1391 -1964 0
-1389 -1968 0
-1390 -1970 0
-1391 -1971 0
-1388 -1993 0
-1389 -1994 0
-1390 -1996 0
-1391 -1997 0
-1392 -1534 0
-1393 -1535 0
-1394 -1536 0
-1395 -1537 0
-1396 -1538 0
-1397 -1539 0
-1398 -1540 0
-1399 -1541 0
-1400 -1542 0
-1392 -1544 0
-1393 -1545 0
-1397 -1546 0
-1399 -1547 0
-1400 -1548 0
-1393 -1550 0
-1394 -1551 0
-1395 -1552 0
-1398 -1553 0
-1399 -1554 0
-1400 -1555 0
-1393 -1557 0
-1395 -1558 0
-1396 -1559 0
-1397 -1560 0
-1399 -1561 0
-1400 -1562 0
-1392 -1571 0
-1394 -1572 0
-1395 -1573 0
-1399 -1574 0
-1400 -1575 0
-1392 -1577 0
-1396 -1578 0
-1397 -1579 0
-1398 -1580 0
-1399 -1581 0
-1400 -1582 0
-1392 -1584 0
-1393 -1585 0
-1395 -1586 0
-1397 -1587 0
-1399 -1588 0
-1400 -1589 0
-1392 -1591 0
-1394 -1592 0
-1395 -1593 0
-1396 -1594 0
-1397 -1595 0
-1399 -1596 0
-1400 -1597 0
-1392 -1599 0
-1395 -1600 0
-1396 -1601 0
-1398 -1602 0
-1399 -1603 0
-1400 -1604 0
-1392 -1606 0
-1393 -1607 0
-1395 -1608 0
-1396 -1609 0
-1399 -1610 0
-1400 -1611 0
-1392 -1621 0
-1393 -1622 0
-1394 -1623 0
-1395 -1624 0
-1399 -1625 0
-1400 -1626 0
-1392 -1628 0
-1393 -1629 0
-1395 -1630 0
-1396 -1631 0
-1397 -1632 0
-1398 -1633 0
-1399 -1634 0
-1400 -1635 0
-1392 -1678 0
-1394 -1679 0
-1397 -1680 0
-1398 -1681 0
-1399 -1682 0
-1400 -1683 0
-1392 -1685 0
-1394 -1686 0
-1395 -1687 0
-1396 -1688 0
-1397 -1689 0
-1399 -1690 0
-1400 -1691 0
-1392 -1700 0
-1393 -1701 0
-1394 -1702 0
-1397 -1703 0
-1398 -1704 0
-1399 -1705 0
-1400 -1706 0
-1394 -1708 0
-1395 -1709 0
-1396 -1710 0
-1398 -1711 0
-1399 -1712 0
-1400 -1713 0
-1394 -1715 0
-1396 -1716 0
-1397 -1717 0
-1399 -1718 0
-1400 -1719 0
-1393 -1721 0
-1394 -1722 0
-1395 -1723 0
-1396 -1724 0
-1397 -1725 0
-1398 -1726 0
-1399 -1727 0
-1400 -1728 0
-1393 -1737 0
-1394 -1738 0
-1395 -1739 0
-1397 -1740 0
-1398 -1741 0
-1399 -1742 0
-1400 -1743 0
-1393 -1745 0
-1394 -1746 0
-1396 -1747 0
-1397 -1748 0
-1399 -1749 0
-1400 -1750 0
-1392 -1773 0
-1394 -1774 0
-1396 -1775 0
-1397 -1776 0
-1399 -1777 0
-1400 -1778 0
-1392 -1796 0
-1394 -1797 0
-1395 -1798 0
-1396 -1799 0
-1399 -1800 0
-1400 -1801 0
-1392 -1818 0
-1394 -1819 0
-1395 -1820 0
-1396 -1821 0
-1399 -1822 0
-1400 -1823 0
-1392 -1825 0
-1394 -1826 0
-1396 -1827 0
-1397 -1828 0
-1398 -1829 0
-1399 -1830 0
-1400 -1831 0
-1394 -1904 0
-1396 -1905 0
-1397 -1906 0
-1398 -1907 0
-1399 -1908 0
-1400 -1909 0
-1394 -1911 0
-1395 -1912 0
-1397 -1913 0
-1399 -1914 0
-1400 -1915 0
-1392 -1945 0
-1397 -1946 0
-1398 -1947 0
-1399 -1948 0
-1400 -1949 0
-1392 -1958 0
-1394 -1959 0
-1396 -1960 0
-1397 -1961 0
-1398 -1962 0
-1399 -1963 0
-1400 -1964 0
-1392 -1966 0
-1395 -1967 0
-1397 -1968 0
-1398 -1969 0
-1399 -1970 0
-1400 -1971 0
-1394 -1979 0
-1395 -1980 0
-1398 -1981 0
-1399 -1982 0
-1400 -1983 0
-1396 -1985 0
-1397 -1986 0
-1398 -1987 0
-1399 -1988 0
-1400 -1989 0
-1403 -1464 0
-1405 -1466 0
-1406 -1468 0
-1407 -1469 0
-1403 -1471 0
-1404 -1473 0
-1405 -1474 0
-1406 -1476 0
-1407 -1477 0
-1402 -1545 0
-1405 -1546 0
-1406 -1547 0
-1407 -1548 0
-1402 -1557 0
-1404 -1559 0
-1405 -1560 0
-1406 -1561 0
-1407 -1562 0
-1403 -1572 0
-1406 -1574 0
-1407 -1575 0
-1402 -1585 0
-1405 -1587 0
-1406 -1588 0
-1407 -1589 0
-1403 -1592 0
-1404 -1594 0
-1405 -1595 0
-1406 -1596 0
-1407 -1597 0
-1402 -1607 0
-1404 -1609 0
-1406 -1610 0
-1407 -1611 0
-1402 -1613 0
-1403 -1614 0
-1404 -1616 0
-1406 -1618 0
-1407 -1619 0
-1401 -1627 0
-1402 -1629 0
-1404 -1631 0
-1405 -1632 0
-1406 -1634 0
-1407 -1635 0
-1402 -1637 0
-1406 -1640 0
-1407 -1641 0
-1402 -1649 0
-1404 -1651 0
-1405 -1652 0
-1406 -1654 0
-1407 -1655 0
-1403 -1664 0
-1405 -1666 0
-1406 -1668 0
-1407 -1669 0
-1403 -1679 0
-1405 -1680 0
-1406 -1682 0
-1407 -1683 0
-1401 -1693 0
-1403 -1694 0
-1405 -1695 0
-1406 -1697 0
-1407 -1698 0
-1402 -1701 0
-1403 -1702 0
-1405 -1703 0
-1406 -1705 0
-1407 -1706 0
-1403 -1708 0
-1404 -1710 0
-1406 -1712 0
-1407 -1713 0
-1402 -1721 0
-1403 -1722 0
-1404 -1724 0
-1405 -1725 0
-1406 -1727 0
-1407 -1728 0
-1402 -1730 0
-1403 -1731 0
-1404 -1732 0
-1405 -1733 0
-1406 -1734 0
-1407 -1735 0
-1401 -1744 0
-1402 -1745 0
-1403 -1746 0
-1404 -1747 0
-1405 -1748 0
-1406 -1749 0
-1407 -1750 0
-1402 -1751 0
-1403 -1752 0
-1405 -1753 0
-1406 -1755 0
-1407 -1756 0
-1401 -1779 0
-1403 -1782 0
-1405 -1784 0
-1406 -1786 0
-1407 -1787 0
-1401 -1802 0
-1403 -1804 0
-1404 -1806 0
-1406 -1808 0
-1407 -1809 0
-1401 -1817 0
-1403 -1819 0
-1404 -1821 0
-1406 -1822 0
-1407 -1823 0
-1401 -1832 0
-1403 -1833 0
-1404 -1835 0
-1405 -1836 0
-1406 -1837 0
-1407 -1838 0
-1403 -1898 0
-1404 -1899 0
-1406 -1901 0
-1407 -1902 0
-1403 -1911 0
-1405 -1913 0
-1406 -1914 0
-1407 -1915 0
-1403 -1917 0
-1404 -1919 0
-1405 -1920 0
-1406 -1922 0
-1407 -1923 0
-1404 -1940 0
-1405 -1941 0
-1406 -1942 0
-1407 -1943 0
-1405 -1946 0
-1406 -1948 0
-1407 -1949 0
-1403 -1951 0
-1405 -1953 0
-1406 -1955 0
-1407 -1956 0
-1401 -1965 0
-1405 -1968 0
-1406 -1970 0
-1407 -1971 0
-1403 -1973 0
-1404 -1974 0
-1406 -1976 0
-1407 -1977 0
-1401 -1984 0
-1404 -1985 0
-1405 -1986 0
-1406 -1988 0
-1407 -1989 0
-1410 -1458 0
-1411 -1459 0
-1413 -1461 0
-1414 -1462 0
-1410 -1526 0
-1411 -1527 0
-1412 -1529 0
-1413 -1530 0
-1414 -1531 0
-1409 -1535 0
-1410 -1537 0
-1411 -1538 0
-1412 -1540 0
-1413 -1541 0
-1414 -1542 0
-1409 -1550 0
-1410 -1552 0
-1412 -1553 0
-1413 -1554 0
-1414 -1555 0
-1411 -1578 0
-1412 -1580 0
-1413 -1581 0
-1414 -1582 0
-1409 -1585 0
-1410 -1586 0
-1413 -1588 0
-1414 -1589 0
-1410 -1600 0
-1411 -1601 0
-1412 -1602 0
-1413 -1603 0
-1414 -1604 0
-1409 -1607 0
-1410 -1608 0
-1411 -1609 0
-1413 -1610 0
-1414 -1611 0
-1409 -1613 0
-1410 -1615 0
-1411 -1616 0
-1412 -1617 0
-1413 -1618 0
-1414 -1619 0
-1408 -1620 0
-1409 -1622 0
-1410 -1624 0
-1413 -1625 0
-1414 -1626 0
-1409 -1643 0
-1411 -1645 0
-1413 -1647 0
-1414 -1648 0
-1409 -1656 0
-1410 -1658 0
-1411 -1659 0
-1413 -1660 0
-1414 -1661 0
-1411 -1672 0
-1412 -1674 0
-1413 -1675 0
-1414 -1676 0
-1410 -1687 0
-1411 -1688 0
-1413 -1690 0
-1414 -1691 0
-1408 -1693 0
-1412 -1696 0
-1413 -1697 0
-1414 -1698 0
-1409 -1701 0
-1412 -1704 0
-1413 -1705 0
-1414 -1706 0
-1411 -1716 0
-1413 -1718 0
-1414 -1719 0
-1409 -1721 0
-1410 -1723 0
-1411 -1724 0
-1412 -1726 0
-1413 -1727 0
-1414 -1728 0
-1409 -1730 0
-1411 -1732 0
-1413 -1734 0
-1414 -1735 0
-1408 -1736 0
-1409 -1737 0
-1410 -1739 0
-1412 -1741 0
-1413 -1742 0
-1414 -1743 0
-1409 -1757 0
-1410 -1758 0
-1411 -1759 0
-1412 -1761 0
-1413 -1762 0
-1414 -1763 0
-1408 -1788 0
-1411 -1791 0
-1413 -1793 0
-1414 -1794 0
-1408 -1810 0
-1410 -1812 0
-1411 -1813 0
-1413 -1815 0
-1414 -1816 0
-1408 -1824 0
-1411 -1827 0
-1412 -1829 0
-1413 -1830 0
-1414 -1831 0
-1408 -1832 0
-1410 -1834 0
-1411 -1835 0
-1413 -1837 0
-1414 -1838 0
-1410 -1892 0
-1412 -1894 0
-1413 -1895 0
-1414 -1896 0
-1411 -1905 0
-1412 -1907 0
-1413 -1908 0
-1414 -1909 0
-1410 -1939 0
-1411 -1940 0
-1413 -1942 0
-1414 -1943 0
-1412 -1947 0
-1413 -1948 0
-1414 -1949 0
-1410 -1952 0
-1412 -1954 0
-1413 -1955 0
-1414 -1956 0
-1408 -1957 0
-1411 -1960 0
-1412 -1962 0
-1413 -1963 0
-1414 -1964 0
-1411 -1974 0
-1412 -1975 0
-1413 -1976 0
-1414 -1977 0
-1408 -1978 0
-1410 -1980 0
-1412 -1981 0
-1413 -1982 0
-1414 -1983 0
-1410 -1992 0
-1411 -1993 0
-1412 -1995 0
-1413 -1996 0
-1414 -1997 0
-1418 -1438 0
-1419 -1439 0
-1420 -1440 0
-1421 -1441 0
-1416 -1452 0
-1418 -1453 0
-1419 -1454 0
-1420 -1455 0
-1421 -1456 0
-1416 -1472 0
-1417 -1473 0
-1418 -1474 0
-1419 -1475 0
-1420 -1476 0
-1421 -1477 0
-1416 -1508 0
-1418 -1509 0
-1420 -1510 0
-1421 -1511 0
-1416 -1521 0
-1419 -1522 0
-1420 -1523 0
-1421 -1524 0
-1415 -1545 0
-1418 -1546 0
-1420 -1547 0
-1421 -1548 0
-1415 -1550 0
-1416 -1552 0
-1419 -1553 0
-1420 -1554 0
-1421 -1555 0
-1415 -1564 0
-1416 -1566 0
-1418 -1567 0
-1420 -1568 0
-1421 -1569 0
-1416 -1573 0
-1420 -1574 0
-1421 -1575 0
-1415 -1585 0
-1416 -1586 0
-1418 -1587 0
-1420 -1588 0
-1421 -1589 0
-1415 -1622 0
-1416 -1624 0
-1420 -1625 0
-1421 -1626 0
-1415 -1643 0
-1417 -1645 0
-1418 -1646 0
-1420 -1647 0
-1421 -1648 0
-1415 -1649 0
-1416 -1650 0
-1417 -1651 0
-1418 -1652 0
-1419 -1653 0
-1420 -1654 0
-1421 -1655 0
-1416 -1665 0
-1418 -1666 0
-1419 -1667 0
-1420 -1668 0
-1421 -1669 0
-1418 -1680 0
-1419 -1681 0
-1420 -1682 0
-1421 -1683 0
-1418 -1695 0
-1419 -1696 0
-1420 -1697 0
-1421 -1698 0
-1415 -1701 0
-1418 -1703 0
-1419 -1704 0
-1420 -1705 0
-1421 -1706 0
-1415 -1737 0
-1416 -1739 0
-1418 -1740 0
-1419 -1741 0
-1420 -1742 0
-1421 -1743 0
-1415 -1757 0
-1416 -1758 0
-1417 -1759 0
-1418 -1760 0
-1419 -1761 0
-1420 -1762 0
-1421 -1763 0
-1416 -1783 0
-1418 -1784 0
-1419 -1785 0
-1420 -1786 0
-1421 -1787 0
-1416 -1840 0
-1417 -1841 0
-1419 -1842 0
-1420 -1843 0
-1421 -1844 0
-1417 -1854 0
-1419 -1855 0
-1420 -1856 0
-1421 -1857 0
-1417 -1865 0
-1418 -1866 0
-1419 -1867 0
-1420 -1868 0
-1421 -1869 0
-1415 -1884 0
-1418 -1886 0
-1419 -1887 0
-1420 -1888 0
-1421 -1889 0
-1416 -1892 0
-1418 -1893 0
-1419 -1894 0
-1420 -1895 0
-1421 -1896 0
-1416 -1912 0
-1418 -1913 0
-1420 -1914 0
-1421 -1915 0
-1415 -1932 0
-1416 -1933 0
-1419 -1934 0
-1420 -1935 0
-1421 -1936 0
-1418 -1946 0
-1419 -1947 0
-1420 -1948 0
-1421 -1949 0
-1416 -1952 0
-1418 -1953 0
-1419 -1954 0
-1420 -1955 0
-1421 -1956 0
-1416 -1967 0
-1418 -1968 0
-1419 -1969 0
-1420 -1970 0
-1421 -1971 0
-1416 -1980 0
-1419 -1981 0
-1420 -1982 0
-1421 -1983 0
-1416 -1992 0
-1417 -1993 0
-1418 -1994 0
-1419 -1995 0
-1420 -1996 0
-1421 -1997 0
-1426 -1440 0
-1427 -1441 0
-1423 -1444 0
-1425 -1445 0
-1426 -1448 0
-1427 -1449 0
-1423 -1507 0
-1424 -1508 0
-1426 -1510 0
-1427 -1511 0
-1423 -1513 0
-1424 -1514 0
-1425 -1515 0
-1426 -1517 0
-1427 -1518 0
-1422 -1535 0
-1423 -1536 0
-1424 -1537 0
-1425 -1538 0
-1426 -1541 0
-1427 -1542 0
-1422 -1557 0
-1424 -1558 0
-1425 -1559 0
-1426 -1561 0
-1427 -1562 0
-1422 -1564 0
-1423 -1565 0
-1424 -1566 0
-1426 -1568 0
-1427 -1569 0
-1425 -1578 0
-1426 -1581 0
-1427 -1582 0
-1422 -1585 0
-1424 -1586 0
-1426 -1588 0
-1427 -1589 0
-1422 -1629 0
-1424 -1630 0
-1425 -1631 0
-1426 -1634 0
-1427 -1635 0
-1422 -1637 0
-1424 -1638 0
-1426 -1640 0
-1427 -1641 0
-1422 -1656 0
-1423 -1657 0
-1424 -1658 0
-1425 -1659 0
-1426 -1660 0
-1427 -1661 0
-1425 -1672 0
-1426 -1675 0
-1427 -1676 0
-1423 -1686 0
-1424 -1687 0
-1425 -1688 0
-1426 -1690 0
-1427 -1691 0
-1423 -1694 0
-1426 -1697 0
-1427 -1698 0
-1422 -1701 0
-1423 -1702 0
-1426 -1705 0
-1427 -1706 0
-1422 -1745 0
-1423 -1746 0
-1425 -1747 0
-1426 -1749 0
-1427 -1750 0
-1422 -1751 0
-1423 -1752 0
-1426 -1755 0
-1427 -1756 0
-1425 -1791 0
-1426 -1793 0
-1427 -1794 0
-1423 -1846 0
-1425 -1847 0
-1426 -1850 0
-1427 -1851 0
-1424 -1859 0
-1425 -1860 0
-1426 -1862 0
-1427 -1863 0
-1425 -1865 0
-1426 -1868 0
-1427 -1869 0
-1422 -1878 0
-1423 -1879 0
-1424 -1880 0
-1425 -1881 0
-1426 -1882 0
-1427 -1883 0
-1423 -1898 0
-1425 -1899 0
-1426 -1901 0
-1427 -1902 0
-1423 -1904 0
-1425 -1905 0
-1426 -1908 0
-1427 -1909 0
-1423 -1917 0
-1424 -1918 0
-1425 -1919 0
-1426 -1922 0
-1427 -1923 0
-1422 -1932 0
-1424 -1933 0
-1426 -1935 0
-1427 -1936 0
-1426 -1948 0
-1427 -1949 0
-1423 -1951 0
-1424 -1952 0
-1426 -1955 0
-1427 -1956 0
-1423 -1959 0
-1425 -1960 0
-1426 -1963 0
-1427 -1964 0
-1425 -1985 0
-1426 -1988 0
-1427 -1989 0
-1429 -1534 0
-1430 -1537 0
-1431 -1538 0
-1432 -1539 0
-1433 -1540 0
-1434 -1541 0
-1435 -1542 0
-1429 -1544 0
-1432 -1546 0
-1434 -1547 0
-1435 -1548 0
-1429 -1563 0
-1430 -1566 0
-1432 -1567 0
-1434 -1568 0
-1435 -1569 0
-1429 -1591 0
-1430 -1593 0
-1431 -1594 0
-1432 -1595 0
-1434 -1596 0
-1435 -1597 0
-1429 -1599 0
-1430 -1600 0
-1431 -1601 0
-1433 -1602 0
-1434 -1603 0
-1435 -1604 0
-1428 -1605 0
-1429 -1606 0
-1430 -1608 0
-1431 -1609 0
-1434 -1610 0
-1435 -1611 0
-1429 -1621 0
-1430 -1624 0
-1434 -1625 0
-1435 -1626 0
-1429 -1628 0
-1430 -1630 0
-1431 -1631 0
-1432 -1632 0
-1433 -1633 0
-1434 -1634 0
-1435 -1635 0
-1429 -1636 0
-1430 -1638 0
-1433 -1639 0
-1434 -1640 0
-1435 -1641 0
-1429 -1642 0
-1431 -1645 0
-1432 -1646 0
-1434 -1647 0
-1435 -1648 0
-1429 -1678 0
-1432 -1680 0
-1433 -1681 0
-1434 -1682 0
-1435 -1683 0
-1429 -1685 0
-1430 -1687 0
-1431 -1688 0
-1432 -1689 0
-1434 -1690 0
-1435 -1691 0
-1428 -1699 0
-1429 -1700 0
-1432 -1703 0
-1433 -1704 0
-1434 -1705 0
-1435 -1706 0
-1429 -1729 0
-1431 -1732 0
-1432 -1733 0
-1434 -1734 0
-1435 -1735 0
-1428 -1764 0
-1429 -1765 0
-1430 -1766 0
-1431 -1767 0
-1432 -1768 0
-1433 -1769 0
-1434 -1770 0
-1435 -1771 0
-1428 -1780 0
-1429 -1781 0
-1430 -1783 0
-1432 -1784 0
-1433 -1785 0
-1434 -1786 0
-1435 -1787 0
-1428 -1789 0
-1429 -1790 0
-1431 -1791 0
-1432 -1792 0
-1434 -1793 0
-1435 -1794 0
-1428 -1795 0
-1429 -1796 0
-1430 -1798 0
-1431 -1799 0
-1434 -1800 0
-1435 -1801 0
-1429 -1818 0
-1430 -1820 0
-1431 -1821 0
-1434 -1822 0
-1435 -1823 0
-1429 -1825 0
-1431 -1827 0
-1432 -1828 0
-1433 -1829 0
-1434 -1830 0
-1435 -1831 0
-1429 -1852 0
-1431 -1854 0
-1433 -1855 0
-1434 -1856 0
-1435 -1857 0
-1429 -1858 0
-1430 -1859 0
-1431 -1860 0
-1432 -1861 0
-1434 -1862 0
-1435 -1863 0
-1430 -1880 0
-1431 -1881 0
-1434 -1882 0
-1435 -1883 0
-1432 -1886 0
-1433 -1887 0
-1434 -1888 0
-1435 -1889 0
-1428 -1903 0
-1431 -1905 0
-1432 -1906 0
-1433 -1907 0
-1434 -1908 0
-1435 -1909 0
-1428 -1910 0
-1430 -1912 0
-1432 -1913 0
-1434 -1914 0
-1435 -1915 0
-1430 -1918 0
-1431 -1919 0
-1432 -1920 0
-1433 -1921 0
-1434 -1922 0
-1435 -1923 0
-1429 -1931 0
-1430 -1933 0
-1433 -1934 0
-1434 -1935 0
-1435 -1936 0
-1428 -1944 0
-1429 -1945 0
-1432 -1946 0
-1433 -1947 0
-1434 -1948 0
-1435 -1949 0
-1429 -1958 0
-1431 -1960 0
-1432 -1961 0
-1433 -1962 0
-1434 -1963 0
-1435 -1964 0
-1429 -1966 0
-1430 -1967 0
-1432 -1968 0
-1433 -1969 0
-1434 -1970 0
-1435 -1971 0
-1429 -1972 0
-1431 -1974 0
-1433 -1975 0
-1434 -1976 0
-1435 -1977 0
-1436 -1492 0
-1439 -1496 0
-1440 -1497 0
-1441 -1498 0
-1436 -1500 0
-1438 -1503 0
-1440 -1504 0
-1441 -1505 0
-1438 -1528 0
-1439 -1529 0
-1440 -1530 0
-1441 -1531 0
-1439 -1553 0
-1440 -1554 0
-1441 -1555 0
-1438 -1560 0
-1440 -1561 0
-1441 -1562 0
-1437 -1563 0
-1438 -1567 0
-1440 -1568 0
-1441 -1569 0
-1437 -1571 0
-1440 -1574 0
-1441 -1575 0
-1437 -1577 0
-1438 -1579 0
-1439 -1580 0
-1440 -1581 0
-1441 -1582 0
-1436 -1583 0
-1437 -1584 0
-1438 -1587 0
-1440 -1588 0
-1441 -1589 0
-1437 -1621 0
-1440 -1625 0
-1441 -1626 0
-1437 -1628 0
-1438 -1632 0
-1439 -1633 0
-1440 -1634 0
-1441 -1635 0
-1438 -1652 0
-1439 -1653 0
-1440 -1654 0
-1441 -1655 0
-1440 -1660 0
-1441 -1661 0
-1439 -1711 0
-1440 -1712 0
-1441 -1713 0
-1438 -1717 0
-1440 -1718 0
-1441 -1719 0
-1436 -1720 0
-1438 -1725 0
-1439 -1726 0
-1440 -1727 0
-1441 -1728 0
-1437 -1729 0
-1438 -1733 0
-1440 -1734 0
-1441 -1735 0
-1436 -1764 0
-1437 -1765 0
-1438 -1768 0
-1439 -1769 0
-1440 -1770 0
-1441 -1771 0
-1436 -1772 0
-1437 -1773 0
-1438 -1776 0
-1440 -1777 0
-1441 -1778 0
-1436 -1803 0
-1439 -1807 0
-1440 -1808 0
-1441 -1809 0
-1436 -1811 0
-1438 -1814 0
-1440 -1815 0
-1441 -1816 0
-1437 -1818 0
-1440 -1822 0
-1441 -1823 0
-1437 -1825 0
-1438 -1828 0
-1439 -1829 0
-1440 -1830 0
-1441 -1831 0
-1438 -1873 0
-1439 -1874 0
-1440 -1875 0
-1441 -1876 0
-1440 -1882 0
-1441 -1883 0
-1438 -1886 0
-1439 -1887 0
-1440 -1888 0
-1441 -1889 0
-1438 -1920 0
-1439 -1921 0
-1440 -1922 0
-1441 -1923 0
-1437 -1924 0
-1438 -1927 0
-1439 -1928 0
-1440 -1929 0
-1441 -1930 0
-1436 -1944 0
-1437 -1945 0
-1438 -1946 0
-1439 -1947 0
-1440 -1948 0
-1441 -1949 0
-1437 -1950 0
-1438 -1953 0
-1439 -1954 0
-1440 -1955 0
-1441 -1956 0
-1439 -1981 0
-1440 -1982 0
-1441 -1983 0
-1438 -1986 0
-1439 -1987 0
-1440 -1988 0
-1441 -1989 0
-1445 -1480 0
-1447 -1481 0
-1448 -1482 0
-1449 -1483 0
-1442 -1499 0
-1445 -1502 0
-1446 -1503 0
-1448 -1504 0
-1449 -1505 0
-1443 -1534 0
-1444 -1536 0
-1445 -1538 0
-1446 -1539 0
-1447 -1540 0
-1448 -1541 0
-1449 -1542 0
-1444 -1551 0
-1447 -1553 0
-1448 -1554 0
-1449 -1555 0
-1443 -1563 0
-1444 -1565 0
-1446 -1567 0
-1448 -1568 0
-1449 -1569 0
-1443 -1577 0
-1445 -1578 0
-1446 -1579 0
-1447 -1580 0
-1448 -1581 0
-1449 -1582 0
-1443 -1584 0
-1446 -1587 0
-1448 -1588 0
-1449 -1589 0
-1443 -1599 0
-1445 -1601 0
-1447 -1602 0
-1448 -1603 0
-1449 -1604 0
-1443 -1606 0
-1445 -1609 0
-1448 -1610 0
-1449 -1611 0
-1442 -1627 0
-1443 -1628 0
-1445 -1631 0
-1446 -1632 0
-1447 -1633 0
-1448 -1634 0
-1449 -1635 0
-1443 -1636 0
-1447 -1639 0
-1448 -1640 0
-1449 -1641 0
-1445 -1651 0
-1446 -1652 0
-1447 -1653 0
-1448 -1654 0
-1449 -1655 0
-1443 -1678 0
-1444 -1679 0
-1446 -1680 0
-1447 -1681 0
-1448 -1682 0
-1449 -1683 0
-1444 -1708 0
-1445 -1710 0
-1447 -1711 0
-1448 -1712 0
-1449 -1713 0
-1443 -1729 0
-1444 -1731 0
-1445 -1732 0
-1446 -1733 0
-1448 -1734 0
-1449 -1735 0
-1442 -1736 0
-1444 -1738 0
-1446 -1740 0
-1447 -1741 0
-1448 -1742 0
-1449 -1743 0
-1443 -1773 0
-1444 -1774 0
-1445 -1775 0
-1446 -1776 0
-1448 -1777 0
-1449 -1778 0
-1442 -1779 0
-1443 -1781 0
-1444 -1782 0
-1446 -1784 0
-1447 -1785 0
-1448 -1786 0
-1449 -1787 0
-1443 -1796 0
-1444 -1797 0
-1445 -1799 0
-1448 -1800 0
-1449 -1801 0
-1442 -1802 0
-1444 -1804 0
-1445 -1806 0
-1447 -1807 0
-1448 -1808 0
-1449 -1809 0
-1442 -1824 0
-1443 -1825 0
-1444 -1826 0
-1445 -1827 0
-1446 -1828 0
-1447 -1829 0
-1448 -1830 0
-1449 -1831 0
-1442 -1832 0
-1444 -1833 0
-1445 -1835 0
-1446 -1836 0
-1448 -1837 0
-1449 -1838 0
-1443 -1852 0
-1444 -1853 0
-1445 -1854 0
-1447 -1855 0
-1448 -1856 0
-1449 -1857 0
-1444 -1870 0
-1445 -1872 0
-1446 -1873 0
-1447 -1874 0
-1448 -1875 0
-1449 -1876 0
-1444 -1885 0
-1446 -1886 0
-1447 -1887 0
-1448 -1888 0
-1449 -1889 0
-1444 -1904 0
-1445 -1905 0
-1446 -1906 0
-1447 -1907 0
-1448 -1908 0
-1449 -1909 0
-1444 -1917 0
-1445 -1919 0
-1446 -1920 0
-1447 -1921 0
-1448 -1922 0
-1449 -1923 0
-1443 -1924 0
-1445 -1926 0
-1446 -1927 0
-1447 -1928 0
-1448 -1929 0
-1449 -1930 0
-1443 -1931 0
-1447 -1934 0
-1448 -1935 0
-1449 -1936 0
-1443 -1950 0
-1444 -1951 0
-1446 -1953 0
-1447 -1954 0
-1448 -1955 0
-1449 -1956 0
-1442 -1957 0
-1443 -1958 0
-1444 -1959 0
-1445 -1960 0
-1446 -1961 0
-1447 -1962 0
-1448 -1963 0
-1449 -1964 0
-1443 -1972 0
-1444 -1973 0
-1445 -1974 0
-1447 -1975 0
-1448 -1976 0
-1449 -1977 0
-1442 -1978 0
-1444 -1979 0
-1447 -1981 0
-1448 -1982 0
-1449 -1983 0
-1452 -1479 0
-1454 -1481 0
-1455 -1482 0
-1456 -1483 0
-1450 -1491 0
-1452 -1494 0
-1454 -1496 0
-1455 -1497 0
-1456 -1498 0
-1452 -1526 0
-1453 -1528 0
-1454 -1529 0
-1455 -1530 0
-1456 -1531 0
-1451 -1544 0
-1453 -1546 0
-1455 -1547 0
-1456 -1548 0
-1452 -1558 0
-1453 -1560 0
-1455 -1561 0
-1456 -1562 0
-1451 -1563 0
-1452 -1566 0
-1453 -1567 0
-1455 -1568 0
-1456 -1569 0
-1451 -1571 0
-1452 -1573 0
-1455 -1574 0
-1456 -1575 0
-1451 -1584 0
-1452 -1586 0
-1453 -1587 0
-1455 -1588 0
-1456 -1589 0
-1451 -1591 0
-1452 -1593 0
-1453 -1595 0
-1455 -1596 0
-1456 -1597 0
-1451 -1606 0
-1452 -1608 0
-1455 -1610 0
-1456 -1611 0
-1450 -1620 0
-1451 -1621 0
-1452 -1624 0
-1455 -1625 0
-1456 -1626 0
-1451 -1642 0
-1453 -1646 0
-1455 -1647 0
-1456 -1648 0
-1452 -1658 0
-1455 -1660 0
-1456 -1661 0
-1451 -1685 0
-1452 -1687 0
-1453 -1689 0
-1455 -1690 0
-1456 -1691 0
-1453 -1717 0
-1455 -1718 0
-1456 -1719 0
-1451 -1729 0
-1453 -1733 0
-1455 -1734 0
-1456 -1735 0
-1450 -1744 0
-1453 -1748 0
-1455 -1749 0
-1456 -1750 0
-1451 -1773 0
-1453 -1776 0
-1455 -1777 0
-1456 -1778 0
-1450 -1788 0
-1451 -1790 0
-1453 -1792 0
-1455 -1793 0
-1456 -1794 0
-1451 -1796 0
-1452 -1798 0
-1455 -1800 0
-1456 -1801 0
-1450 -1810 0
-1452 -1812 0
-1453 -1814 0
-1455 -1815 0
-1456 -1816 0
-1450 -1817 0
-1451 -1818 0
-1452 -1820 0
-1455 -1822 0
-1456 -1823 0
-1450 -1832 0
-1452 -1834 0
-1453 -1836 0
-1455 -1837 0
-1456 -1838 0
-1451 -1858 0
-1452 -1859 0
-1453 -1861 0
-1455 -1862 0
-1456 -1863 0
-1452 -1880 0
-1455 -1882 0
-1456 -1883 0
-1452 -1912 0
-1453 -1913 0
-1455 -1914 0
-1456 -1915 0
-1451 -1924 0
-1453 -1927 0
-1454 -1928 0
-1455 -1929 0
-1456 -1930 0
-1451 -1931 0
-1452 -1933 0
-1454 -1934 0
-1455 -1935 0
-1456 -1936 0
-1451 -1950 0
-1452 -1952 0
-1453 -1953 0
-1454 -1954 0
-1455 -1955 0
-1456 -1956 0
-1450 -1965 0
-1451 -1966 0
-1452 -1967 0
-1453 -1968 0
-1454 -1969 0
-1455 -1970 0
-1456 -1971 0
-1451 -1972 0
-1454 -1975 0
-1455 -1976 0
-1456 -1977 0
-1450 -1984 0
-1453 -1986 0
-1454 -1987 0
-1455 -1988 0
-1456 -1989 0
-1458 -1479 0
-1459 -1480 0
-1461 -1482 0
-1462 -1483 0
-1458 -1501 0
-1459 -1502 0
-1460 -1503 0
-1461 -1504 0
-1462 -1505 0
-1458 -1508 0
-1460 -1509 0
-1461 -1510 0
-1462 -1511 0
-1458 -1521 0
-1461 -1523 0
-1462 -1524 0
-1457 -1534 0
-1458 -1537 0
-1459 -1538 0
-1460 -1539 0
-1461 -1541 0
-1462 -1542 0
-1457 -1577 0
-1459 -1578 0
-1460 -1579 0
-1461 -1581 0
-1462 -1582 0
-1457 -1584 0
-1458 -1586 0
-1460 -1587 0
-1461 -1588 0
-1462 -1589 0
-1457 -1591 0
-1458 -1593 0
-1459 -1594 0
-1460 -1595 0
-1461 -1596 0
-1462 -1597 0
-1457 -1612 0
-1458 -1615 0
-1459 -1616 0
-1461 -1618 0
-1462 -1619 0
-1457 -1621 0
-1458 -1624 0
-1461 -1625 0
-1462 -1626 0
-1457 -1642 0
-1459 -1645 0
-1460 -1646 0
-1461 -1647 0
-1462 -1648 0
-1458 -1650 0
-1459 -1651 0
-1460 -1652 0
-1461 -1654 0
-1462 -1655 0
-1457 -1678 0
-1460 -1680 0
-1461 -1682 0
-1462 -1683 0
-1460 -1753 0
-1461 -1755 0
-1462 -1756 0
-1457 -1773 0
-1459 -1775 0
-1460 -1776 0
-1461 -1777 0
-1462 -1778 0
-1457 -1781 0
-1458 -1783 0
-1460 -1784 0
-1461 -1786 0
-1462 -1787 0
-1457 -1818 0
-1458 -1820 0
-1459 -1821 0
-1461 -1822 0
-1462 -1823 0
-1458 -1840 0
-1459 -1841 0
-1461 -1843 0
-1462 -1844 0
-1457 -1858 0
-1458 -1859 0
-1459 -1860 0
-1460 -1861 0
-1461 -1862 0
-1462 -1863 0
-1459 -1865 0
-1460 -1866 0
-1461 -1868 0
-1462 -1869 0
-1458 -1871 0
-1459 -1872 0
-1460 -1873 0
-1461 -1875 0
-1462 -1876 0
-1458 -1880 0
-1459 -1881 0
-1461 -1882 0
-1462 -1883 0
-1457 -1897 0
-1459 -1899 0
-1461 -1901 0
-1462 -1902 0
-1459 -1905 0
-1460 -1906 0
-1461 -1908 0
-1462 -1909 0
-1457 -1924 0
-1459 -1926 0
-1460 -1927 0
-1461 -1929 0
-1462 -1930 0
-1457 -1938 0
-1458 -1939 0
-1459 -1940 0
-1460 -1941 0
-1461 -1942 0
-1462 -1943 0
-1457 -1950 0
-1458 -1952 0
-1460 -1953 0
-1461 -1955 0
-1462 -1956 0
-1457 -1958 0
-1459 -1960 0
-1460 -1961 0
-1461 -1963 0
-1462 -1964 0
-1465 -1479 0
-1467 -1481 0
-1468 -1482 0
-1469 -1483 0
-1464 -1493 0
-1465 -1494 0
-1467 -1496 0
-1468 -1497 0
-1469 -1498 0
-1464 -1507 0
-1465 -1508 0
-1466 -1509 0
-1468 -1510 0
-1469 -1511 0
-1464 -1513 0
-1465 -1514 0
-1466 -1516 0
-1468 -1517 0
-1469 -1518 0
-1463 -1544 0
-1466 -1546 0
-1468 -1547 0
-1469 -1548 0
-1463 -1571 0
-1464 -1572 0
-1465 -1573 0
-1468 -1574 0
-1469 -1575 0
-1463 -1584 0
-1465 -1586 0
-1466 -1587 0
-1468 -1588 0
-1469 -1589 0
-1463 -1599 0
-1465 -1600 0
-1467 -1602 0
-1468 -1603 0
-1469 -1604 0
-1463 -1612 0
-1464 -1614 0
-1465 -1615 0
-1467 -1617 0
-1468 -1618 0
-1469 -1619 0
-1463 -1628 0
-1465 -1630 0
-1466 -1632 0
-1467 -1633 0
-1468 -1634 0
-1469 -1635 0
-1463 -1636 0
-1465 -1638 0
-1467 -1639 0
-1468 -1640 0
-1469 -1641 0
-1464 -1657 0
-1465 -1658 0
-1468 -1660 0
-1469 -1661 0
-1463 -1685 0
-1464 -1686 0
-1465 -1687 0
-1466 -1689 0
-1468 -1690 0
-1469 -1691 0
-1465 -1758 0
-1466 -1760 0
-1467 -1761 0
-1468 -1762 0
-1469 -1763 0
-1463 -1773 0
-1464 -1774 0
-1466 -1776 0
-1468 -1777 0
-1469 -1778 0
-1463 -1790 0
-1466 -1792 0
-1468 -1793 0
-1469 -1794 0
-1463 -1825 0
-1464 -1826 0
-1466 -1828 0
-1467 -1829 0
-1468 -1830 0
-1469 -1831 0
-1464 -1846 0
-1466 -1848 0
-1467 -1849 0
-1468 -1850 0
-1469 -1851 0
-1463 -1852 0
-1464 -1853 0
-1467 -1855 0
-1468 -1856 0
-1469 -1857 0
-1466 -1866 0
-1467 -1867 0
-1468 -1868 0
-1469 -1869 0
-1464 -1885 0
-1466 -1886 0
-1467 -1887 0
-1468 -1888 0
-1469 -1889 0
-1463 -1890 0
-1464 -1891 0
-1465 -1892 0
-1466 -1893 0
-1467 -1894 0
-1468 -1895 0
-1469 -1896 0
-1464 -1911 0
-1465 -1912 0
-1466 -1913 0
-1468 -1914 0
-1469 -1915 0
-1464 -1917 0
-1465 -1918 0
-1466 -1920 0
-1467 -1921 0
-1468 -1922 0
-1469 -1923 0
-1463 -1924 0
-1466 -1927 0
-1467 -1928 0
-1468 -1929 0
-1469 -1930 0
-1463 -1938 0
-1465 -1939 0
-1466 -1941 0
-1468 -1942 0
-1469 -1943 0
-1463 -1950 0
-1464 -1951 0
-1465 -1952 0
-1466 -1953 0
-1467 -1954 0
-1468 -1955 0
-1469 -1956 0
-1463 -1966 0
-1465 -1967 0
-1466 -1968 0
-1467 -1969 0
-1468 -1970 0
-1469 -1971 0
-1464 -1991 0
-1465 -1992 0
-1466 -1994 0
-1467 -1995 0
-1468 -1996 0
-1469 -1997 0
-1472 -1479 0
-1473 -1480 0
-1475 -1481 0
-1476 -1482 0
-1477 -1483 0
-1471 -1486 0
-1472 -1487 0
-1473 -1488 0
-1476 -1489 0
-1477 -1490 0
-1472 -1501 0
-1473 -1502 0
-1474 -1503 0
-1476 -1504 0
-1477 -1505 0
-1471 -1513 0
-1472 -1514 0
-1473 -1515 0
-1474 -1516 0
-1476 -1517 0
-1477 -1518 0
-1471 -1525 0
-1472 -1526 0
-1473 -1527 0
-1474 -1528 0
-1475 -1529 0
-1476 -1530 0
-1477 -1531 0
-1472 -1558 0
-1473 -1559 0
-1474 -1560 0
-1476 -1561 0
-1477 -1562 0
-1473 -1578 0
-1474 -1579 0
-1475 -1580 0
-1476 -1581 0
-1477 -1582 0
-1471 -1592 0
-1472 -1593 0
-1473 -1594 0
-1474 -1595 0
-1476 -1596 0
-1477 -1597 0
-1472 -1608 0
-1473 -1609 0
-1476 -1610 0
-1477 -1611 0
-1471 -1614 0
-1472 -1615 0
-1473 -1616 0
-1475 -1617 0
-1476 -1618 0
-1477 -1619 0
-1472 -1630 0
-1473 -1631 0
-1474 -1632 0
-1475 -1633 0
-1476 -1634 0
-1477 -1635 0
-1471 -1644 0
-1473 -1645 0
-1474 -1646 0
-1476 -1647 0
-1477 -1648 0
-1472 -1650 0
-1473 -1651 0
-1474 -1652 0
-1475 -1653 0
-1476 -1654 0
-1477 -1655 0
-1471 -1715 0
-1473 -1716 0
-1474 -1717 0
-1476 -1718 0
-1477 -1719 0
-1471 -1797 0
-1472 -1798 0
-1473 -1799 0
-1476 -1800 0
-1477 -1801 0
-1472 -1812 0
-1473 -1813 0
-1474 -1814 0
-1476 -1815 0
-1477 -1816 0
-1471 -1826 0
-1473 -1827 0
-1474 -1828 0
-1475 -1829 0
-1476 -1830 0
-1477 -1831 0
-1471 -1846 0
-1473 -1847 0
-1474 -1848 0
-1475 -1849 0
-1476 -1850 0
-1477 -1851 0
-1472 -1859 0
-1473 -1860 0
-1474 -1861 0
-1476 -1862 0
-1477 -1863 0
-1471 -1870 0
-1472 -1871 0
-1473 -1872 0
-1474 -1873 0
-1475 -1874 0
-1476 -1875 0
-1477 -1876 0
-1471 -1885 0
-1474 -1886 0
-1475 -1887 0
-1476 -1888 0
-1477 -1889 0
-1471 -1891 0
-1472 -1892 0
-1474 -1893 0
-1475 -1894 0
-1476 -1895 0
-1477 -1896 0
-1471 -1917 0
-1472 -1918 0
-1473 -1919 0
-1474 -1920 0
-1475 -1921 0
-1476 -1922 0
-1477 -1923 0
-1472 -1933 0
-1475 -1934 0
-1476 -1935 0
-1477 -1936 0
-1471 -1973 0
-1473 -1974 0
-1475 -1975 0
-1476 -1976 0
-1477 -1977 0
-1473 -1985 0
-1474 -1986 0
-1475 -1987 0
-1476 -1988 0
-1477 -1989 0
-1471 -1991 0
-1472 -1992 0
-1473 -1993 0
-1474 -1994 0
-1475 -1995 0
-1476 -1996 0
-1477 -1997 0
-1479 -1537 0
-1480 -1538 0
-1481 -1540 0
-1482 -1541 0
-1483 -1542 0
-1482 -1547 0
-1483 -1548 0
-1479 -1552 0
-1481 -1553 0
-1482 -1554 0
-1483 -1555 0
-1479 -1558 0
-1480 -1559 0
-1482 -1561 0
-1483 -1562 0
-1479 -1566 0
-1482 -1568 0
-1483 -1569 0
-1478 -1583 0
-1479 -1586 0
-1482 -1588 0
-1483 -1589 0
-1478 -1605 0
-1479 -1608 0
-1480 -1609 0
-1482 -1610 0
-1483 -1611 0
-1481 -1681 0
-1482 -1682 0
-1483 -1683 0
-1479 -1687 0
-1480 -1688 0
-1482 -1690 0
-1483 -1691 0
-1481 -1696 0
-1482 -1697 0
-1483 -1698 0
-1479 -1709 0
-1480 -1710 0
-1481 -1711 0
-1482 -1712 0
-1483 -1713 0
-1480 -1716 0
-1482 -1718 0
-1483 -1719 0
-1480 -1732 0
-1482 -1734 0
-1483 -1735 0
-1479 -1739 0
-1481 -1741 0
-1482 -1742 0
-1483 -1743 0
-1480 -1747 0
-1482 -1749 0
-1483 -1750 0
-1481 -1754 0
-1482 -1755 0
-1483 -1756 0
-1479 -1758 0
-1480 -1759 0
-1481 -1761 0
-1482 -1762 0
-1483 -1763 0
-1478 -1772 0
-1480 -1775 0
-1482 -1777 0
-1483 -1778 0
-1478 -1780 0
-1479 -1783 0
-1481 -1785 0
-1482 -1786 0
-1483 -1787 0
-1478 -1789 0
-1480 -1791 0
-1482 -1793 0
-1483 -1794 0
-1478 -1795 0
-1479 -1798 0
-1480 -1799 0
-1482 -1800 0
-1483 -1801 0
-1478 -1803 0
-1479 -1805 0
-1480 -1806 0
-1481 -1807 0
-1482 -1808 0
-1483 -1809 0
-1478 -1811 0
-1479 -1812 0
-1480 -1813 0
-1482 -1815 0
-1483 -1816 0
-1478 -1839 0
-1479 -1840 0
-1480 -1841 0
-1481 -1842 0
-1482 -1843 0
-1483 -1844 0
-1478 -1845 0
-1480 -1847 0
-1481 -1849 0
-1482 -1850 0
-1483 -1851 0
-1479 -1880 0
-1480 -1881 0
-1482 -1882 0
-1483 -1883 0
-1481 -1887 0
-1482 -1888 0
-1483 -1889 0
-1479 -1918 0
-1480 -1919 0
-1481 -1921 0
-1482 -1922 0
-1483 -1923 0
-1479 -1939 0
-1480 -1940 0
-1482 -1942 0
-1483 -1943 0
-1485 -1534 0
-1486 -1536 0
-1487 -1537 0
-1488 -1538 0
-1489 -1541 0
-1490 -1542 0
-1485 -1544 0
-1489 -1547 0
-1490 -1548 0
-1485 -1563 0
-1486 -1565 0
-1487 -1566 0
-1489 -1568 0
-1490 -1569 0
-1485 -1571 0
-1486 -1572 0
-1487 -1573 0
-1489 -1574 0
-1490 -1575 0
-1485 -1577 0
-1488 -1578 0
-1489 -1581 0
-1490 -1582 0
-1484 -1583 0
-1485 -1584 0
-1487 -1586 0
-1489 -1588 0
-1490 -1589 0
-1485 -1612 0
-1486 -1614 0
-1487 -1615 0
-1488 -1616 0
-1489 -1618 0
-1490 -1619 0
-1484 -1663 0
-1486 -1664 0
-1487 -1665 0
-1489 -1668 0
-1490 -1669 0
-1484 -1671 0
-1488 -1672 0
-1489 -1675 0
-1490 -1676 0
-1486 -1694 0
-1489 -1697 0
-1490 -1698 0
-1486 -1708 0
-1487 -1709 0
-1488 -1710 0
-1489 -1712 0
-1490 -1713 0
-1486 -1715 0
-1488 -1716 0
-1489 -1718 0
-1490 -1719 0
-1484 -1720 0
-1486 -1722 0
-1487 -1723 0
-1488 -1724 0
-1489 -1727 0
-1490 -1728 0
-1486 -1738 0
-1487 -1739 0
-1489 -1742 0
-1490 -1743 0
-1486 -1746 0
-1488 -1747 0
-1489 -1749 0
-1490 -1750 0
-1486 -1752 0
-1489 -1755 0
-1490 -1756 0
-1487 -1758 0
-1488 -1759 0
-1489 -1762 0
-1490 -1763 0
-1484 -1764 0
-1485 -1765 0
-1487 -1766 0
-1488 -1767 0
-1489 -1770 0
-1490 -1771 0
-1484 -1780 0
-1485 -1781 0
-1486 -1782 0
-1487 -1783 0
-1489 -1786 0
-1490 -1787 0
-1484 -1789 0
-1485 -1790 0
-1488 -1791 0
-1489 -1793 0
-1490 -1794 0
-1484 -1795 0
-1485 -1796 0
-1486 -1797 0
-1487 -1798 0
-1488 -1799 0
-1489 -1800 0
-1490 -1801 0
-1485 -1818 0
-1486 -1819 0
-1487 -1820 0
-1488 -1821 0
-1489 -1822 0
-1490 -1823 0
-1485 -1825 0
-1486 -1826 0
-1488 -1827 0
-1489 -1830 0
-1490 -1831 0
-1485 -1852 0
-1486 -1853 0
-1488 -1854 0
-1489 -1856 0
-1490 -1857 0
-1485 -1858 0
-1487 -1859 0
-1488 -1860 0
-1489 -1862 0
-1490 -1863 0
-1486 -1879 0
-1487 -1880 0
-1488 -1881 0
-1489 -1882 0
-1490 -1883 0
-1486 -1885 0
-1489 -1888 0
-1490 -1889 0
-1485 -1890 0
-1486 -1891 0
-1487 -1892 0
-1489 -1895 0
-1490 -1896 0
-1485 -1897 0
-1486 -1898 0
-1488 -1899 0
-1489 -1901 0
-1490 -1902 0
-1485 -1931 0
-1487 -1933 0
-1489 -1935 0
-1490 -1936 0
-1485 -1938 0
-1487 -1939 0
-1488 -1940 0
-1489 -1942 0
-1490 -1943 0
-1486 -1979 0
-1487 -1980 0
-1489 -1982 0
-1490 -1983 0
-1488 -1985 0
-1489 -1988 0
-1490 -1989 0
-1486 -1991 0
-1487 -1992 0
-1488 -1993 0
-1489 -1996 0
-1490 -1997 0
-1497 -1547 0
-1498 -1548 0
-1493 -1551 0
-1494 -1552 0
-1496 -1553 0
-1497 -1554 0
-1498 -1555 0
-1493 -1565 0
-1494 -1566 0
-1497 -1568 0
-1498 -1569 0
-1493 -1572 0
-1494 -1573 0
-1497 -1574 0
-1498 -1575 0
-1492 -1583 0
-1494 -1586 0
-1497 -1588 0
-1498 -1589 0
-1491 -1620 0
-1493 -1623 0
-1494 -1624 0
-1497 -1625 0
-1498 -1626 0
-1494 -1638 0
-1496 -1639 0
-1497 -1640 0
-1498 -1641 0
-1492 -1671 0
-1495 -1672 0
-1496 -1674 0
-1497 -1675 0
-1498 -1676 0
-1493 -1686 0
-1494 -1687 0
-1495 -1688 0
-1497 -1690 0
-1498 -1691 0
-1493 -1708 0
-1494 -1709 0
-1495 -1710 0
-1496 -1711 0
-1497 -1712 0
-1498 -1713 0
-1492 -1720 0
-1493 -1722 0
-1494 -1723 0
-1495 -1724 0
-1496 -1726 0
-1497 -1727 0
-1498 -1728 0
-1493 -1731 0
-1495 -1732 0
-1497 -1734 0
-1498 -1735 0
-1491 -1744 0
-1493 -1746 0
-1495 -1747 0
-1497 -1749 0
-1498 -1750 0
-1494 -1758 0
-1495 -1759 0
-1496 -1761 0
-1497 -1762 0
-1498 -1763 0
-1492 -1764 0
-1494 -1766 0
-1495 -1767 0
-1496 -1769 0
-1497 -1770 0
-1498 -1771 0
-1492 -1772 0
-1493 -1774 0
-1495 -1775 0
-1497 -1777 0
-1498 -1778 0
-1491 -1788 0
-1492 -1789 0
-1495 -1791 0
-1497 -1793 0
-1498 -1794 0
-1491 -1802 0
-1492 -1803 0
-1493 -1804 0
-1494 -1805 0
-1495 -1806 0
-1496 -1807 0
-1497 -1808 0
-1498 -1809 0
-1491 -1817 0
-1493 -1819 0
-1494 -1820 0
-1495 -1821 0
-1497 -1822 0
-1498 -1823 0
-1491 -1832 0
-1493 -1833 0
-1494 -1834 0
-1495 -1835 0
-1497 -1837 0
-1498 -1838 0
-1492 -1839 0
-1494 -1840 0
-1495 -1841 0
-1496 -1842 0
-1497 -1843 0
-1498 -1844 0
-1493 -1853 0
-1495 -1854 0
-1496 -1855 0
-1497 -1856 0
-1498 -1857 0
-1491 -1864 0
-1495 -1865 0
-1496 -1867 0
-1497 -1868 0
-1498 -1869 0
-1493 -1885 0
-1496 -1887 0
-1497 -1888 0
-1498 -1889 0
-1493 -1891 0
-1494 -1892 0
-1496 -1894 0
-1497 -1895 0
-1498 -1896 0
-1493 -1917 0
-1494 -1918 0
-1495 -1919 0
-1496 -1921 0
-1497 -1922 0
-1498 -1923 0
-1494 -1933 0
-1496 -1934 0
-1497 -1935 0
-1498 -1936 0
-1493 -1973 0
-1495 -1974 0
-1496 -1975 0
-1497 -1976 0
-1498 -1977 0
-1491 -1984 0
-1495 -1985 0
-1496 -1987 0
-1497 -1988 0
-1498 -1989 0
-1493 -1991 0
-1494 -1992 0
-1495 -1993 0
-1496 -1995 0
-1497 -1996 0
-1498 -1997 0
-1501 -1537 0
-1502 -1538 0
-1503 -1539 0
-1504 -1541 0
-1505 -1542 0
-1501 -1558 0
-1502 -1559 0
-1503 -1560 0
-1504 -1561 0
-1505 -1562 0
-1501 -1566 0
-1503 -1567 0
-1504 -1568 0
-1505 -1569 0
-1502 -1578 0
-1503 -1579 0
-1504 -1581 0
-1505 -1582 0
-1500 -1583 0
-1501 -1586 0
-1503 -1587 0
-1504 -1588 0
-1505 -1589 0
-1499 -1627 0
-1501 -1630 0
-1502 -1631 0
-1503 -1632 0
-1504 -1634 0
-1505 -1635 0
-1502 -1645 0
-1503 -1646 0
-1504 -1647 0
-1505 -1648 0
-1500 -1663 0
-1501 -1665 0
-1503 -1666 0
-1504 -1668 0
-1505 -1669 0
-1503 -1680 0
-1504 -1682 0
-1505 -1683 0
-1502 -1716 0
-1503 -1717 0
-1504 -1718 0
-1505 -1719 0
-1500 -1720 0
-1501 -1723 0
-1502 -1724 0
-1503 -1725 0
-1504 -1727 0
-1505 -1728 0
-1502 -1732 0
-1503 -1733 0
-1504 -1734 0
-1505 -1735 0
-1499 -1736 0
-1501 -1739 0
-1503 -1740 0
-1504 -1742 0
-1505 -1743 0
-1503 -1753 0
-1504 -1755 0
-1505 -1756 0
-1500 -1764 0
-1501 -1766 0
-1502 -1767 0
-1503 -1768 0
-1504 -1770 0
-1505 -1771 0
-1500 -1772 0
-1502 -1775 0
-1503 -1776 0
-1504 -1777 0
-1505 -1778 0
-1499 -1779 0
-1500 -1780 0
-1501 -1783 0
-1503 -1784 0
-1504 -1786 0
-1505 -1787 0
-1499 -1810 0
-1500 -1811 0
-1501 -1812 0
-1502 -1813 0
-1503 -1814 0
-1504 -1815 0
-1505 -1816 0
-1499 -1824 0
-1502 -1827 0
-1503 -1828 0
-1504 -1830 0
-1505 -1831 0
-1499 -1832 0
-1501 -1834 0
-1502 -1835 0
-1503 -1836 0
-1504 -1837 0
-1505 -1838 0
-1500 -1845 0
-1502 -1847 0
-1503 -1848 0
-1504 -1850 0
-1505 -1851 0
-1501 -1859 0
-1502 -1860 0
-1503 -1861 0
-1504 -1862 0
-1505 -1863 0
-1499 -1864 0
-1502 -1865 0
-1503 -1866 0
-1504 -1868 0
-1505 -1869 0
-1501 -1880 0
-1502 -1881 0
-1504 -1882 0
-1505 -1883 0
-1502 -1899 0
-1504 -1901 0
-1505 -1902 0
-1501 -1933 0
-1504 -1935 0
-1505 -1936 0
-1502 -1974 0
-1504 -1976 0
-1505 -1977 0
-1499 -1978 0
-1501 -1980 0
-1504 -1982 0
-1505 -1983 0
-1507 -1551 0
-1508 -1552 0
-1510 -1554 0
-1511 -1555 0
-1508 -1558 0
-1509 -1560 0
-1510 -1561 0
-1511 -1562 0
-1507 -1565 0
-1508 -1566 0
-1509 -1567 0
-1510 -1568 0
-1511 -1569 0
-1507 -1592 0
-1508 -1593 0
-1509 -1595 0
-1510 -1596 0
-1511 -1597 0
-1508 -1600 0
-1510 -1603 0
-1511 -1604 0
-1506 -1605 0
-1508 -1608 0
-1510 -1610 0
-1511 -1611 0
-1507 -1614 0
-1508 -1615 0
-1510 -1618 0
-1511 -1619 0
-1506 -1663 0
-1507 -1664 0
-1508 -1665 0
-1509 -1666 0
-1510 -1668 0
-1511 -1669 0
-1506 -1671 0
-1509 -1673 0
-1510 -1675 0
-1511 -1676 0
-1507 -1679 0
-1509 -1680 0
-1510 -1682 0
-1511 -1683 0
-1507 -1686 0
-1508 -1687 0
-1509 -1689 0
-1510 -1690 0
-1511 -1691 0
-1506 -1699 0
-1507 -1702 0
-1509 -1703 0
-1510 -1705 0
-1511 -1706 0
-1507 -1738 0
-1508 -1739 0
-1509 -1740 0
-1510 -1742 0
-1511 -1743 0
-1507 -1746 0
-1509 -1748 0
-1510 -1749 0
-1511 -1750 0
-1506 -1764 0
-1508 -1766 0
-1509 -1768 0
-1510 -1770 0
-1511 -1771 0
-1506 -1772 0
-1507 -1774 0
-1509 -1776 0
-1510 -1777 0
-1511 -1778 0
-1506 -1803 0
-1507 -1804 0
-1508 -1805 0
-1510 -1808 0
-1511 -1809 0
-1506 -1811 0
-1508 -1812 0
-1509 -1814 0
-1510 -1815 0
-1511 -1816 0
-1507 -1819 0
-1508 -1820 0
-1510 -1822 0
-1511 -1823 0
-1507 -1826 0
-1509 -1828 0
-1510 -1830 0
-1511 -1831 0
-1507 -1870 0
-1508 -1871 0
-1509 -1873 0
-1510 -1875 0
-1511 -1876 0
-1507 -1879 0
-1508 -1880 0
-1510 -1882 0
-1511 -1883 0
-1507 -1885 0
-1509 -1886 0
-1510 -1888 0
-1511 -1889 0
-1507 -1891 0
-1508 -1892 0
-1509 -1893 0
-1510 -1895 0
-1511 -1896 0
-1507 -1898 0
-1510 -1901 0
-1511 -1902 0
-1506 -1903 0
-1507 -1904 0
-1509 -1906 0
-1510 -1908 0
-1511 -1909 0
-1506 -1910 0
-1507 -1911 0
-1508 -1912 0
-1509 -1913 0
-1510 -1914 0
-1511 -1915 0
-1509 -1927 0
-1510 -1929 0
-1511 -1930 0
-1507 -1959 0
-1509 -1961 0
-1510 -1963 0
-1511 -1964 0
-1508 -1967 0
-1509 -1968 0
-1510 -1970 0
-1511 -1971 0
-1507 -1991 0
-1508 -1992 0
-1509 -1994 0
-1510 -1996 0
-1511 -1997 0
-1513 -1536 0
-1514 -1537 0
-1515 -1538 0
-1516 -1539 0
-1517 -1541 0
-1518 -1542 0
-1513 -1551 0
-1514 -1552 0
-1517 -1554 0
-1518 -1555 0
-1513 -1565 0
-1514 -1566 0
-1516 -1567 0
-1517 -1568 0
-1518 -1569 0
-1513 -1572 0
-1514 -1573 0
-1517 -1574 0
-1518 -1575 0
-1513 -1592 0
-1514 -1593 0
-1515 -1594 0
-1516 -1595 0
-1517 -1596 0
-1518 -1597 0
-1513 -1614 0
-1514 -1615 0
-1515 -1616 0
-1517 -1618 0
-1518 -1619 0
-1512 -1620 0
-1513 -1623 0
-1514 -1624 0
-1517 -1625 0
-1518 -1626 0
-1513 -1664 0
-1514 -1665 0
-1516 -1666 0
-1517 -1668 0
-1518 -1669 0
-1513 -1686 0
-1514 -1687 0
-1515 -1688 0
-1516 -1689 0
-1517 -1690 0
-1518 -1691 0
-1512 -1693 0
-1513 -1694 0
-1516 -1695 0
-1517 -1697 0
-1518 -1698 0
-1513 -1702 0
-1516 -1703 0
-1517 -1705 0
-1518 -1706 0
-1513 -1715 0
-1515 -1716 0
-1516 -1717 0
-1517 -1718 0
-1518 -1719 0
-1513 -1722 0
-1514 -1723 0
-1515 -1724 0
-1516 -1725 0
-1517 -1727 0
-1518 -1728 0
-1512 -1744 0
-1513 -1746 0
-1515 -1747 0
-1516 -1748 0
-1517 -1749 0
-1518 -1750 0
-1513 -1752 0
-1516 -1753 0
-1517 -1755 0
-1518 -1756 0
-1513 -1774 0
-1515 -1775 0
-1516 -1776 0
-1517 -1777 0
-1518 -1778 0
-1512 -1779 0
-1513 -1782 0
-1514 -1783 0
-1516 -1784 0
-1517 -1786 0
-1518 -1787 0
-1513 -1797 0
-1514 -1798 0
-1515 -1799 0
-1517 -1800 0
-1518 -1801 0
-1512 -1802 0
-1513 -1804 0
-1514 -1805 0
-1515 -1806 0
-1517 -1808 0
-1518 -1809 0
-1512 -1824 0
-1513 -1826 0
-1515 -1827 0
-1516 -1828 0
-1517 -1830 0
-1518 -1831 0
-1512 -1832 0
-1513 -1833 0
-1514 -1834 0
-1515 -1835 0
-1516 -1836 0
-1517 -1837 0
-1518 -1838 0
-1513 -1853 0
-1515 -1854 0
-1517 -1856 0
-1518 -1857 0
-1513 -1870 0
-1514 -1871 0
-1515 -1872 0
-1516 -1873 0
-1517 -1875 0
-1518 -1876 0
-1513 -1885 0
-1516 -1886 0
-1517 -1888 0
-1518 -1889 0
-1513 -1898 0
-1515 -1899 0
-1517 -1901 0
-1518 -1902 0
-1513 -1911 0
-1514 -1912 0
-1516 -1913 0
-1517 -1914 0
-1518 -1915 0
-1515 -1926 0
-1516 -1927 0
-1517 -1929 0
-1518 -1930 0
-1514 -1933 0
-1517 -1935 0
-1518 -1936 0
-1514 -1939 0
-1515 -1940 0
-1516 -1941 0
-1517 -1942 0
-1518 -1943 0
-1516 -1946 0
-1517 -1948 0
-1518 -1949 0
-1512 -1965 0
-1514 -1967 0
-1516 -1968 0
-1517 -1970 0
-1518 -1971 0
-1512 -1984 0
-1515 -1985 0
-1516 -1986 0
-1517 -1988 0
-1518 -1989 0
-1523 -1547 0
-1524 -1548 0
-1521 -1558 0
-1523 -1561 0
-1524 -1562 0
-1520 -1565 0
-1521 -1566 0
-1523 -1568 0
-1524 -1569 0
-1522 -1580 0
-1523 -1581 0
-1524 -1582 0
-1521 -1600 0
-1522 -1602 0
-1523 -1603 0
-1524 -1604 0
-1520 -1614 0
-1521 -1615 0
-1522 -1617 0
-1523 -1618 0
-1524 -1619 0
-1519 -1627 0
-1521 -1630 0
-1522 -1633 0
-1523 -1634 0
-1524 -1635 0
-1522 -1674 0
-1523 -1675 0
-1524 -1676 0
-1520 -1679 0
-1522 -1681 0
-1523 -1682 0
-1524 -1683 0
-1519 -1693 0
-1520 -1694 0
-1522 -1696 0
-1523 -1697 0
-1524 -1698 0
-1520 -1702 0
-1522 -1704 0
-1523 -1705 0
-1524 -1706 0
-1520 -1708 0
-1521 -1709 0
-1522 -1711 0
-1523 -1712 0
-1524 -1713 0
-1520 -1722 0
-1521 -1723 0
-1522 -1726 0
-1523 -1727 0
-1524 -1728 0
-1519 -1736 0
-1520 -1738 0
-1521 -1739 0
-1522 -1741 0
-1523 -1742 0
-1524 -1743 0
-1521 -1758 0
-1522 -1761 0
-1523 -1762 0
-1524 -1763 0
-1520 -1774 0
-1523 -1777 0
-1524 -1778 0
-1519 -1788 0
-1523 -1793 0
-1524 -1794 0
-1520 -1797 0
-1521 -1798 0
-1523 -1800 0
-1524 -1801 0
-1519 -1810 0
-1521 -1812 0
-1523 -1815 0
-1524 -1816 0
-1519 -1817 0
-1520 -1819 0
-1521 -1820 0
-1523 -1822 0
-1524 -1823 0
-1519 -1832 0
-1520 -1833 0
-1521 -1834 0
-1523 -1837 0
-1524 -1838 0
-1521 -1859 0
-1523 -1862 0
-1524 -1863 0
-1520 -1879 0
-1521 -1880 0
-1523 -1882 0
-1524 -1883 0
-1520 -1891 0
-1521 -1892 0
-1522 -1894 0
-1523 -1895 0
-1524 -1896 0
-1520 -1904 0
-1522 -1907 0
-1523 -1908 0
-1524 -1909 0
-1522 -1928 0
-1523 -1929 0
-1524 -1930 0
-1521 -1933 0
-1522 -1934 0
-1523 -1935 0
-1524 -1936 0
-1521 -1939 0
-1523 -1942 0
-1524 -1943 0
-1522 -1947 0
-1523 -1948 0
-1524 -1949 0
-1519 -1957 0
-1520 -1959 0
-1522 -1962 0
-1523 -1963 0
-1524 -1964 0
-1519 -1978 0
-1520 -1979 0
-1521 -1980 0
-1522 -1981 0
-1523 -1982 0
-1524 -1983 0
-1520 -1991 0
-1521 -1992 0
-1522 -1995 0
-1523 -1996 0
-1524 -1997 0
-1525 -1536 0
-1526 -1537 0
-1527 -1538 0
-1528 -1539 0
-1529 -1540 0
-1530 -1541 0
-1531 -1542 0
-1525 -1572 0
-1526 -1573 0
-1530 -1574 0
-1531 -1575 0
-1526 -1638 0
-1529 -1639 0
-1530 -1640 0
-1531 -1641 0
-1525 -1664 0
-1526 -1665 0
-1528 -1666 0
-1529 -1667 0
-1530 -1668 0
-1531 -1669 0
-1525 -1686 0
-1526 -1687 0
-1527 -1688 0
-1528 -1689 0
-1530 -1690 0
-1531 -1691 0
-1525 -1694 0
-1528 -1695 0
-1529 -1696 0
-1530 -1697 0
-1531 -1698 0
-1525 -1702 0
-1528 -1703 0
-1529 -1704 0
-1530 -1705 0
-1531 -1706 0
-1525 -1708 0
-1526 -1709 0
-1527 -1710 0
-1529 -1711 0
-1530 -1712 0
-1531 -1713 0
-1525 -1731 0
-1527 -1732 0
-1528 -1733 0
-1530 -1734 0
-1531 -1735 0
-1525 -1738 0
-1526 -1739 0
-1528 -1740 0
-1529 -1741 0
-1530 -1742 0
-1531 -1743 0
-1526 -1758 0
-1527 -1759 0
-1528 -1760 0
-1529 -1761 0
-1530 -1762 0
-1531 -1763 0
-1525 -1774 0
-1527 -1775 0
-1528 -1776 0
-1530 -1777 0
-1531 -1778 0
-1525 -1782 0
-1526 -1783 0
-1528 -1784 0
-1529 -1785 0
-1530 -1786 0
-1531 -1787 0
-1525 -1819 0
-1526 -1820 0
-1527 -1821 0
-1530 -1822 0
-1531 -1823 0
-1526 -1840 0
-1527 -1841 0
-1529 -1842 0
-1530 -1843 0
-1531 -1844 0
-1526 -1859 0
-1527 -1860 0
-1528 -1861 0
-1530 -1862 0
-1531 -1863 0
-1527 -1865 0
-1528 -1866 0
-1529 -1867 0
-1530 -1868 0
-1531 -1869 0
-1525 -1870 0
-1526 -1871 0
-1527 -1872 0
-1528 -1873 0
-1529 -1874 0
-1530 -1875 0
-1531 -1876 0
-1525 -1879 0
-1526 -1880 0
-1527 -1881 0
-1530 -1882 0
-1531 -1883 0
-1525 -1891 0
-1526 -1892 0
-1528 -1893 0
-1529 -1894 0
-1530 -1895 0
-1531 -1896 0
-1525 -1911 0
-1526 -1912 0
-1528 -1913 0
-1530 -1914 0
-1531 -1915 0
-1525 -1917 0
-1526 -1918 0
-1527 -1919 0
-1528 -1920 0
-1529 -1921 0
-1530 -1922 0
-1531 -1923 0
-1527 -1926 0
-1528 -1927 0
-1529 -1928 0
-1530 -1929 0
-1531 -1930 0
-1528 -1946 0
-1529 -1947 0
-1530 -1948 0
-1531 -1949 0
-1526 -1967 0
-1528 -1968 0
-1529 -1969 0
-1530 -1970 0
-1531 -1971 0
-1525 -1973 0
-1527 -1974 0
-1529 -1975 0
-1530 -1976 0
-1531 -1977 0
-1525 -1979 0
-1526 -1980 0
-1529 -1981 0
-1530 -1982 0
-1531 -1983 0
-1525 -1991 0
-1526 -1992 0
-1527 -1993 0
-1528 -1994 0
-1529 -1995 0
-1530 -1996 0
-1531 -1997 0
-1533 -1598 0
-1534 -1599 0
-1537 -1600 0
-1538 -1601 0
-1540 -1602 0
-1541 -1603 0
-1542 -1604 0
-1535 -1656 0
-1536 -1657 0
-1537 -1658 0
-1538 -1659 0
-1541 -1660 0
-1542 -1661 0
-1533 -1714 0
-1536 -1715 0
-1538 -1716 0
-1539 -1717 0
-1541 -1718 0
-1542 -1719 0
-1534 -1796 0
-1536 -1797 0
-1537 -1798 0
-1538 -1799 0
-1541 -1800 0
-1542 -1801 0
-1537 -1812 0
-1538 -1813 0
-1539 -1814 0
-1541 -1815 0
-1542 -1816 0
-1534 -1825 0
-1536 -1826 0
-1538 -1827 0
-1539 -1828 0
-1540 -1829 0
-1541 -1830 0
-1542 -1831 0
-1536 -1846 0
-1538 -1847 0
-1539 -1848 0
-1540 -1849 0
-1541 -1850 0
-1542 -1851 0
-1534 -1858 0
-1537 -1859 0
-1538 -1860 0
-1539 -1861 0
-1541 -1862 0
-1542 -1863 0
-1536 -1870 0
-1537 -1871 0
-1538 -1872 0
-1539 -1873 0
-1540 -1874 0
-1541 -1875 0
-1542 -1876 0
-1534 -1897 0
-1536 -1898 0
-1538 -1899 0
-1540 -1900 0
-1541 -1901 0
-1542 -1902 0
-1536 -1917 0
-1537 -1918 0
-1538 -1919 0
-1539 -1920 0
-1540 -1921 0
-1541 -1922 0
-1542 -1923 0
-1534 -1938 0
-1537 -1939 0
-1538 -1940 0
-1539 -1941 0
-1541 -1942 0
-1542 -1943 0
-1534 -1972 0
-1536 -1973 0
-1538 -1974 0
-1540 -1975 0
-1541 -1976 0
-1542 -1977 0
-1538 -1985 0
-1539 -1986 0
-1540 -1987 0
-1541 -1988 0
-1542 -1989 0
-1536 -1991 0
-1537 -1992 0
-1538 -1993 0
-1539 -1994 0
-1540 -1995 0
-1541 -1996 0
-1542 -1997 0
-1543 -1590 0
-1544 -1591 0
-1546 -1595 0
-1547 -1596 0
-1548 -1597 0
-1545 -1649 0
-1546 -1652 0
-1547 -1654 0
-1548 -1655 0
-1543 -1707 0
-1547 -1712 0
-1548 -1713 0
-1544 -1796 0
-1547 -1800 0
-1548 -1801 0
-1547 -1808 0
-1548 -1809 0
-1544 -1818 0
-1547 -1822 0
-1548 -1823 0
-1547 -1843 0
-1548 -1844 0
-1544 -1852 0
-1547 -1856 0
-1548 -1857 0
-1544 -1890 0
-1546 -1893 0
-1547 -1895 0
-1548 -1896 0
-1544 -1938 0
-1546 -1941 0
-1547 -1942 0
-1548 -1943 0
-1544 -1972 0
-1547 -1976 0
-1548 -1977 0
-1547 -1982 0
-1548 -1983 0
-1549 -1576 0
-1553 -1580 0
-1554 -1581 0
-1555 -1582 0
-1550 -1643 0
-1551 -1644 0
-1554 -1647 0
-1555 -1648 0
-1549 -1684 0
-1551 -1686 0
-1552 -1687 0
-1554 -1690 0
-1555 -1691 0
-1550 -1757 0
-1552 -1758 0
-1553 -1761 0
-1554 -1762 0
-1555 -1763 0
-1551 -1774 0
-1554 -1777 0
-1555 -1778 0
-1554 -1793 0
-1555 -1794 0
-1551 -1826 0
-1553 -1829 0
-1554 -1830 0
-1555 -1831 0
-1551 -1846 0
-1553 -1849 0
-1554 -1850 0
-1555 -1851 0
-1551 -1853 0
-1553 -1855 0
-1554 -1856 0
-1555 -1857 0
-1553 -1867 0
-1554 -1868 0
-1555 -1869 0
-1551 -1898 0
-1553 -1900 0
-1554 -1901 0
-1555 -1902 0
-1551 -1911 0
-1552 -1912 0
-1554 -1914 0
-1555 -1915 0
-1551 -1917 0
-1552 -1918 0
-1553 -1921 0
-1554 -1922 0
-1555 -1923 0
-1551 -1951 0
-1552 -1952 0
-1553 -1954 0
-1554 -1955 0
-1555 -1956 0
-1552 -1967 0
-1553 -1969 0
-1554 -1970 0
-1555 -1971 0
-1551 -1991 0
-1552 -1992 0
-1553 -1995 0
-1554 -1996 0
-1555 -1997 0
-1556 -1570 0
-1558 -1573 0
-1561 -1574 0
-1562 -1575 0
-1557 -1637 0
-1558 -1638 0
-1561 -1640 0
-1562 -1641 0
-1556 -1677 0
-1560 -1680 0
-1561 -1682 0
-1562 -1683 0
-1557 -1751 0
-1560 -1753 0
-1561 -1755 0
-1562 -1756 0
-1559 -1775 0
-1560 -1776 0
-1561 -1777 0
-1562 -1778 0
-1558 -1783 0
-1560 -1784 0
-1561 -1786 0
-1562 -1787 0
-1558 -1820 0
-1559 -1821 0
-1561 -1822 0
-1562 -1823 0
-1558 -1840 0
-1559 -1841 0
-1561 -1843 0
-1562 -1844 0
-1558 -1859 0
-1559 -1860 0
-1560 -1861 0
-1561 -1862 0
-1562 -1863 0
-1559 -1865 0
-1560 -1866 0
-1561 -1868 0
-1562 -1869 0
-1558 -1871 0
-1559 -1872 0
-1560 -1873 0
-1561 -1875 0
-1562 -1876 0
-1558 -1892 0
-1560 -1893 0
-1561 -1895 0
-1562 -1896 0
-1559 -1905 0
-1560 -1906 0
-1561 -1908 0
-1562 -1909 0
-1558 -1952 0
-1560 -1953 0
-1561 -1955 0
-1562 -1956 0
-1559 -1960 0
-1560 -1961 0
-1561 -1963 0
-1562 -1964 0
-1566 -1840 0
-1568 -1843 0
-1569 -1844 0
-1565 -1846 0
-1567 -1848 0
-1568 -1850 0
-1569 -1851 0
-1563 -1852 0
-1565 -1853 0
-1568 -1856 0
-1569 -1857 0
-1563 -1858 0
-1566 -1859 0
-1567 -1861 0
-1568 -1862 0
-1569 -1863 0
-1567 -1866 0
-1568 -1868 0
-1569 -1869 0
-1565 -1870 0
-1566 -1871 0
-1567 -1873 0
-1568 -1875 0
-1569 -1876 0
-1565 -1991 0
-1566 -1992 0
-1567 -1994 0
-1568 -1996 0
-1569 -1997 0
-1572 -1657 0
-1573 -1658 0
-1574 -1660 0
-1575 -1661 0
-1570 -1670 0
-1574 -1675 0
-1575 -1676 0
-1570 -1714 0
-1572 -1715 0
-1574 -1718 0
-1575 -1719 0
-1572 -1722 0
-1573 -1723 0
-1574 -1727 0
-1575 -1728 0
-1572 -1746 0
-1574 -1749 0
-1575 -1750 0
-1573 -1758 0
-1574 -1762 0
-1575 -1763 0
-1573 -1812 0
-1574 -1815 0
-1575 -1816 0
-1572 -1846 0
-1574 -1850 0
-1575 -1851 0
-1572 -1885 0
-1574 -1888 0
-1575 -1889 0
-1572 -1911 0
-1573 -1912 0
-1574 -1914 0
-1575 -1915 0
-1572 -1917 0
-1573 -1918 0
-1574 -1922 0
-1575 -1923 0
-1571 -1931 0
-1573 -1933 0
-1574 -1935 0
-1575 -1936 0
-1571 -1945 0
-1574 -1948 0
-1575 -1949 0
-1571 -1966 0
-1573 -1967 0
-1574 -1970 0
-1575 -1971 0
-1571 -1972 0
-1572 -1973 0
-1574 -1976 0
-1575 -1977 0
-1572 -1979 0
-1573 -1980 0
-1574 -1982 0
-1575 -1983 0
-1578 -1651 0
-1579 -1652 0
-1580 -1653 0
-1581 -1654 0
-1582 -1655 0
-1576 -1662 0
-1579 -1666 0
-1580 -1667 0
-1581 -1668 0
-1582 -1669 0
-1576 -1707 0
-1578 -1710 0
-1580 -1711 0
-1581 -1712 0
-1582 -1713 0
-1578 -1724 0
-1579 -1725 0
-1580 -1726 0
-1581 -1727 0
-1582 -1728 0
-1579 -1740 0
-1580 -1741 0
-1581 -1742 0
-1582 -1743 0
-1579 -1753 0
-1580 -1754 0
-1581 -1755 0
-1582 -1756 0
-1578 -1806 0
-1580 -1807 0
-1581 -1808 0
-1582 -1809 0
-1578 -1841 0
-1580 -1842 0
-1581 -1843 0
-1582 -1844 0
-1578 -1872 0
-1579 -1873 0
-1580 -1874 0
-1581 -1875 0
-1582 -1876 0
-1578 -1881 0
-1581 -1882 0
-1582 -1883 0
-1578 -1905 0
-1579 -1906 0
-1580 -1907 0
-1581 -1908 0
-1582 -1909 0
-1577 -1931 0
-1580 -1934 0
-1581 -1935 0
-1582 -1936 0
-1577 -1945 0
-1579 -1946 0
-1580 -1947 0
-1581 -1948 0
-1582 -1949 0
-1577 -1958 0
-1578 -1960 0
-1579 -1961 0
-1580 -1962 0
-1581 -1963 0
-1582 -1964 0
-1577 -1972 0
-1578 -1974 0
-1580 -1975 0
-1581 -1976 0
-1582 -1977 0
-1578 -1985 0
-1579 -1986 0
-1580 -1987 0
-1581 -1988 0
-1582 -1989 0
-1578 -1993 0
-1579 -1994 0
-1580 -1995 0
-1581 -1996 0
-1582 -1997 0
-1586 -1709 0
-1588 -1712 0
-1589 -1713 0
-1587 -1717 0
-1588 -1718 0
-1589 -1719 0
-1586 -1871 0
-1587 -1873 0
-1588 -1875 0
-1589 -1876 0
-1586 -1918 0
-1587 -1920 0
-1588 -1922 0
-1589 -1923 0
-1584 -1972 0
-1588 -1976 0
-1589 -1977 0
-1586 -1980 0
-1588 -1982 0
-1589 -1983 0
-1587 -1986 0
-1588 -1988 0
-1589 -1989 0
-1586 -1992 0
-1587 -1994 0
-1588 -1996 0
-1589 -1997 0
-1591 -1642 0
-1592 -1644 0
-1594 -1645 0
-1595 -1646 0
-1596 -1647 0
-1597 -1648 0
-1590 -1670 0
-1594 -1672 0
-1595 -1673 0
-1596 -1675 0
-1597 -1676 0
-1590 -1684 0
-1591 -1685 0
-1592 -1686 0
-1593 -1687 0
-1594 -1688 0
-1595 -1689 0
-1596 -1690 0
-1597 -1691 0
-1590 -1692 0
-1592 -1694 0
-1595 -1695 0
-1596 -1697 0
-1597 -1698 0
-1591 -1700 0
-1592 -1702 0
-1595 -1703 0
-1596 -1705 0
-1597 -1706 0
-1592 -1746 0
-1594 -1747 0
-1595 -1748 0
-1596 -1749 0
-1597 -1750 0
-1592 -1752 0
-1595 -1753 0
-1596 -1755 0
-1597 -1756 0
-1591 -1790 0
-1594 -1791 0
-1595 -1792 0
-1596 -1793 0
-1597 -1794 0
-1592 -1846 0
-1594 -1847 0
-1595 -1848 0
-1596 -1850 0
-1597 -1851 0
-1591 -1858 0
-1593 -1859 0
-1594 -1860 0
-1595 -1861 0
-1596 -1862 0
-1597 -1863 0
-1594 -1865 0
-1595 -1866 0
-1596 -1868 0
-1597 -1869 0
-1592 -1885 0
-1595 -1886 0
-1596 -1888 0
-1597 -1889 0
-1592 -1904 0
-1594 -1905 0
-1595 -1906 0
-1596 -1908 0
-1597 -1909 0
-1592 -1917 0
-1593 -1918 0
-1594 -1919 0
-1595 -1920 0
-1596 -1922 0
-1597 -1923 0
-1591 -1924 0
-1594 -1926 0
-1595 -1927 0
-1596 -1929 0
-1597 -1930 0
-1591 -1945 0
-1595 -1946 0
-1596 -1948 0
-1597 -1949 0
-1591 -1950 0
-1592 -1951 0
-1593 -1952 0
-1595 -1953 0
-1596 -1955 0
-1597 -1956 0
-1591 -1958 0
-1592 -1959 0
-1594 -1960 0
-1595 -1961 0
-1596 -1963 0
-1597 -1964 0
-1594 -1985 0
-1595 -1986 0
-1596 -1988 0
-1597 -1989 0
-1599 -1636 0
-1600 -1638 0
-1602 -1639 0
-1603 -1640 0
-1604 -1641 0
-1598 -1662 0
-1600 -1665 0
-1602 -1667 0
-1603 -1668 0
-1604 -1669 0
-1598 -1677 0
-1599 -1678 0
-1602 -1681 0
-1603 -1682 0
-1604 -1683 0
-1598 -1692 0
-1602 -1696 0
-1603 -1697 0
-1604 -1698 0
-1599 -1700 0
-1602 -1704 0
-1603 -1705 0
-1604 -1706 0
-1600 -1739 0
-1602 -1741 0
-1603 -1742 0
-1604 -1743 0
-1600 -1758 0
-1601 -1759 0
-1602 -1761 0
-1603 -1762 0
-1604 -1763 0
-1599 -1781 0
-1600 -1783 0
-1602 -1785 0
-1603 -1786 0
-1604 -1787 0
-1600 -1840 0
-1601 -1841 0
-1602 -1842 0
-1603 -1843 0
-1604 -1844 0
-1599 -1852 0
-1601 -1854 0
-1602 -1855 0
-1603 -1856 0
-1604 -1857 0
-1601 -1865 0
-1602 -1867 0
-1603 -1868 0
-1604 -1869 0
-1600 -1880 0
-1601 -1881 0
-1603 -1882 0
-1604 -1883 0
-1600 -1912 0
-1603 -1914 0
-1604 -1915 0
-1599 -1924 0
-1601 -1926 0
-1602 -1928 0
-1603 -1929 0
-1604 -1930 0
-1599 -1945 0
-1602 -1947 0
-1603 -1948 0
-1604 -1949 0
-1599 -1950 0
-1600 -1952 0
-1602 -1954 0
-1603 -1955 0
-1604 -1956 0
-1599 -1966 0
-1600 -1967 0
-1602 -1969 0
-1603 -1970 0
-1604 -1971 0
-1600 -1980 0
-1602 -1981 0
-1603 -1982 0
-1604 -1983 0
-1600 -1992 0
-1601 -1993 0
-1602 -1995 0
-1603 -1996 0
-1604 -1997 0
-1606 -1678 0
-1610 -1682 0
-1611 -1683 0
-1606 -1685 0
-1608 -1687 0
-1609 -1688 0
-1610 -1690 0
-1611 -1691 0
-1610 -1697 0
-1611 -1698 0
-1607 -1751 0
-1610 -1755 0
-1611 -1756 0
-1607 -1757 0
-1608 -1758 0
-1609 -1759 0
-1610 -1762 0
-1611 -1763 0
-1606 -1852 0
-1609 -1854 0
-1610 -1856 0
-1611 -1857 0
-1606 -1858 0
-1608 -1859 0
-1609 -1860 0
-1610 -1862 0
-1611 -1863 0
-1609 -1865 0
-1610 -1868 0
-1611 -1869 0
-1605 -1903 0
-1609 -1905 0
-1610 -1908 0
-1611 -1909 0
-1605 -1910 0
-1608 -1912 0
-1610 -1914 0
-1611 -1915 0
-1608 -1918 0
-1609 -1919 0
-1610 -1922 0
-1611 -1923 0
-1606 -1950 0
-1608 -1952 0
-1610 -1955 0
-1611 -1956 0
-1606 -1958 0
-1609 -1960 0
-1610 -1963 0
-1611 -1964 0
-1606 -1966 0
-1608 -1967 0
-1610 -1970 0
-1611 -1971 0
-1608 -1992 0
-1609 -1993 0
-1610 -1996 0
-1611 -1997 0
-1614 -1664 0
-1615 -1665 0
-1617 -1667 0
-1618 -1668 0
-1619 -1669 0
-1616 -1672 0
-1617 -1674 0
-1618 -1675 0
-1619 -1676 0
-1614 -1694 0
-1617 -1696 0
-1618 -1697 0
-1619 -1698 0
-1613 -1751 0
-1614 -1752 0
-1617 -1754 0
-1618 -1755 0
-1619 -1756 0
-1613 -1757 0
-1615 -1758 0
-1616 -1759 0
-1617 -1761 0
-1618 -1762 0
-1619 -1763 0
-1615 -1840 0
-1616 -1841 0
-1617 -1842 0
-1618 -1843 0
-1619 -1844 0
-1614 -1846 0
-1616 -1847 0
-1617 -1849 0
-1618 -1850 0
-1619 -1851 0
-1616 -1865 0
-1617 -1867 0
-1618 -1868 0
-1619 -1869 0
-1614 -1904 0
-1616 -1905 0
-1617 -1907 0
-1618 -1908 0
-1619 -1909 0
-1614 -1911 0
-1615 -1912 0
-1618 -1914 0
-1619 -1915 0
-1612 -1945 0
-1617 -1947 0
-1618 -1948 0
-1619 -1949 0
-1612 -1958 0
-1614 -1959 0
-1616 -1960 0
-1617 -1962 0
-1618 -1963 0
-1619 -1964 0
-1612 -1966 0
-1615 -1967 0
-1617 -1969 0
-1618 -1970 0
-1619 -1971 0
-1614 -1979 0
-1615 -1980 0
-1617 -1981 0
-1618 -1982 0
-1619 -1983 0
-1616 -1985 0
-1617 -1987 0
-1618 -1988 0
-1619 -1989 0
-1625 -1675 0
-1626 -1676 0
-1621 -1685 0
-1623 -1686 0
-1624 -1687 0
-1625 -1690 0
-1626 -1691 0
-1623 -1715 0
-1625 -1718 0
-1626 -1719 0
-1622 -1757 0
-1624 -1758 0
-1625 -1762 0
-1626 -1763 0
-1623 -1846 0
-1625 -1850 0
-1626 -1851 0
-1621 -1858 0
-1624 -1859 0
-1625 -1862 0
-1626 -1863 0
-1623 -1911 0
-1624 -1912 0
-1625 -1914 0
-1626 -1915 0
-1623 -1917 0
-1624 -1918 0
-1625 -1922 0
-1626 -1923 0
-1621 -1945 0
-1625 -1948 0
-1626 -1949 0
-1621 -1950 0
-1623 -1951 0
-1624 -1952 0
-1625 -1955 0
-1626 -1956 0
-1620 -1965 0
-1621 -1966 0
-1624 -1967 0
-1625 -1970 0
-1626 -1971 0
-1621 -1972 0
-1623 -1973 0
-1625 -1976 0
-1626 -1977 0
-1620 -1984 0
-1625 -1988 0
-1626 -1989 0
-1630 -1665 0
-1632 -1666 0
-1633 -1667 0
-1634 -1668 0
-1635 -1669 0
-1628 -1678 0
-1632 -1680 0
-1633 -1681 0
-1634 -1682 0
-1635 -1683 0
-1630 -1709 0
-1631 -1710 0
-1633 -1711 0
-1634 -1712 0
-1635 -1713 0
-1629 -1751 0
-1632 -1753 0
-1633 -1754 0
-1634 -1755 0
-1635 -1756 0
-1630 -1840 0
-1631 -1841 0
-1633 -1842 0
-1634 -1843 0
-1635 -1844 0
-1628 -1852 0
-1631 -1854 0
-1633 -1855 0
-1634 -1856 0
-1635 -1857 0
-1630 -1871 0
-1631 -1872 0
-1632 -1873 0
-1633 -1874 0
-1634 -1875 0
-1635 -1876 0
-1631 -1905 0
-1632 -1906 0
-1633 -1907 0
-1634 -1908 0
-1635 -1909 0
-1628 -1945 0
-1632 -1946 0
-1633 -1947 0
-1634 -1948 0
-1635 -1949 0
-1628 -1950 0
-1630 -1952 0
-1632 -1953 0
-1633 -1954 0
-1634 -1955 0
-1635 -1956 0
-1627 -1957 0
-1628 -1958 0
-1631 -1960 0
-1632 -1961 0
-1633 -1962 0
-1634 -1963 0
-1635 -1964 0
-1628 -1972 0
-1631 -1974 0
-1633 -1975 0
-1634 -1976 0
-1635 -1977 0
-1627 -1978 0
-1630 -1980 0
-1633 -1981 0
-1634 -1982 0
-1635 -1983 0
-1630 -1992 0
-1631 -1993 0
-1632 -1994 0
-1633 -1995 0
-1634 -1996 0
-1635 -1997 0
-1639 -1674 0
-1640 -1675 0
-1641 -1676 0
-1636 -1685 0
-1638 -1687 0
-1640 -1690 0
-1641 -1691 0
-1638 -1709 0
-1639 -1711 0
-1640 -1712 0
-1641 -1713 0
-1637 -1721 0
-1638 -1723 0
-1639 -1726 0
-1640 -1727 0
-1641 -1728 0
-1636 -1729 0
-1637 -1730 0
-1640 -1734 0
-1641 -1735 0
-1637 -1745 0
-1640 -1749 0
-1641 -1750 0
-1636 -1796 0
-1638 -1798 0
-1640 -1800 0
-1641 -1801 0
-1638 -1812 0
-1640 -1815 0
-1641 -1816 0
-1636 -1825 0
-1639 -1829 0
-1640 -1830 0
-1641 -1831 0
-1637 -1884 0
-1639 -1887 0
-1640 -1888 0
-1641 -1889 0
-1636 -1897 0
-1639 -1900 0
-1640 -1901 0
-1641 -1902 0
-1638 -1912 0
-1640 -1914 0
-1641 -1915 0
-1636 -1931 0
-1637 -1932 0
-1638 -1933 0
-1639 -1934 0
-1640 -1935 0
-1641 -1936 0
-1636 -1938 0
-1638 -1939 0
-1640 -1942 0
-1641 -1943 0
-1636 -1945 0
-1639 -1947 0
-1640 -1948 0
-1641 -1949 0
-1636 -1950 0
-1638 -1952 0
-1639 -1954 0
-1640 -1955 0
-1641 -1956 0
-1636 -1966 0
-1638 -1967 0
-1639 -1969 0
-1640 -1970 0
-1641 -1971 0
-1638 -1980 0
-1639 -1981 0
-1640 -1982 0
-1641 -1983 0
-1638 -1992 0
-1639 -1995 0
-1640 -1996 0
-1641 -1997 0
-1644 -1664 0
-1646 -1666 0
-1647 -1668 0
-1648 -1669 0
-1642 -1678 0
-1644 -1679 0
-1646 -1680 0
-1647 -1682 0
-1648 -1683 0
-1644 -1715 0
-1645 -1716 0
-1646 -1717 0
-1647 -1718 0
-1648 -1719 0
-1643 -1721 0
-1644 -1722 0
-1645 -1724 0
-1646 -1725 0
-1647 -1727 0
-1648 -1728 0
-1642 -1729 0
-1643 -1730 0
-1644 -1731 0
-1645 -1732 0
-1646 -1733 0
-1647 -1734 0
-1648 -1735 0
-1643 -1737 0
-1644 -1738 0
-1646 -1740 0
-1647 -1742 0
-1648 -1743 0
-1642 -1796 0
-1644 -1797 0
-1645 -1799 0
-1647 -1800 0
-1648 -1801 0
-1644 -1804 0
-1645 -1806 0
-1647 -1808 0
-1648 -1809 0
-1642 -1818 0
-1644 -1819 0
-1645 -1821 0
-1647 -1822 0
-1648 -1823 0
-1644 -1870 0
-1645 -1872 0
-1646 -1873 0
-1647 -1875 0
-1648 -1876 0
-1643 -1878 0
-1644 -1879 0
-1645 -1881 0
-1647 -1882 0
-1648 -1883 0
-1642 -1890 0
-1644 -1891 0
-1646 -1893 0
-1647 -1895 0
-1648 -1896 0
-1644 -1904 0
-1645 -1905 0
-1646 -1906 0
-1647 -1908 0
-1648 -1909 0
-1644 -1917 0
-1645 -1919 0
-1646 -1920 0
-1647 -1922 0
-1648 -1923 0
-1642 -1931 0
-1643 -1932 0
-1647 -1935 0
-1648 -1936 0
-1642 -1938 0
-1645 -1940 0
-1646 -1941 0
-1647 -1942 0
-1648 -1943 0
-1642 -1945 0
-1646 -1946 0
-1647 -1948 0
-1648 -1949 0
-1642 -1950 0
-1644 -1951 0
-1646 -1953 0
-1647 -1955 0
-1648 -1956 0
-1642 -1958 0
-1644 -1959 0
-1645 -1960 0
-1646 -1961 0
-1647 -1963 0
-1648 -1964 0
-1645 -1985 0
-1646 -1986 0
-1647 -1988 0
-1648 -1989 0
-1651 -1672 0
-1652 -1673 0
-1653 -1674 0
-1654 -1675 0
-1655 -1676 0
-1652 -1680 0
-1653 -1681 0
-1654 -1682 0
-1655 -1683 0
-1652 -1695 0
-1653 -1696 0
-1654 -1697 0
-1655 -1698 0
-1649 -1701 0
-1652 -1703 0
-1653 -1704 0
-1654 -1705 0
-1655 -1706 0
-1651 -1716 0
-1652 -1717 0
-1654 -1718 0
-1655 -1719 0
-1649 -1730 0
-1651 -1732 0
-1652 -1733 0
-1654 -1734 0
-1655 -1735 0
-1649 -1745 0
-1651 -1747 0
-1652 -1748 0
-1654 -1749 0
-1655 -1750 0
-1649 -1757 0
-1650 -1758 0
-1651 -1759 0
-1652 -1760 0
-1653 -1761 0
-1654 -1762 0
-1655 -1763 0
-1651 -1775 0
-1652 -1776 0
-1654 -1777 0
-1655 -1778 0
-1651 -1791 0
-1652 -1792 0
-1654 -1793 0
-1655 -1794 0
-1651 -1827 0
-1652 -1828 0
-1653 -1829 0
-1654 -1830 0
-1655 -1831 0
-1650 -1859 0
-1651 -1860 0
-1652 -1861 0
-1654 -1862 0
-1655 -1863 0
-1649 -1884 0
-1652 -1886 0
-1653 -1887 0
-1654 -1888 0
-1655 -1889 0
-1651 -1899 0
-1653 -1900 0
-1654 -1901 0
-1655 -1902 0
-1651 -1905 0
-1652 -1906 0
-1653 -1907 0
-1654 -1908 0
-1655 -1909 0
-1649 -1925 0
-1651 -1926 0
-1652 -1927 0
-1653 -1928 0
-1654 -1929 0
-1655 -1930 0
-1652 -1946 0
-1653 -1947 0
-1654 -1948 0
-1655 -1949 0
-1651 -1960 0
-1652 -1961 0
-1653 -1962 0
-1654 -1963 0
-1655 -1964 0
-1651 -1974 0
-1653 -1975 0
-1654 -1976 0
-1655 -1977 0
-1651 -1985 0
-1652 -1986 0
-1653 -1987 0
-1654 -1988 0
-1655 -1989 0
-1650 -1992 0
-1651 -1993 0
-1652 -1994 0
-1653 -1995 0
-1654 -1996 0
-1655 -1997 0
-1657 -1664 0
-1658 -1665 0
-1660 -1668 0
-1661 -1669 0
-1657 -1686 0
-1658 -1687 0
-1659 -1688 0
-1660 -1690 0
-1661 -1691 0
-1657 -1694 0
-1660 -1697 0
-1661 -1698 0
-1656 -1701 0
-1657 -1702 0
-1660 -1705 0
-1661 -1706 0
-1657 -1708 0
-1658 -1709 0
-1659 -1710 0
-1660 -1712 0
-1661 -1713 0
-1656 -1730 0
-1657 -1731 0
-1659 -1732 0
-1660 -1734 0
-1661 -1735 0
-1656 -1737 0
-1657 -1738 0
-1658 -1739 0
-1660 -1742 0
-1661 -1743 0
-1656 -1751 0
-1657 -1752 0
-1660 -1755 0
-1661 -1756 0
-1657 -1774 0
-1659 -1775 0
-1660 -1777 0
-1661 -1778 0
-1657 -1782 0
-1658 -1783 0
-1660 -1786 0
-1661 -1787 0
-1657 -1819 0
-1658 -1820 0
-1659 -1821 0
-1660 -1822 0
-1661 -1823 0
-1657 -1853 0
-1659 -1854 0
-1660 -1856 0
-1661 -1857 0
-1656 -1878 0
-1657 -1879 0
-1658 -1880 0
-1659 -1881 0
-1660 -1882 0
-1661 -1883 0
-1657 -1891 0
-1658 -1892 0
-1660 -1895 0
-1661 -1896 0
-1657 -1911 0
-1658 -1912 0
-1660 -1914 0
-1661 -1915 0
-1657 -1917 0
-1658 -1918 0
-1659 -1919 0
-1660 -1922 0
-1661 -1923 0
-1656 -1925 0
-1659 -1926 0
-1660 -1929 0
-1661 -1930 0
-1660 -1948 0
-1661 -1949 0
-1658 -1967 0
-1660 -1970 0
-1661 -1971 0
-1657 -1973 0
-1659 -1974 0
-1660 -1976 0
-1661 -1977 0
-1657 -1979 0
-1658 -1980 0
-1660 -1982 0
-1661 -1983 0
-1664 -1826 0
-1666 -1828 0
-1667 -1829 0
-1668 -1830 0
-1669 -1831 0
-1665 -1859 0
-1666 -1861 0
-1668 -1862 0
-1669 -1863 0
-1664 -1885 0
-1666 -1886 0
-1667 -1887 0
-1668 -1888 0
-1669 -1889 0
-1664 -1891 0
-1665 -1892 0
-1666 -1893 0
-1667 -1894 0
-1668 -1895 0
-1669 -1896 0
-1664 -1917 0
-1665 -1918 0
-1666 -1920 0
-1667 -1921 0
-1668 -1922 0
-1669 -1923 0
-1665 -1939 0
-1666 -1941 0
-1668 -1942 0
-1669 -1943 0
-1672 -1821 0
-1675 -1822 0
-1676 -1823 0
-1672 -1854 0
-1674 -1855 0
-1675 -1856 0
-1676 -1857 0
-1672 -1872 0
-1673 -1873 0
-1674 -1874 0
-1675 -1875 0
-1676 -1876 0
-1672 -1881 0
-1675 -1882 0
-1676 -1883 0
-1672 -1899 0
-1674 -1900 0
-1675 -1901 0
-1676 -1902 0
-1672 -1940 0
-1673 -1941 0
-1675 -1942 0
-1676 -1943 0
-1680 -1814 0
-1682 -1815 0
-1683 -1816 0
-1679 -1846 0
-1680 -1848 0
-1681 -1849 0
-1682 -1850 0
-1683 -1851 0
-1679 -1885 0
-1680 -1886 0
-1681 -1887 0
-1682 -1888 0
-1683 -1889 0
-1678 -1897 0
-1679 -1898 0
-1681 -1900 0
-1682 -1901 0
-1683 -1902 0
-1678 -1931 0
-1681 -1934 0
-1682 -1935 0
-1683 -1936 0
-1678 -1938 0
-1680 -1941 0
-1682 -1942 0
-1683 -1943 0
-1680 -1986 0
-1681 -1987 0
-1682 -1988 0
-1683 -1989 0
-1679 -1991 0
-1680 -1994 0
-1681 -1995 0
-1682 -1996 0
-1683 -1997 0
-1686 -1804 0
-1687 -1805 0
-1688 -1806 0
-1690 -1808 0
-1691 -1809 0
-1687 -1840 0
-1688 -1841 0
-1690 -1843 0
-1691 -1844 0
-1686 -1870 0
-1687 -1871 0
-1688 -1872 0
-1689 -1873 0
-1690 -1875 0
-1691 -1876 0
-1686 -1879 0
-1687 -1880 0
-1688 -1881 0
-1690 -1882 0
-1691 -1883 0
-1685 -1890 0
-1686 -1891 0
-1687 -1892 0
-1689 -1893 0
-1690 -1895 0
-1691 -1896 0
-1685 -1931 0
-1687 -1933 0
-1690 -1935 0
-1691 -1936 0
-1685 -1938 0
-1687 -1939 0
-1688 -1940 0
-1689 -1941 0
-1690 -1942 0
-1691 -1943 0
-1686 -1979 0
-1687 -1980 0
-1690 -1982 0
-1691 -1983 0
-1694 -1797 0
-1697 -1800 0
-1698 -1801 0
-1694 -1870 0
-1695 -1873 0
-1696 -1874 0
-1697 -1875 0
-1698 -1876 0
-1694 -1891 0
-1695 -1893 0
-1696 -1894 0
-1697 -1895 0
-1698 -1896 0
-1694 -1898 0
-1696 -1900 0
-1697 -1901 0
-1698 -1902 0
-1696 -1934 0
-1697 -1935 0
-1698 -1936 0
-1694 -1973 0
-1696 -1975 0
-1697 -1976 0
-1698 -1977 0
-1702 -1870 0
-1703 -1873 0
-1704 -1874 0
-1705 -1875 0
-1706 -1876 0
-1700 -1890 0
-1702 -1891 0
-1703 -1893 0
-1704 -1894 0
-1705 -1895 0
-1706 -1896 0
-1700 -1897 0
-1702 -1898 0
-1704 -1900 0
-1705 -1901 0
-1706 -1902 0
-1700 -1938 0
-1703 -1941 0
-1705 -1942 0
-1706 -1943 0
-1709 -1758 0
-1710 -1759 0
-1711 -1761 0
-1712 -1762 0
-1713 -1763 0
-1710 -1791 0
-1712 -1793 0
-1713 -1794 0
-1708 -1846 0
-1710 -1847 0
-1711 -1849 0
-1712 -1850 0
-1713 -1851 0
-1709 -1859 0
-1710 -1860 0
-1712 -1862 0
-1713 -1863 0
-1710 -1865 0
-1711 -1867 0
-1712 -1868 0
-1713 -1869 0
-1708 -1885 0
-1711 -1887 0
-1712 -1888 0
-1713 -1889 0
-1708 -1898 0
-1710 -1899 0
-1711 -1900 0
-1712 -1901 0
-1713 -1902 0
-1708 -1911 0
-1709 -1912 0
-1712 -1914 0
-1713 -1915 0
-1710 -1926 0
-1711 -1928 0
-1712 -1929 0
-1713 -1930 0
-1709 -1967 0
-1711 -1969 0
-1712 -1970 0
-1713 -1971 0
-1708 -1991 0
-1709 -1992 0
-1710 -1993 0
-1711 -1995 0
-1712 -1996 0
-1713 -1997 0
-1715 -1752 0
-1717 -1753 0
-1718 -1755 0
-1719 -1756 0
-1715 -1782 0
-1717 -1784 0
-1718 -1786 0
-1719 -1787 0
-1716 -1841 0
-1718 -1843 0
-1719 -1844 0
-1715 -1853 0
-1716 -1854 0
-1718 -1856 0
-1719 -1857 0
-1716 -1865 0
-1717 -1866 0
-1718 -1868 0
-1719 -1869 0
-1715 -1879 0
-1716 -1881 0
-1718 -1882 0
-1719 -1883 0
-1715 -1891 0
-1717 -1893 0
-1718 -1895 0
-1719 -1896 0
-1715 -1904 0
-1716 -1905 0
-1717 -1906 0
-1718 -1908 0
-1719 -1909 0
-1716 -1926 0
-1717 -1927 0
-1718 -1929 0
-1719 -1930 0
-1715 -1959 0
-1716 -1960 0
-1717 -1961 0
-1718 -1963 0
-1719 -1964 0
-1722 -1853 0
-1724 -1854 0
-1726 -1855 0
-1727 -1856 0
-1728 -1857 0
-1723 -1859 0
-1724 -1860 0
-1725 -1861 0
-1727 -1862 0
-1728 -1863 0
-1724 -1865 0
-1725 -1866 0
-1726 -1867 0
-1727 -1868 0
-1728 -1869 0
-1722 -1891 0
-1723 -1892 0
-1725 -1893 0
-1726 -1894 0
-1727 -1895 0
-1728 -1896 0
-1722 -1898 0
-1724 -1899 0
-1726 -1900 0
-1727 -1901 0
-1728 -1902 0
-1732 -1841 0
-1734 -1843 0
-1735 -1844 0
-1731 -1846 0
-1732 -1847 0
-1733 -1848 0
-1734 -1850 0
-1735 -1851 0
-1732 -1865 0
-1733 -1866 0
-1734 -1868 0
-1735 -1869 0
-1731 -1991 0
-1732 -1993 0
-1733 -1994 0
-1734 -1996 0
-1735 -1997 0
-1738 -1846 0
-1740 -1848 0
-1741 -1849 0
-1742 -1850 0
-1743 -1851 0
-1739 -1859 0
-1740 -1861 0
-1742 -1862 0
-1743 -1863 0
-1738 -1898 0
-1741 -1900 0
-1742 -1901 0
-1743 -1902 0
-1739 -1939 0
-1740 -1941 0
-1742 -1942 0
-1743 -1943 0
-1738 -1991 0
-1739 -1992 0
-1740 -1994 0
-1741 -1995 0
-1742 -1996 0
-1743 -1997 0
-1747 -1841 0
-1749 -1843 0
-1750 -1844 0
-1746 -1853 0
-1747 -1854 0
-1749 -1856 0
-1750 -1857 0
-1746 -1870 0
-1747 -1872 0
-1748 -1873 0
-1749 -1875 0
-1750 -1876 0
-1746 -1891 0
-1748 -1893 0
-1749 -1895 0
-1750 -1896 0
-1747 -1940 0
-1748 -1941 0
-1749 -1942 0
-1750 -1943 0
-1752 -1797 0
-1755 -1800 0
-1756 -1801 0
-1753 -1814 0
-1755 -1815 0
-1756 -1816 0
-1752 -1826 0
-1753 -1828 0
-1754 -1829 0
-1755 -1830 0
-1756 -1831 0
-1751 -1884 0
-1752 -1885 0
-1753 -1886 0
-1754 -1887 0
-1755 -1888 0
-1756 -1889 0
-1752 -1891 0
-1753 -1893 0
-1754 -1894 0
-1755 -1895 0
-1756 -1896 0
-1752 -1917 0
-1753 -1920 0
-1754 -1921 0
-1755 -1922 0
-1756 -1923 0
-1751 -1932 0
-1754 -1934 0
-1755 -1935 0
-1756 -1936 0
-1752 -1973 0
-1754 -1975 0
-1755 -1976 0
-1756 -1977 0
-1753 -1986 0
-1754 -1987 0
-1755 -1988 0
-1756 -1989 0
-1758 -1798 0
-1759 -1799 0
-1762 -1800 0
-1763 -1801 0
-1758 -1805 0
-1759 -1806 0
-1761 -1807 0
-1762 -1808 0
-1763 -1809 0
-1758 -1820 0
-1759 -1821 0
-1762 -1822 0
-1763 -1823 0
-1758 -1871 0
-1759 -1872 0
-1760 -1873 0
-1761 -1874 0
-1762 -1875 0
-1763 -1876 0
-1757 -1878 0
-1758 -1880 0
-1759 -1881 0
-1762 -1882 0
-1763 -1883 0
-1759 -1899 0
-1761 -1900 0
-1762 -1901 0
-1763 -1902 0
-1757 -1932 0
-1758 -1933 0
-1761 -1934 0
-1762 -1935 0
-1763 -1936 0
-1759 -1974 0
-1761 -1975 0
-1762 -1976 0
-1763 -1977 0
-1758 -1980 0
-1761 -1981 0
-1762 -1982 0
-1763 -1983 0
-1766 -1880 0
-1767 -1881 0
-1770 -1882 0
-1771 -1883 0
-1768 -1886 0
-1769 -1887 0
-1770 -1888 0
-1771 -1889 0
-1765 -1890 0
-1766 -1892 0
-1768 -1893 0
-1769 -1894 0
-1770 -1895 0
-1771 -1896 0
-1765 -1897 0
-1767 -1899 0
-1769 -1900 0
-1770 -1901 0
-1771 -1902 0
-1766 -1918 0
-1767 -1919 0
-1768 -1920 0
-1769 -1921 0
-1770 -1922 0
-1771 -1923 0
-1774 -1879 0
-1775 -1881 0
-1777 -1882 0
-1778 -1883 0
-1774 -1885 0
-1776 -1886 0
-1777 -1888 0
-1778 -1889 0
-1773 -1931 0
-1777 -1935 0
-1778 -1936 0
-1774 -1979 0
-1777 -1982 0
-1778 -1983 0
-1775 -1985 0
-1776 -1986 0
-1777 -1988 0
-1778 -1989 0
-1774 -1991 0
-1775 -1993 0
-1776 -1994 0
-1777 -1996 0
-1778 -1997 0
-1782 -1885 0
-1784 -1886 0
-1785 -1887 0
-1786 -1888 0
-1787 -1889 0
-1781 -1897 0
-1782 -1898 0
-1785 -1900 0
-1786 -1901 0
-1787 -1902 0
-1782 -1917 0
-1783 -1918 0
-1784 -1920 0
-1785 -1921 0
-1786 -1922 0
-1787 -1923 0
-1781 -1931 0
-1783 -1933 0
-1785 -1934 0
-1786 -1935 0
-1787 -1936 0
-1781 -1938 0
-1783 -1939 0
-1784 -1941 0
-1786 -1942 0
-1787 -1943 0
-1781 -1972 0
-1782 -1973 0
-1785 -1975 0
-1786 -1976 0
-1787 -1977 0
-1779 -1984 0
-1784 -1986 0
-1785 -1987 0
-1786 -1988 0
-1787 -1989 0
-1782 -1991 0
-1783 -1992 0
-1784 -1994 0
-1785 -1995 0
-1786 -1996 0
-1787 -1997 0
-1791 -1872 0
-1792 -1873 0
-1793 -1875 0
-1794 -1876 0
-1791 -1881 0
-1793 -1882 0
-1794 -1883 0
-1790 -1890 0
-1792 -1893 0
-1793 -1895 0
-1794 -1896 0
-1790 -1931 0
-1793 -1935 0
-1794 -1936 0
-1790 -1938 0
-1791 -1940 0
-1792 -1941 0
-1793 -1942 0
-1794 -1943 0
-1790 -1972 0
-1791 -1974 0
-1793 -1976 0
-1794 -1977 0
-1788 -1978 0
-1793 -1982 0
-1794 -1983 0
-1799 -1865 0
-1800 -1868 0
-1801 -1869 0
-1797 -1879 0
-1798 -1880 0
-1799 -1881 0
-1800 -1882 0
-1801 -1883 0
-1797 -1885 0
-1800 -1888 0
-1801 -1889 0
-1795 -1903 0
-1797 -1904 0
-1799 -1905 0
-1800 -1908 0
-1801 -1909 0
-1795 -1910 0
-1797 -1911 0
-1798 -1912 0
-1800 -1914 0
-1801 -1915 0
-1796 -1924 0
-1799 -1926 0
-1800 -1929 0
-1801 -1930 0
-1796 -1958 0
-1797 -1959 0
-1799 -1960 0
-1800 -1963 0
-1801 -1964 0
-1796 -1966 0
-1798 -1967 0
-1800 -1970 0
-1801 -1971 0
-1797 -1991 0
-1798 -1992 0
-1799 -1993 0
-1800 -1996 0
-1801 -1997 0
-1805 -1859 0
-1806 -1860 0
-1808 -1862 0
-1809 -1863 0
-1804 -1885 0
-1807 -1887 0
-1808 -1888 0
-1809 -1889 0
-1804 -1898 0
-1806 -1899 0
-1807 -1900 0
-1808 -1901 0
-1809 -1902 0
-1803 -1910 0
-1804 -1911 0
-1805 -1912 0
-1808 -1914 0
-1809 -1915 0
-1804 -1917 0
-1805 -1918 0
-1806 -1919 0
-1807 -1921 0
-1808 -1922 0
-1809 -1923 0
-1806 -1926 0
-1807 -1928 0
-1808 -1929 0
-1809 -1930 0
-1804 -1951 0
-1805 -1952 0
-1807 -1954 0
-1808 -1955 0
-1809 -1956 0
-1802 -1965 0
-1805 -1967 0
-1807 -1969 0
-1808 -1970 0
-1809 -1971 0
-1804 -1991 0
-1805 -1992 0
-1806 -1993 0
-1807 -1995 0
-1808 -1996 0
-1809 -1997 0
-1813 -1854 0
-1815 -1856 0
-1816 -1857 0
-1812 -1880 0
-1813 -1881 0
-1815 -1882 0
-1816 -1883 0
-1812 -1892 0
-1814 -1893 0
-1815 -1895 0
-1816 -1896 0
-1811 -1903 0
-1813 -1905 0
-1814 -1906 0
-1815 -1908 0
-1816 -1909 0
-1813 -1926 0
-1814 -1927 0
-1815 -1929 0
-1816 -1930 0
-1812 -1952 0
-1814 -1953 0
-1815 -1955 0
-1816 -1956 0
-1810 -1957 0
-1813 -1960 0
-1814 -1961 0
-1815 -1963 0
-1816 -1964 0
-1819 -1846 0
-1821 -1847 0
-1822 -1850 0
-1823 -1851 0
-1819 -1885 0
-1822 -1888 0
-1823 -1889 0
-1819 -1911 0
-1820 -1912 0
-1822 -1914 0
-1823 -1915 0
-1818 -1924 0
-1821 -1926 0
-1822 -1929 0
-1823 -1930 0
-1818 -1931 0
-1820 -1933 0
-1822 -1935 0
-1823 -1936 0
-1818 -1945 0
-1822 -1948 0
-1823 -1949 0
-1817 -1965 0
-1818 -1966 0
-1820 -1967 0
-1822 -1970 0
-1823 -1971 0
-1817 -1984 0
-1821 -1985 0
-1822 -1988 0
-1823 -1989 0
-1827 -1841 0
-1829 -1842 0
-1830 -1843 0
-1831 -1844 0
-1826 -1879 0
-1827 -1881 0
-1830 -1882 0
-1831 -1883 0
-1826 -1904 0
-1827 -1905 0
-1828 -1906 0
-1829 -1907 0
-1830 -1908 0
-1831 -1909 0
-1825 -1924 0
-1827 -1926 0
-1828 -1927 0
-1829 -1928 0
-1830 -1929 0
-1831 -1930 0
-1825 -1931 0
-1829 -1934 0
-1830 -1935 0
-1831 -1936 0
-1825 -1945 0
-1828 -1946 0
-1829 -1947 0
-1830 -1948 0
-1831 -1949 0
-1824 -1957 0
-1825 -1958 0
-1826 -1959 0
-1827 -1960 0
-1828 -1961 0
-1829 -1962 0
-1830 -1963 0
-1831 -1964 0
-1824 -1978 0
-1826 -1979 0
-1829 -1981 0
-1830 -1982 0
-1831 -1983 0
-1826 -1991 0
-1827 -1993 0
-1828 -1994 0
-1829 -1995 0
-1830 -1996 0
-1831 -1997 0
-1835 -1926 0
-1836 -1927 0
-1837 -1929 0
-1838 -1930 0
-1834 -1933 0
-1837 -1935 0
-1838 -1936 0
-1834 -1939 0
-1835 -1940 0
-1836 -1941 0
-1837 -1942 0
-1838 -1943 0
-1836 -1946 0
-1837 -1948 0
-1838 -1949 0
-1833 -1951 0
-1834 -1952 0
-1836 -1953 0
-1837 -1955 0
-1838 -1956 0
-1833 -1973 0
-1835 -1974 0
-1837 -1976 0
-1838 -1977 0
-1833 -1991 0
-1834 -1992 0
-1835 -1993 0
-1836 -1994 0
-1837 -1996 0
-1838 -1997 0
-1840 -1880 0
-1841 -1881 0
-1843 -1882 0
-1844 -1883 0
-1840 -1892 0
-1842 -1894 0
-1843 -1895 0
-1844 -1896 0
-1839 -1910 0
-1840 -1912 0
-1843 -1914 0
-1844 -1915 0
-1841 -1926 0
-1842 -1928 0
-1843 -1929 0
-1844 -1930 0
-1840 -1933 0
-1842 -1934 0
-1843 -1935 0
-1844 -1936 0
-1840 -1939 0
-1841 -1940 0
-1843 -1942 0
-1844 -1943 0
-1840 -1952 0
-1842 -1954 0
-1843 -1955 0
-1844 -1956 0
-1840 -1967 0
-1842 -1969 0
-1843 -1970 0
-1844 -1971 0
-1841 -1974 0
-1842 -1975 0
-1843 -1976 0
-1844 -1977 0
-1841 -1985 0
-1842 -1987 0
-1843 -1988 0
-1844 -1989 0
-1846 -1885 0
-1848 -1886 0
-1849 -1887 0
-1850 -1888 0
-1851 -1889 0
-1846 -1898 0
-1847 -1899 0
-1849 -1900 0
-1850 -1901 0
-1851 -1902 0
-1845 -1903 0
-1846 -1904 0
-1847 -1905 0
-1848 -1906 0
-1849 -1907 0
-1850 -1908 0
-1851 -1909 0
-1846 -1917 0
-1847 -1919 0
-1848 -1920 0
-1849 -1921 0
-1850 -1922 0
-1851 -1923 0
-1847 -1926 0
-1848 -1927 0
-1849 -1928 0
-1850 -1929 0
-1851 -1930 0
-1849 -1934 0
-1850 -1935 0
-1851 -1936 0
-1847 -1940 0
-1848 -1941 0
-1850 -1942 0
-1851 -1943 0
-1846 -1951 0
-1848 -1953 0
-1849 -1954 0
-1850 -1955 0
-1851 -1956 0
-1846 -1959 0
-1847 -1960 0
-1848 -1961 0
-1849 -1962 0
-1850 -1963 0
-1851 -1964 0
-1846 -1973 0
-1847 -1974 0
-1849 -1975 0
-1850 -1976 0
-1851 -1977 0
-1846 -1979 0
-1849 -1981 0
-1850 -1982 0
-1851 -1983 0
-1853 -1879 0
-1854 -1881 0
-1856 -1882 0
-1857 -1883 0
-1852 -1897 0
-1853 -1898 0
-1854 -1899 0
-1855 -1900 0
-1856 -1901 0
-1857 -1902 0
-1853 -1911 0
-1856 -1914 0
-1857 -1915 0
-1853 -1917 0
-1854 -1919 0
-1855 -1921 0
-1856 -1922 0
-1857 -1923 0
-1852 -1924 0
-1854 -1926 0
-1855 -1928 0
-1856 -1929 0
-1857 -1930 0
-1852 -1938 0
-1854 -1940 0
-1856 -1942 0
-1857 -1943 0
-1852 -1945 0
-1855 -1947 0
-1856 -1948 0
-1857 -1949 0
-1852 -1966 0
-1855 -1969 0
-1856 -1970 0
-1857 -1971 0
-1852 -1972 0
-1853 -1973 0
-1854 -1974 0
-1855 -1975 0
-1856 -1976 0
-1857 -1977 0
-1853 -1979 0
-1855 -1981 0
-1856 -1982 0
-1857 -1983 0
-1853 -1991 0
-1854 -1993 0
-1855 -1995 0
-1856 -1996 0
-1857 -1997 0
-1861 -1886 0
-1862 -1888 0
-1863 -1889 0
-1858 -1890 0
-1859 -1892 0
-1861 -1893 0
-1862 -1895 0
-1863 -1896 0
-1860 -1905 0
-1861 -1906 0
-1862 -1908 0
-1863 -1909 0
-1858 -1924 0
-1860 -1926 0
-1861 -1927 0
-1862 -1929 0
-1863 -1930 0
-1858 -1938 0
-1859 -1939 0
-1860 -1940 0
-1861 -1941 0
-1862 -1942 0
-1863 -1943 0
-1858 -1945 0
-1861 -1946 0
-1862 -1948 0
-1863 -1949 0
-1858 -1958 0
-1860 -1960 0
-1861 -1961 0
-1862 -1963 0
-1863 -1964 0
-1858 -1972 0
-1860 -1974 0
-1862 -1976 0
-1863 -1977 0
-1860 -1985 0
-1861 -1986 0
-1862 -1988 0
-1863 -1989 0
-1865 -1881 0
-1868 -1882 0
-1869 -1883 0
-1866 -1886 0
-1867 -1887 0
-1868 -1888 0
-1869 -1889 0
-1866 -1893 0
-1867 -1894 0
-1868 -1895 0
-1869 -1896 0
-1865 -1899 0
-1867 -1900 0
-1868 -1901 0
-1869 -1902 0
-1865 -1919 0
-1866 -1920 0
-1867 -1921 0
-1868 -1922 0
-1869 -1923 0
-1865 -1926 0
-1866 -1927 0
-1867 -1928 0
-1868 -1929 0
-1869 -1930 0
-1866 -1946 0
-1867 -1947 0
-1868 -1948 0
-1869 -1949 0
-1866 -1953 0
-1867 -1954 0
-1868 -1955 0
-1869 -1956 0
-1864 -1978 0
-1867 -1981 0
-1868 -1982 0
-1869 -1983 0
-1864 -1984 0
-1865 -1985 0
-1866 -1986 0
-1867 -1987 0
-1868 -1988 0
-1869 -1989 0
-1870 -1879 0
-1871 -1880 0
-1872 -1881 0
-1875 -1882 0
-1876 -1883 0
-1870 -1898 0
-1872 -1899 0
-1874 -1900 0
-1875 -1901 0
-1876 -1902 0
-1870 -1904 0
-1872 -1905 0
-1873 -1906 0
-1874 -1907 0
-1875 -1908 0
-1876 -1909 0
-1870 -1917 0
-1871 -1918 0
-1872 -1919 0
-1873 -1920 0
-1874 -1921 0
-1875 -1922 0
-1876 -1923 0
-1871 -1933 0
-1874 -1934 0
-1875 -1935 0
-1876 -1936 0
-1873 -1946 0
-1874 -1947 0
-1875 -1948 0
-1876 -1949 0
-1870 -1951 0
-1871 -1952 0
-1873 -1953 0
-1874 -1954 0
-1875 -1955 0
-1876 -1956 0
-1870 -1959 0
-1872 -1960 0
-1873 -1961 0
-1874 -1962 0
-1875 -1963 0
-1876 -1964 0
-1872 -1985 0
-1873 -1986 0
-1874 -1987 0
-1875 -1988 0
-1876 -1989 0
-1870 -1991 0
-1871 -1992 0
-1872 -1993 0
-1873 -1994 0
-1874 -1995 0
-1875 -1996 0
-1876 -1997 0
-1880 -1939 0
-1881 -1940 0
-1882 -1942 0
-1883 -1943 0
-1882 -1948 0
-1883 -1949 0
-1879 -1951 0
-1880 -1952 0
-1882 -1955 0
-1883 -1956 0
-1880 -1967 0
-1882 -1970 0
-1883 -1971 0
-1879 -1973 0
-1881 -1974 0
-1882 -1976 0
-1883 -1977 0
-1881 -1985 0
-1882 -1988 0
-1883 -1989 0
-1886 -1941 0
-1888 -1942 0
-1889 -1943 0
-1886 -1946 0
-1887 -1947 0
-1888 -1948 0
-1889 -1949 0
-1885 -1951 0
-1886 -1953 0
-1887 -1954 0
-1888 -1955 0
-1889 -1956 0
-1885 -1959 0
-1886 -1961 0
-1887 -1962 0
-1888 -1963 0
-1889 -1964 0
-1885 -1973 0
-1887 -1975 0
-1888 -1976 0
-1889 -1977 0
-1885 -1979 0
-1887 -1981 0
-1888 -1982 0
-1889 -1983 0
-1885 -1991 0
-1886 -1994 0
-1887 -1995 0
-1888 -1996 0
-1889 -1997 0
-1891 -1911 0
-1892 -1912 0
-1893 -1913 0
-1895 -1914 0
-1896 -1915 0
-1890 -1924 0
-1893 -1927 0
-1894 -1928 0
-1895 -1929 0
-1896 -1930 0
-1890 -1931 0
-1892 -1933 0
-1894 -1934 0
-1895 -1935 0
-1896 -1936 0
-1890 -1950 0
-1891 -1951 0
-1892 -1952 0
-1893 -1953 0
-1894 -1954 0
-1895 -1955 0
-1896 -1956 0
-1890 -1958 0
-1891 -1959 0
-1893 -1961 0
-1894 -1962 0
-1895 -1963 0
-1896 -1964 0
-1890 -1972 0
-1891 -1973 0
-1894 -1975 0
-1895 -1976 0
-1896 -1977 0
-1891 -1979 0
-1892 -1980 0
-1894 -1981 0
-1895 -1982 0
-1896 -1983 0
-1898 -1904 0
-1899 -1905 0
-1900 -1907 0
-1901 -1908 0
-1902 -1909 0
-1897 -1924 0
-1899 -1926 0
-1900 -1928 0
-1901 -1929 0
-1902 -1930 0
-1897 -1931 0
-1900 -1934 0
-1901 -1935 0
-1902 -1936 0
-1897 -1950 0
-1898 -1951 0
-1900 -1954 0
-1901 -1955 0
-1902 -1956 0
-1897 -1966 0
-1900 -1969 0
-1901 -1970 0
-1902 -1971 0
-1897 -1972 0
-1898 -1973 0
-1899 -1974 0
-1900 -1975 0
-1901 -1976 0
-1902 -1977 0
-1899 -1985 0
-1900 -1987 0
-1901 -1988 0
-1902 -1989 0
-1907 -1934 0
-1908 -1935 0
-1909 -1936 0
-1904 -1973 0
-1905 -1974 0
-1907 -1975 0
-1908 -1976 0
-1909 -1977 0
-1905 -1985 0
-1906 -1986 0
-1907 -1987 0
-1908 -1988 0
-1909 -1989 0
-1904 -1991 0
-1905 -1993 0
-1906 -1994 0
-1907 -1995 0
-1908 -1996 0
-1909 -1997 0
-1912 -1933 0
-1914 -1935 0
-1915 -1936 0
-1911 -1973 0
-1914 -1976 0
-1915 -1977 0
-1911 -1979 0
-1912 -1980 0
-1914 -1982 0
-1915 -1983 0
-1919 -1926 0
-1920 -1927 0
-1921 -1928 0
-1922 -1929 0
-1923 -1930 0
-1918 -1933 0
-1921 -1934 0
-1922 -1935 0
-1923 -1936 0
-1918 -1939 0
-1919 -1940 0
-1920 -1941 0
-1922 -1942 0
-1923 -1943 0
-1920 -1946 0
-1921 -1947 0
-1922 -1948 0
-1923 -1949 0
-1917 -1959 0
-1919 -1960 0
-1920 -1961 0
-1921 -1962 0
-1922 -1963 0
-1923 -1964 0
-1917 -1979 0
-1918 -1980 0
-1921 -1981 0
-1922 -1982 0
-1923 -1983 0
-1917 -1991 0
-1918 -1992 0
-1919 -1993 0
-1920 -1994 0
-1921 -1995 0
-1922 -1996 0
-1923 -1997 0
-1938 -1958 0
-1940 -1960 0
-1941 -1961 0
-1942 -1963 0
-1943 -1964 0
-1938 -1966 0
-1939 -1967 0
-1941 -1968 0
-1942 -1970 0
-1943 -1971 0
-1939 -1992 0
-1940 -1993 0
-1941 -1994 0
-1942 -1996 0
-1943 -1997 0
