c q00r00-s017 canonical compact 12-color CNF
c Variables are ordered by ascending vertex then ascending allowed color.
c Greedy clique order is descending degree then ascending vertex.
p cnf 1958 69040
1 0
2 3 4 5 6 7 8 0
-2 -3 0
-2 -4 0
-2 -5 0
-2 -6 0
-2 -7 0
-2 -8 0
-3 -4 0
-3 -5 0
-3 -6 0
-3 -7 0
-3 -8 0
-4 -5 0
-4 -6 0
-4 -7 0
-4 -8 0
-5 -6 0
-5 -7 0
-5 -8 0
-6 -7 0
-6 -8 0
-7 -8 0
9 10 11 12 13 14 15 0
-9 -10 0
-9 -11 0
-9 -12 0
-9 -13 0
-9 -14 0
-9 -15 0
-10 -11 0
-10 -12 0
-10 -13 0
-10 -14 0
-10 -15 0
-11 -12 0
-11 -13 0
-11 -14 0
-11 -15 0
-12 -13 0
-12 -14 0
-12 -15 0
-13 -14 0
-13 -15 0
-14 -15 0
16 17 18 19 20 21 22 0
-16 -17 0
-16 -18 0
-16 -19 0
-16 -20 0
-16 -21 0
-16 -22 0
-17 -18 0
-17 -19 0
-17 -20 0
-17 -21 0
-17 -22 0
-18 -19 0
-18 -20 0
-18 -21 0
-18 -22 0
-19 -20 0
-19 -21 0
-19 -22 0
-20 -21 0
-20 -22 0
-21 -22 0
23 24 25 26 27 28 29 0
-23 -24 0
-23 -25 0
-23 -26 0
-23 -27 0
-23 -28 0
-23 -29 0
-24 -25 0
-24 -26 0
-24 -27 0
-24 -28 0
-24 -29 0
-25 -26 0
-25 -27 0
-25 -28 0
-25 -29 0
-26 -27 0
-26 -28 0
-26 -29 0
-27 -28 0
-27 -29 0
-28 -29 0
30 31 32 33 34 35 0
-30 -31 0
-30 -32 0
-30 -33 0
-30 -34 0
-30 -35 0
-31 -32 0
-31 -33 0
-31 -34 0
-31 -35 0
-32 -33 0
-32 -34 0
-32 -35 0
-33 -34 0
-33 -35 0
-34 -35 0
36 37 38 39 40 41 42 0
-36 -37 0
-36 -38 0
-36 -39 0
-36 -40 0
-36 -41 0
-36 -42 0
-37 -38 0
-37 -39 0
-37 -40 0
-37 -41 0
-37 -42 0
-38 -39 0
-38 -40 0
-38 -41 0
-38 -42 0
-39 -40 0
-39 -41 0
-39 -42 0
-40 -41 0
-40 -42 0
-41 -42 0
43 44 45 46 47 48 0
-43 -44 0
-43 -45 0
-43 -46 0
-43 -47 0
-43 -48 0
-44 -45 0
-44 -46 0
-44 -47 0
-44 -48 0
-45 -46 0
-45 -47 0
-45 -48 0
-46 -47 0
-46 -48 0
-47 -48 0
49 50 51 52 53 54 0
-49 -50 0
-49 -51 0
-49 -52 0
-49 -53 0
-49 -54 0
-50 -51 0
-50 -52 0
-50 -53 0
-50 -54 0
-51 -52 0
-51 -53 0
-51 -54 0
-52 -53 0
-52 -54 0
-53 -54 0
55 56 57 58 59 60 0
-55 -56 0
-55 -57 0
-55 -58 0
-55 -59 0
-55 -60 0
-56 -57 0
-56 -58 0
-56 -59 0
-56 -60 0
-57 -58 0
-57 -59 0
-57 -60 0
-58 -59 0
-58 -60 0
-59 -60 0
61 62 63 64 65 66 0
-61 -62 0
-61 -63 0
-61 -64 0
-61 -65 0
-61 -66 0
-62 -63 0
-62 -64 0
-62 -65 0
-62 -66 0
-63 -64 0
-63 -65 0
-63 -66 0
-64 -65 0
-64 -66 0
-65 -66 0
67 68 69 70 71 72 73 0
-67 -68 0
-67 -69 0
-67 -70 0
-67 -71 0
-67 -72 0
-67 -73 0
-68 -69 0
-68 -70 0
-68 -71 0
-68 -72 0
-68 -73 0
-69 -70 0
-69 -71 0
-69 -72 0
-69 -73 0
-70 -71 0
-70 -72 0
-70 -73 0
-71 -72 0
-71 -73 0
-72 -73 0
74 75 76 77 78 79 80 0
-74 -75 0
-74 -76 0
-74 -77 0
-74 -78 0
-74 -79 0
-74 -80 0
-75 -76 0
-75 -77 0
-75 -78 0
-75 -79 0
-75 -80 0
-76 -77 0
-76 -78 0
-76 -79 0
-76 -80 0
-77 -78 0
-77 -79 0
-77 -80 0
-78 -79 0
-78 -80 0
-79 -80 0
81 82 83 84 85 86 0
-81 -82 0
-81 -83 0
-81 -84 0
-81 -85 0
-81 -86 0
-82 -83 0
-82 -84 0
-82 -85 0
-82 -86 0
-83 -84 0
-83 -85 0
-83 -86 0
-84 -85 0
-84 -86 0
-85 -86 0
87 88 89 90 91 92 0
-87 -88 0
-87 -89 0
-87 -90 0
-87 -91 0
-87 -92 0
-88 -89 0
-88 -90 0
-88 -91 0
-88 -92 0
-89 -90 0
-89 -91 0
-89 -92 0
-90 -91 0
-90 -92 0
-91 -92 0
93 0
94 95 96 97 98 99 100 0
-94 -95 0
-94 -96 0
-94 -97 0
-94 -98 0
-94 -99 0
-94 -100 0
-95 -96 0
-95 -97 0
-95 -98 0
-95 -99 0
-95 -100 0
-96 -97 0
-96 -98 0
-96 -99 0
-96 -100 0
-97 -98 0
-97 -99 0
-97 -100 0
-98 -99 0
-98 -100 0
-99 -100 0
101 102 103 104 105 106 107 0
-101 -102 0
-101 -103 0
-101 -104 0
-101 -105 0
-101 -106 0
-101 -107 0
-102 -103 0
-102 -104 0
-102 -105 0
-102 -106 0
-102 -107 0
-103 -104 0
-103 -105 0
-103 -106 0
-103 -107 0
-104 -105 0
-104 -106 0
-104 -107 0
-105 -106 0
-105 -107 0
-106 -107 0
108 109 110 111 112 113 0
-108 -109 0
-108 -110 0
-108 -111 0
-108 -112 0
-108 -113 0
-109 -110 0
-109 -111 0
-109 -112 0
-109 -113 0
-110 -111 0
-110 -112 0
-110 -113 0
-111 -112 0
-111 -113 0
-112 -113 0
114 115 116 117 118 119 120 0
-114 -115 0
-114 -116 0
-114 -117 0
-114 -118 0
-114 -119 0
-114 -120 0
-115 -116 0
-115 -117 0
-115 -118 0
-115 -119 0
-115 -120 0
-116 -117 0
-116 -118 0
-116 -119 0
-116 -120 0
-117 -118 0
-117 -119 0
-117 -120 0
-118 -119 0
-118 -120 0
-119 -120 0
121 122 123 124 125 126 0
-121 -122 0
-121 -123 0
-121 -124 0
-121 -125 0
-121 -126 0
-122 -123 0
-122 -124 0
-122 -125 0
-122 -126 0
-123 -124 0
-123 -125 0
-123 -126 0
-124 -125 0
-124 -126 0
-125 -126 0
127 128 129 130 131 132 133 0
-127 -128 0
-127 -129 0
-127 -130 0
-127 -131 0
-127 -132 0
-127 -133 0
-128 -129 0
-128 -130 0
-128 -131 0
-128 -132 0
-128 -133 0
-129 -130 0
-129 -131 0
-129 -132 0
-129 -133 0
-130 -131 0
-130 -132 0
-130 -133 0
-131 -132 0
-131 -133 0
-132 -133 0
134 135 136 137 138 139 140 141 142 0
-134 -135 0
-134 -136 0
-134 -137 0
-134 -138 0
-134 -139 0
-134 -140 0
-134 -141 0
-134 -142 0
-135 -136 0
-135 -137 0
-135 -138 0
-135 -139 0
-135 -140 0
-135 -141 0
-135 -142 0
-136 -137 0
-136 -138 0
-136 -139 0
-136 -140 0
-136 -141 0
-136 -142 0
-137 -138 0
-137 -139 0
-137 -140 0
-137 -141 0
-137 -142 0
-138 -139 0
-138 -140 0
-138 -141 0
-138 -142 0
-139 -140 0
-139 -141 0
-139 -142 0
-140 -141 0
-140 -142 0
-141 -142 0
143 144 145 146 147 148 149 150 151 0
-143 -144 0
-143 -145 0
-143 -146 0
-143 -147 0
-143 -148 0
-143 -149 0
-143 -150 0
-143 -151 0
-144 -145 0
-144 -146 0
-144 -147 0
-144 -148 0
-144 -149 0
-144 -150 0
-144 -151 0
-145 -146 0
-145 -147 0
-145 -148 0
-145 -149 0
-145 -150 0
-145 -151 0
-146 -147 0
-146 -148 0
-146 -149 0
-146 -150 0
-146 -151 0
-147 -148 0
-147 -149 0
-147 -150 0
-147 -151 0
-148 -149 0
-148 -150 0
-148 -151 0
-149 -150 0
-149 -151 0
-150 -151 0
152 153 154 155 156 157 158 0
-152 -153 0
-152 -154 0
-152 -155 0
-152 -156 0
-152 -157 0
-152 -158 0
-153 -154 0
-153 -155 0
-153 -156 0
-153 -157 0
-153 -158 0
-154 -155 0
-154 -156 0
-154 -157 0
-154 -158 0
-155 -156 0
-155 -157 0
-155 -158 0
-156 -157 0
-156 -158 0
-157 -158 0
159 160 161 162 163 164 165 166 167 0
-159 -160 0
-159 -161 0
-159 -162 0
-159 -163 0
-159 -164 0
-159 -165 0
-159 -166 0
-159 -167 0
-160 -161 0
-160 -162 0
-160 -163 0
-160 -164 0
-160 -165 0
-160 -166 0
-160 -167 0
-161 -162 0
-161 -163 0
-161 -164 0
-161 -165 0
-161 -166 0
-161 -167 0
-162 -163 0
-162 -164 0
-162 -165 0
-162 -166 0
-162 -167 0
-163 -164 0
-163 -165 0
-163 -166 0
-163 -167 0
-164 -165 0
-164 -166 0
-164 -167 0
-165 -166 0
-165 -167 0
-166 -167 0
168 169 170 171 172 173 174 175 176 177 0
-168 -169 0
-168 -170 0
-168 -171 0
-168 -172 0
-168 -173 0
-168 -174 0
-168 -175 0
-168 -176 0
-168 -177 0
-169 -170 0
-169 -171 0
-169 -172 0
-169 -173 0
-169 -174 0
-169 -175 0
-169 -176 0
-169 -177 0
-170 -171 0
-170 -172 0
-170 -173 0
-170 -174 0
-170 -175 0
-170 -176 0
-170 -177 0
-171 -172 0
-171 -173 0
-171 -174 0
-171 -175 0
-171 -176 0
-171 -177 0
-172 -173 0
-172 -174 0
-172 -175 0
-172 -176 0
-172 -177 0
-173 -174 0
-173 -175 0
-173 -176 0
-173 -177 0
-174 -175 0
-174 -176 0
-174 -177 0
-175 -176 0
-175 -177 0
-176 -177 0
178 179 180 181 182 183 184 0
-178 -179 0
-178 -180 0
-178 -181 0
-178 -182 0
-178 -183 0
-178 -184 0
-179 -180 0
-179 -181 0
-179 -182 0
-179 -183 0
-179 -184 0
-180 -181 0
-180 -182 0
-180 -183 0
-180 -184 0
-181 -182 0
-181 -183 0
-181 -184 0
-182 -183 0
-182 -184 0
-183 -184 0
185 186 187 188 189 190 191 0
-185 -186 0
-185 -187 0
-185 -188 0
-185 -189 0
-185 -190 0
-185 -191 0
-186 -187 0
-186 -188 0
-186 -189 0
-186 -190 0
-186 -191 0
-187 -188 0
-187 -189 0
-187 -190 0
-187 -191 0
-188 -189 0
-188 -190 0
-188 -191 0
-189 -190 0
-189 -191 0
-190 -191 0
192 193 194 195 196 197 198 199 200 201 0
-192 -193 0
-192 -194 0
-192 -195 0
-192 -196 0
-192 -197 0
-192 -198 0
-192 -199 0
-192 -200 0
-192 -201 0
-193 -194 0
-193 -195 0
-193 -196 0
-193 -197 0
-193 -198 0
-193 -199 0
-193 -200 0
-193 -201 0
-194 -195 0
-194 -196 0
-194 -197 0
-194 -198 0
-194 -199 0
-194 -200 0
-194 -201 0
-195 -196 0
-195 -197 0
-195 -198 0
-195 -199 0
-195 -200 0
-195 -201 0
-196 -197 0
-196 -198 0
-196 -199 0
-196 -200 0
-196 -201 0
-197 -198 0
-197 -199 0
-197 -200 0
-197 -201 0
-198 -199 0
-198 -200 0
-198 -201 0
-199 -200 0
-199 -201 0
-200 -201 0
202 203 204 205 206 207 0
-202 -203 0
-202 -204 0
-202 -205 0
-202 -206 0
-202 -207 0
-203 -204 0
-203 -205 0
-203 -206 0
-203 -207 0
-204 -205 0
-204 -206 0
-204 -207 0
-205 -206 0
-205 -207 0
-206 -207 0
208 209 210 211 212 213 214 0
-208 -209 0
-208 -210 0
-208 -211 0
-208 -212 0
-208 -213 0
-208 -214 0
-209 -210 0
-209 -211 0
-209 -212 0
-209 -213 0
-209 -214 0
-210 -211 0
-210 -212 0
-210 -213 0
-210 -214 0
-211 -212 0
-211 -213 0
-211 -214 0
-212 -213 0
-212 -214 0
-213 -214 0
215 216 217 218 219 220 0
-215 -216 0
-215 -217 0
-215 -218 0
-215 -219 0
-215 -220 0
-216 -217 0
-216 -218 0
-216 -219 0
-216 -220 0
-217 -218 0
-217 -219 0
-217 -220 0
-218 -219 0
-218 -220 0
-219 -220 0
221 222 223 224 225 226 0
-221 -222 0
-221 -223 0
-221 -224 0
-221 -225 0
-221 -226 0
-222 -223 0
-222 -224 0
-222 -225 0
-222 -226 0
-223 -224 0
-223 -225 0
-223 -226 0
-224 -225 0
-224 -226 0
-225 -226 0
227 228 229 230 231 232 233 234 235 0
-227 -228 0
-227 -229 0
-227 -230 0
-227 -231 0
-227 -232 0
-227 -233 0
-227 -234 0
-227 -235 0
-228 -229 0
-228 -230 0
-228 -231 0
-228 -232 0
-228 -233 0
-228 -234 0
-228 -235 0
-229 -230 0
-229 -231 0
-229 -232 0
-229 -233 0
-229 -234 0
-229 -235 0
-230 -231 0
-230 -232 0
-230 -233 0
-230 -234 0
-230 -235 0
-231 -232 0
-231 -233 0
-231 -234 0
-231 -235 0
-232 -233 0
-232 -234 0
-232 -235 0
-233 -234 0
-233 -235 0
-234 -235 0
236 237 238 239 240 241 242 243 244 0
-236 -237 0
-236 -238 0
-236 -239 0
-236 -240 0
-236 -241 0
-236 -242 0
-236 -243 0
-236 -244 0
-237 -238 0
-237 -239 0
-237 -240 0
-237 -241 0
-237 -242 0
-237 -243 0
-237 -244 0
-238 -239 0
-238 -240 0
-238 -241 0
-238 -242 0
-238 -243 0
-238 -244 0
-239 -240 0
-239 -241 0
-239 -242 0
-239 -243 0
-239 -244 0
-240 -241 0
-240 -242 0
-240 -243 0
-240 -244 0
-241 -242 0
-241 -243 0
-241 -244 0
-242 -243 0
-242 -244 0
-243 -244 0
245 246 247 248 249 250 0
-245 -246 0
-245 -247 0
-245 -248 0
-245 -249 0
-245 -250 0
-246 -247 0
-246 -248 0
-246 -249 0
-246 -250 0
-247 -248 0
-247 -249 0
-247 -250 0
-248 -249 0
-248 -250 0
-249 -250 0
251 252 253 254 255 256 0
-251 -252 0
-251 -253 0
-251 -254 0
-251 -255 0
-251 -256 0
-252 -253 0
-252 -254 0
-252 -255 0
-252 -256 0
-253 -254 0
-253 -255 0
-253 -256 0
-254 -255 0
-254 -256 0
-255 -256 0
257 258 259 260 261 262 263 0
-257 -258 0
-257 -259 0
-257 -260 0
-257 -261 0
-257 -262 0
-257 -263 0
-258 -259 0
-258 -260 0
-258 -261 0
-258 -262 0
-258 -263 0
-259 -260 0
-259 -261 0
-259 -262 0
-259 -263 0
-260 -261 0
-260 -262 0
-260 -263 0
-261 -262 0
-261 -263 0
-262 -263 0
264 265 266 267 268 269 270 0
-264 -265 0
-264 -266 0
-264 -267 0
-264 -268 0
-264 -269 0
-264 -270 0
-265 -266 0
-265 -267 0
-265 -268 0
-265 -269 0
-265 -270 0
-266 -267 0
-266 -268 0
-266 -269 0
-266 -270 0
-267 -268 0
-267 -269 0
-267 -270 0
-268 -269 0
-268 -270 0
-269 -270 0
271 272 273 274 275 276 277 0
-271 -272 0
-271 -273 0
-271 -274 0
-271 -275 0
-271 -276 0
-271 -277 0
-272 -273 0
-272 -274 0
-272 -275 0
-272 -276 0
-272 -277 0
-273 -274 0
-273 -275 0
-273 -276 0
-273 -277 0
-274 -275 0
-274 -276 0
-274 -277 0
-275 -276 0
-275 -277 0
-276 -277 0
278 279 280 281 282 283 284 0
-278 -279 0
-278 -280 0
-278 -281 0
-278 -282 0
-278 -283 0
-278 -284 0
-279 -280 0
-279 -281 0
-279 -282 0
-279 -283 0
-279 -284 0
-280 -281 0
-280 -282 0
-280 -283 0
-280 -284 0
-281 -282 0
-281 -283 0
-281 -284 0
-282 -283 0
-282 -284 0
-283 -284 0
285 286 287 288 289 290 0
-285 -286 0
-285 -287 0
-285 -288 0
-285 -289 0
-285 -290 0
-286 -287 0
-286 -288 0
-286 -289 0
-286 -290 0
-287 -288 0
-287 -289 0
-287 -290 0
-288 -289 0
-288 -290 0
-289 -290 0
291 292 293 294 295 296 0
-291 -292 0
-291 -293 0
-291 -294 0
-291 -295 0
-291 -296 0
-292 -293 0
-292 -294 0
-292 -295 0
-292 -296 0
-293 -294 0
-293 -295 0
-293 -296 0
-294 -295 0
-294 -296 0
-295 -296 0
297 298 299 300 301 302 0
-297 -298 0
-297 -299 0
-297 -300 0
-297 -301 0
-297 -302 0
-298 -299 0
-298 -300 0
-298 -301 0
-298 -302 0
-299 -300 0
-299 -301 0
-299 -302 0
-300 -301 0
-300 -302 0
-301 -302 0
303 304 305 306 307 308 0
-303 -304 0
-303 -305 0
-303 -306 0
-303 -307 0
-303 -308 0
-304 -305 0
-304 -306 0
-304 -307 0
-304 -308 0
-305 -306 0
-305 -307 0
-305 -308 0
-306 -307 0
-306 -308 0
-307 -308 0
309 310 311 312 313 314 0
-309 -310 0
-309 -311 0
-309 -312 0
-309 -313 0
-309 -314 0
-310 -311 0
-310 -312 0
-310 -313 0
-310 -314 0
-311 -312 0
-311 -313 0
-311 -314 0
-312 -313 0
-312 -314 0
-313 -314 0
315 316 317 318 319 320 321 0
-315 -316 0
-315 -317 0
-315 -318 0
-315 -319 0
-315 -320 0
-315 -321 0
-316 -317 0
-316 -318 0
-316 -319 0
-316 -320 0
-316 -321 0
-317 -318 0
-317 -319 0
-317 -320 0
-317 -321 0
-318 -319 0
-318 -320 0
-318 -321 0
-319 -320 0
-319 -321 0
-320 -321 0
322 323 324 325 326 327 328 329 330 0
-322 -323 0
-322 -324 0
-322 -325 0
-322 -326 0
-322 -327 0
-322 -328 0
-322 -329 0
-322 -330 0
-323 -324 0
-323 -325 0
-323 -326 0
-323 -327 0
-323 -328 0
-323 -329 0
-323 -330 0
-324 -325 0
-324 -326 0
-324 -327 0
-324 -328 0
-324 -329 0
-324 -330 0
-325 -326 0
-325 -327 0
-325 -328 0
-325 -329 0
-325 -330 0
-326 -327 0
-326 -328 0
-326 -329 0
-326 -330 0
-327 -328 0
-327 -329 0
-327 -330 0
-328 -329 0
-328 -330 0
-329 -330 0
331 332 333 334 335 336 337 0
-331 -332 0
-331 -333 0
-331 -334 0
-331 -335 0
-331 -336 0
-331 -337 0
-332 -333 0
-332 -334 0
-332 -335 0
-332 -336 0
-332 -337 0
-333 -334 0
-333 -335 0
-333 -336 0
-333 -337 0
-334 -335 0
-334 -336 0
-334 -337 0
-335 -336 0
-335 -337 0
-336 -337 0
338 339 340 341 342 343 344 345 346 347 0
-338 -339 0
-338 -340 0
-338 -341 0
-338 -342 0
-338 -343 0
-338 -344 0
-338 -345 0
-338 -346 0
-338 -347 0
-339 -340 0
-339 -341 0
-339 -342 0
-339 -343 0
-339 -344 0
-339 -345 0
-339 -346 0
-339 -347 0
-340 -341 0
-340 -342 0
-340 -343 0
-340 -344 0
-340 -345 0
-340 -346 0
-340 -347 0
-341 -342 0
-341 -343 0
-341 -344 0
-341 -345 0
-341 -346 0
-341 -347 0
-342 -343 0
-342 -344 0
-342 -345 0
-342 -346 0
-342 -347 0
-343 -344 0
-343 -345 0
-343 -346 0
-343 -347 0
-344 -345 0
-344 -346 0
-344 -347 0
-345 -346 0
-345 -347 0
-346 -347 0
348 349 350 351 352 353 0
-348 -349 0
-348 -350 0
-348 -351 0
-348 -352 0
-348 -353 0
-349 -350 0
-349 -351 0
-349 -352 0
-349 -353 0
-350 -351 0
-350 -352 0
-350 -353 0
-351 -352 0
-351 -353 0
-352 -353 0
354 355 356 357 358 359 360 361 362 0
-354 -355 0
-354 -356 0
-354 -357 0
-354 -358 0
-354 -359 0
-354 -360 0
-354 -361 0
-354 -362 0
-355 -356 0
-355 -357 0
-355 -358 0
-355 -359 0
-355 -360 0
-355 -361 0
-355 -362 0
-356 -357 0
-356 -358 0
-356 -359 0
-356 -360 0
-356 -361 0
-356 -362 0
-357 -358 0
-357 -359 0
-357 -360 0
-357 -361 0
-357 -362 0
-358 -359 0
-358 -360 0
-358 -361 0
-358 -362 0
-359 -360 0
-359 -361 0
-359 -362 0
-360 -361 0
-360 -362 0
-361 -362 0
363 364 365 366 367 368 0
-363 -364 0
-363 -365 0
-363 -366 0
-363 -367 0
-363 -368 0
-364 -365 0
-364 -366 0
-364 -367 0
-364 -368 0
-365 -366 0
-365 -367 0
-365 -368 0
-366 -367 0
-366 -368 0
-367 -368 0
369 370 371 372 373 374 0
-369 -370 0
-369 -371 0
-369 -372 0
-369 -373 0
-369 -374 0
-370 -371 0
-370 -372 0
-370 -373 0
-370 -374 0
-371 -372 0
-371 -373 0
-371 -374 0
-372 -373 0
-372 -374 0
-373 -374 0
375 376 377 378 379 380 381 0
-375 -376 0
-375 -377 0
-375 -378 0
-375 -379 0
-375 -380 0
-375 -381 0
-376 -377 0
-376 -378 0
-376 -379 0
-376 -380 0
-376 -381 0
-377 -378 0
-377 -379 0
-377 -380 0
-377 -381 0
-378 -379 0
-378 -380 0
-378 -381 0
-379 -380 0
-379 -381 0
-380 -381 0
382 383 384 385 386 387 388 0
-382 -383 0
-382 -384 0
-382 -385 0
-382 -386 0
-382 -387 0
-382 -388 0
-383 -384 0
-383 -385 0
-383 -386 0
-383 -387 0
-383 -388 0
-384 -385 0
-384 -386 0
-384 -387 0
-384 -388 0
-385 -386 0
-385 -387 0
-385 -388 0
-386 -387 0
-386 -388 0
-387 -388 0
389 390 391 392 393 394 395 0
-389 -390 0
-389 -391 0
-389 -392 0
-389 -393 0
-389 -394 0
-389 -395 0
-390 -391 0
-390 -392 0
-390 -393 0
-390 -394 0
-390 -395 0
-391 -392 0
-391 -393 0
-391 -394 0
-391 -395 0
-392 -393 0
-392 -394 0
-392 -395 0
-393 -394 0
-393 -395 0
-394 -395 0
396 397 398 399 400 401 0
-396 -397 0
-396 -398 0
-396 -399 0
-396 -400 0
-396 -401 0
-397 -398 0
-397 -399 0
-397 -400 0
-397 -401 0
-398 -399 0
-398 -400 0
-398 -401 0
-399 -400 0
-399 -401 0
-400 -401 0
402 403 404 405 406 407 0
-402 -403 0
-402 -404 0
-402 -405 0
-402 -406 0
-402 -407 0
-403 -404 0
-403 -405 0
-403 -406 0
-403 -407 0
-404 -405 0
-404 -406 0
-404 -407 0
-405 -406 0
-405 -407 0
-406 -407 0
408 409 410 411 412 413 414 0
-408 -409 0
-408 -410 0
-408 -411 0
-408 -412 0
-408 -413 0
-408 -414 0
-409 -410 0
-409 -411 0
-409 -412 0
-409 -413 0
-409 -414 0
-410 -411 0
-410 -412 0
-410 -413 0
-410 -414 0
-411 -412 0
-411 -413 0
-411 -414 0
-412 -413 0
-412 -414 0
-413 -414 0
415 416 417 418 419 420 421 0
-415 -416 0
-415 -417 0
-415 -418 0
-415 -419 0
-415 -420 0
-415 -421 0
-416 -417 0
-416 -418 0
-416 -419 0
-416 -420 0
-416 -421 0
-417 -418 0
-417 -419 0
-417 -420 0
-417 -421 0
-418 -419 0
-418 -420 0
-418 -421 0
-419 -420 0
-419 -421 0
-420 -421 0
422 423 424 425 426 427 428 429 430 431 0
-422 -423 0
-422 -424 0
-422 -425 0
-422 -426 0
-422 -427 0
-422 -428 0
-422 -429 0
-422 -430 0
-422 -431 0
-423 -424 0
-423 -425 0
-423 -426 0
-423 -427 0
-423 -428 0
-423 -429 0
-423 -430 0
-423 -431 0
-424 -425 0
-424 -426 0
-424 -427 0
-424 -428 0
-424 -429 0
-424 -430 0
-424 -431 0
-425 -426 0
-425 -427 0
-425 -428 0
-425 -429 0
-425 -430 0
-425 -431 0
-426 -427 0
-426 -428 0
-426 -429 0
-426 -430 0
-426 -431 0
-427 -428 0
-427 -429 0
-427 -430 0
-427 -431 0
-428 -429 0
-428 -430 0
-428 -431 0
-429 -430 0
-429 -431 0
-430 -431 0
432 433 434 435 436 437 438 0
-432 -433 0
-432 -434 0
-432 -435 0
-432 -436 0
-432 -437 0
-432 -438 0
-433 -434 0
-433 -435 0
-433 -436 0
-433 -437 0
-433 -438 0
-434 -435 0
-434 -436 0
-434 -437 0
-434 -438 0
-435 -436 0
-435 -437 0
-435 -438 0
-436 -437 0
-436 -438 0
-437 -438 0
439 440 441 442 443 444 0
-439 -440 0
-439 -441 0
-439 -442 0
-439 -443 0
-439 -444 0
-440 -441 0
-440 -442 0
-440 -443 0
-440 -444 0
-441 -442 0
-441 -443 0
-441 -444 0
-442 -443 0
-442 -444 0
-443 -444 0
445 446 447 448 449 450 451 0
-445 -446 0
-445 -447 0
-445 -448 0
-445 -449 0
-445 -450 0
-445 -451 0
-446 -447 0
-446 -448 0
-446 -449 0
-446 -450 0
-446 -451 0
-447 -448 0
-447 -449 0
-447 -450 0
-447 -451 0
-448 -449 0
-448 -450 0
-448 -451 0
-449 -450 0
-449 -451 0
-450 -451 0
452 453 454 455 456 457 0
-452 -453 0
-452 -454 0
-452 -455 0
-452 -456 0
-452 -457 0
-453 -454 0
-453 -455 0
-453 -456 0
-453 -457 0
-454 -455 0
-454 -456 0
-454 -457 0
-455 -456 0
-455 -457 0
-456 -457 0
458 459 460 461 462 463 464 465 466 0
-458 -459 0
-458 -460 0
-458 -461 0
-458 -462 0
-458 -463 0
-458 -464 0
-458 -465 0
-458 -466 0
-459 -460 0
-459 -461 0
-459 -462 0
-459 -463 0
-459 -464 0
-459 -465 0
-459 -466 0
-460 -461 0
-460 -462 0
-460 -463 0
-460 -464 0
-460 -465 0
-460 -466 0
-461 -462 0
-461 -463 0
-461 -464 0
-461 -465 0
-461 -466 0
-462 -463 0
-462 -464 0
-462 -465 0
-462 -466 0
-463 -464 0
-463 -465 0
-463 -466 0
-464 -465 0
-464 -466 0
-465 -466 0
467 468 469 470 471 472 0
-467 -468 0
-467 -469 0
-467 -470 0
-467 -471 0
-467 -472 0
-468 -469 0
-468 -470 0
-468 -471 0
-468 -472 0
-469 -470 0
-469 -471 0
-469 -472 0
-470 -471 0
-470 -472 0
-471 -472 0
473 474 475 476 477 478 479 0
-473 -474 0
-473 -475 0
-473 -476 0
-473 -477 0
-473 -478 0
-473 -479 0
-474 -475 0
-474 -476 0
-474 -477 0
-474 -478 0
-474 -479 0
-475 -476 0
-475 -477 0
-475 -478 0
-475 -479 0
-476 -477 0
-476 -478 0
-476 -479 0
-477 -478 0
-477 -479 0
-478 -479 0
480 481 482 483 484 485 486 487 488 0
-480 -481 0
-480 -482 0
-480 -483 0
-480 -484 0
-480 -485 0
-480 -486 0
-480 -487 0
-480 -488 0
-481 -482 0
-481 -483 0
-481 -484 0
-481 -485 0
-481 -486 0
-481 -487 0
-481 -488 0
-482 -483 0
-482 -484 0
-482 -485 0
-482 -486 0
-482 -487 0
-482 -488 0
-483 -484 0
-483 -485 0
-483 -486 0
-483 -487 0
-483 -488 0
-484 -485 0
-484 -486 0
-484 -487 0
-484 -488 0
-485 -486 0
-485 -487 0
-485 -488 0
-486 -487 0
-486 -488 0
-487 -488 0
489 490 491 492 493 494 495 0
-489 -490 0
-489 -491 0
-489 -492 0
-489 -493 0
-489 -494 0
-489 -495 0
-490 -491 0
-490 -492 0
-490 -493 0
-490 -494 0
-490 -495 0
-491 -492 0
-491 -493 0
-491 -494 0
-491 -495 0
-492 -493 0
-492 -494 0
-492 -495 0
-493 -494 0
-493 -495 0
-494 -495 0
496 497 498 499 500 501 502 0
-496 -497 0
-496 -498 0
-496 -499 0
-496 -500 0
-496 -501 0
-496 -502 0
-497 -498 0
-497 -499 0
-497 -500 0
-497 -501 0
-497 -502 0
-498 -499 0
-498 -500 0
-498 -501 0
-498 -502 0
-499 -500 0
-499 -501 0
-499 -502 0
-500 -501 0
-500 -502 0
-501 -502 0
503 504 505 506 507 508 509 0
-503 -504 0
-503 -505 0
-503 -506 0
-503 -507 0
-503 -508 0
-503 -509 0
-504 -505 0
-504 -506 0
-504 -507 0
-504 -508 0
-504 -509 0
-505 -506 0
-505 -507 0
-505 -508 0
-505 -509 0
-506 -507 0
-506 -508 0
-506 -509 0
-507 -508 0
-507 -509 0
-508 -509 0
510 511 512 513 514 515 516 0
-510 -511 0
-510 -512 0
-510 -513 0
-510 -514 0
-510 -515 0
-510 -516 0
-511 -512 0
-511 -513 0
-511 -514 0
-511 -515 0
-511 -516 0
-512 -513 0
-512 -514 0
-512 -515 0
-512 -516 0
-513 -514 0
-513 -515 0
-513 -516 0
-514 -515 0
-514 -516 0
-515 -516 0
517 518 519 520 521 522 523 0
-517 -518 0
-517 -519 0
-517 -520 0
-517 -521 0
-517 -522 0
-517 -523 0
-518 -519 0
-518 -520 0
-518 -521 0
-518 -522 0
-518 -523 0
-519 -520 0
-519 -521 0
-519 -522 0
-519 -523 0
-520 -521 0
-520 -522 0
-520 -523 0
-521 -522 0
-521 -523 0
-522 -523 0
524 525 526 527 528 529 0
-524 -525 0
-524 -526 0
-524 -527 0
-524 -528 0
-524 -529 0
-525 -526 0
-525 -527 0
-525 -528 0
-525 -529 0
-526 -527 0
-526 -528 0
-526 -529 0
-527 -528 0
-527 -529 0
-528 -529 0
530 531 532 533 534 535 536 0
-530 -531 0
-530 -532 0
-530 -533 0
-530 -534 0
-530 -535 0
-530 -536 0
-531 -532 0
-531 -533 0
-531 -534 0
-531 -535 0
-531 -536 0
-532 -533 0
-532 -534 0
-532 -535 0
-532 -536 0
-533 -534 0
-533 -535 0
-533 -536 0
-534 -535 0
-534 -536 0
-535 -536 0
537 538 539 540 541 542 543 544 545 0
-537 -538 0
-537 -539 0
-537 -540 0
-537 -541 0
-537 -542 0
-537 -543 0
-537 -544 0
-537 -545 0
-538 -539 0
-538 -540 0
-538 -541 0
-538 -542 0
-538 -543 0
-538 -544 0
-538 -545 0
-539 -540 0
-539 -541 0
-539 -542 0
-539 -543 0
-539 -544 0
-539 -545 0
-540 -541 0
-540 -542 0
-540 -543 0
-540 -544 0
-540 -545 0
-541 -542 0
-541 -543 0
-541 -544 0
-541 -545 0
-542 -543 0
-542 -544 0
-542 -545 0
-543 -544 0
-543 -545 0
-544 -545 0
546 547 548 549 550 551 0
-546 -547 0
-546 -548 0
-546 -549 0
-546 -550 0
-546 -551 0
-547 -548 0
-547 -549 0
-547 -550 0
-547 -551 0
-548 -549 0
-548 -550 0
-548 -551 0
-549 -550 0
-549 -551 0
-550 -551 0
552 553 554 555 556 557 0
-552 -553 0
-552 -554 0
-552 -555 0
-552 -556 0
-552 -557 0
-553 -554 0
-553 -555 0
-553 -556 0
-553 -557 0
-554 -555 0
-554 -556 0
-554 -557 0
-555 -556 0
-555 -557 0
-556 -557 0
558 559 560 561 562 563 564 0
-558 -559 0
-558 -560 0
-558 -561 0
-558 -562 0
-558 -563 0
-558 -564 0
-559 -560 0
-559 -561 0
-559 -562 0
-559 -563 0
-559 -564 0
-560 -561 0
-560 -562 0
-560 -563 0
-560 -564 0
-561 -562 0
-561 -563 0
-561 -564 0
-562 -563 0
-562 -564 0
-563 -564 0
565 566 567 568 569 570 571 0
-565 -566 0
-565 -567 0
-565 -568 0
-565 -569 0
-565 -570 0
-565 -571 0
-566 -567 0
-566 -568 0
-566 -569 0
-566 -570 0
-566 -571 0
-567 -568 0
-567 -569 0
-567 -570 0
-567 -571 0
-568 -569 0
-568 -570 0
-568 -571 0
-569 -570 0
-569 -571 0
-570 -571 0
572 573 574 575 576 577 0
-572 -573 0
-572 -574 0
-572 -575 0
-572 -576 0
-572 -577 0
-573 -574 0
-573 -575 0
-573 -576 0
-573 -577 0
-574 -575 0
-574 -576 0
-574 -577 0
-575 -576 0
-575 -577 0
-576 -577 0
578 579 580 581 582 583 584 585 586 0
-578 -579 0
-578 -580 0
-578 -581 0
-578 -582 0
-578 -583 0
-578 -584 0
-578 -585 0
-578 -586 0
-579 -580 0
-579 -581 0
-579 -582 0
-579 -583 0
-579 -584 0
-579 -585 0
-579 -586 0
-580 -581 0
-580 -582 0
-580 -583 0
-580 -584 0
-580 -585 0
-580 -586 0
-581 -582 0
-581 -583 0
-581 -584 0
-581 -585 0
-581 -586 0
-582 -583 0
-582 -584 0
-582 -585 0
-582 -586 0
-583 -584 0
-583 -585 0
-583 -586 0
-584 -585 0
-584 -586 0
-585 -586 0
587 588 589 590 591 592 0
-587 -588 0
-587 -589 0
-587 -590 0
-587 -591 0
-587 -592 0
-588 -589 0
-588 -590 0
-588 -591 0
-588 -592 0
-589 -590 0
-589 -591 0
-589 -592 0
-590 -591 0
-590 -592 0
-591 -592 0
593 594 595 596 597 598 599 0
-593 -594 0
-593 -595 0
-593 -596 0
-593 -597 0
-593 -598 0
-593 -599 0
-594 -595 0
-594 -596 0
-594 -597 0
-594 -598 0
-594 -599 0
-595 -596 0
-595 -597 0
-595 -598 0
-595 -599 0
-596 -597 0
-596 -598 0
-596 -599 0
-597 -598 0
-597 -599 0
-598 -599 0
600 601 602 603 604 605 606 0
-600 -601 0
-600 -602 0
-600 -603 0
-600 -604 0
-600 -605 0
-600 -606 0
-601 -602 0
-601 -603 0
-601 -604 0
-601 -605 0
-601 -606 0
-602 -603 0
-602 -604 0
-602 -605 0
-602 -606 0
-603 -604 0
-603 -605 0
-603 -606 0
-604 -605 0
-604 -606 0
-605 -606 0
607 608 609 610 611 612 613 0
-607 -608 0
-607 -609 0
-607 -610 0
-607 -611 0
-607 -612 0
-607 -613 0
-608 -609 0
-608 -610 0
-608 -611 0
-608 -612 0
-608 -613 0
-609 -610 0
-609 -611 0
-609 -612 0
-609 -613 0
-610 -611 0
-610 -612 0
-610 -613 0
-611 -612 0
-611 -613 0
-612 -613 0
614 615 616 617 618 619 0
-614 -615 0
-614 -616 0
-614 -617 0
-614 -618 0
-614 -619 0
-615 -616 0
-615 -617 0
-615 -618 0
-615 -619 0
-616 -617 0
-616 -618 0
-616 -619 0
-617 -618 0
-617 -619 0
-618 -619 0
620 621 622 623 624 625 0
-620 -621 0
-620 -622 0
-620 -623 0
-620 -624 0
-620 -625 0
-621 -622 0
-621 -623 0
-621 -624 0
-621 -625 0
-622 -623 0
-622 -624 0
-622 -625 0
-623 -624 0
-623 -625 0
-624 -625 0
626 627 628 629 630 631 0
-626 -627 0
-626 -628 0
-626 -629 0
-626 -630 0
-626 -631 0
-627 -628 0
-627 -629 0
-627 -630 0
-627 -631 0
-628 -629 0
-628 -630 0
-628 -631 0
-629 -630 0
-629 -631 0
-630 -631 0
632 633 634 635 636 637 638 639 640 0
-632 -633 0
-632 -634 0
-632 -635 0
-632 -636 0
-632 -637 0
-632 -638 0
-632 -639 0
-632 -640 0
-633 -634 0
-633 -635 0
-633 -636 0
-633 -637 0
-633 -638 0
-633 -639 0
-633 -640 0
-634 -635 0
-634 -636 0
-634 -637 0
-634 -638 0
-634 -639 0
-634 -640 0
-635 -636 0
-635 -637 0
-635 -638 0
-635 -639 0
-635 -640 0
-636 -637 0
-636 -638 0
-636 -639 0
-636 -640 0
-637 -638 0
-637 -639 0
-637 -640 0
-638 -639 0
-638 -640 0
-639 -640 0
641 642 643 644 645 646 0
-641 -642 0
-641 -643 0
-641 -644 0
-641 -645 0
-641 -646 0
-642 -643 0
-642 -644 0
-642 -645 0
-642 -646 0
-643 -644 0
-643 -645 0
-643 -646 0
-644 -645 0
-644 -646 0
-645 -646 0
647 648 649 650 651 652 653 0
-647 -648 0
-647 -649 0
-647 -650 0
-647 -651 0
-647 -652 0
-647 -653 0
-648 -649 0
-648 -650 0
-648 -651 0
-648 -652 0
-648 -653 0
-649 -650 0
-649 -651 0
-649 -652 0
-649 -653 0
-650 -651 0
-650 -652 0
-650 -653 0
-651 -652 0
-651 -653 0
-652 -653 0
654 655 656 657 658 659 660 0
-654 -655 0
-654 -656 0
-654 -657 0
-654 -658 0
-654 -659 0
-654 -660 0
-655 -656 0
-655 -657 0
-655 -658 0
-655 -659 0
-655 -660 0
-656 -657 0
-656 -658 0
-656 -659 0
-656 -660 0
-657 -658 0
-657 -659 0
-657 -660 0
-658 -659 0
-658 -660 0
-659 -660 0
661 662 663 664 665 666 667 0
-661 -662 0
-661 -663 0
-661 -664 0
-661 -665 0
-661 -666 0
-661 -667 0
-662 -663 0
-662 -664 0
-662 -665 0
-662 -666 0
-662 -667 0
-663 -664 0
-663 -665 0
-663 -666 0
-663 -667 0
-664 -665 0
-664 -666 0
-664 -667 0
-665 -666 0
-665 -667 0
-666 -667 0
668 669 670 671 672 673 0
-668 -669 0
-668 -670 0
-668 -671 0
-668 -672 0
-668 -673 0
-669 -670 0
-669 -671 0
-669 -672 0
-669 -673 0
-670 -671 0
-670 -672 0
-670 -673 0
-671 -672 0
-671 -673 0
-672 -673 0
674 675 676 677 678 679 680 0
-674 -675 0
-674 -676 0
-674 -677 0
-674 -678 0
-674 -679 0
-674 -680 0
-675 -676 0
-675 -677 0
-675 -678 0
-675 -679 0
-675 -680 0
-676 -677 0
-676 -678 0
-676 -679 0
-676 -680 0
-677 -678 0
-677 -679 0
-677 -680 0
-678 -679 0
-678 -680 0
-679 -680 0
681 682 683 684 685 686 0
-681 -682 0
-681 -683 0
-681 -684 0
-681 -685 0
-681 -686 0
-682 -683 0
-682 -684 0
-682 -685 0
-682 -686 0
-683 -684 0
-683 -685 0
-683 -686 0
-684 -685 0
-684 -686 0
-685 -686 0
687 688 689 690 691 692 693 694 695 0
-687 -688 0
-687 -689 0
-687 -690 0
-687 -691 0
-687 -692 0
-687 -693 0
-687 -694 0
-687 -695 0
-688 -689 0
-688 -690 0
-688 -691 0
-688 -692 0
-688 -693 0
-688 -694 0
-688 -695 0
-689 -690 0
-689 -691 0
-689 -692 0
-689 -693 0
-689 -694 0
-689 -695 0
-690 -691 0
-690 -692 0
-690 -693 0
-690 -694 0
-690 -695 0
-691 -692 0
-691 -693 0
-691 -694 0
-691 -695 0
-692 -693 0
-692 -694 0
-692 -695 0
-693 -694 0
-693 -695 0
-694 -695 0
696 697 698 699 700 701 0
-696 -697 0
-696 -698 0
-696 -699 0
-696 -700 0
-696 -701 0
-697 -698 0
-697 -699 0
-697 -700 0
-697 -701 0
-698 -699 0
-698 -700 0
-698 -701 0
-699 -700 0
-699 -701 0
-700 -701 0
702 703 704 705 706 707 0
-702 -703 0
-702 -704 0
-702 -705 0
-702 -706 0
-702 -707 0
-703 -704 0
-703 -705 0
-703 -706 0
-703 -707 0
-704 -705 0
-704 -706 0
-704 -707 0
-705 -706 0
-705 -707 0
-706 -707 0
708 709 710 711 712 713 714 0
-708 -709 0
-708 -710 0
-708 -711 0
-708 -712 0
-708 -713 0
-708 -714 0
-709 -710 0
-709 -711 0
-709 -712 0
-709 -713 0
-709 -714 0
-710 -711 0
-710 -712 0
-710 -713 0
-710 -714 0
-711 -712 0
-711 -713 0
-711 -714 0
-712 -713 0
-712 -714 0
-713 -714 0
715 716 717 718 719 720 721 0
-715 -716 0
-715 -717 0
-715 -718 0
-715 -719 0
-715 -720 0
-715 -721 0
-716 -717 0
-716 -718 0
-716 -719 0
-716 -720 0
-716 -721 0
-717 -718 0
-717 -719 0
-717 -720 0
-717 -721 0
-718 -719 0
-718 -720 0
-718 -721 0
-719 -720 0
-719 -721 0
-720 -721 0
722 723 724 725 726 727 728 0
-722 -723 0
-722 -724 0
-722 -725 0
-722 -726 0
-722 -727 0
-722 -728 0
-723 -724 0
-723 -725 0
-723 -726 0
-723 -727 0
-723 -728 0
-724 -725 0
-724 -726 0
-724 -727 0
-724 -728 0
-725 -726 0
-725 -727 0
-725 -728 0
-726 -727 0
-726 -728 0
-727 -728 0
729 730 731 732 733 734 0
-729 -730 0
-729 -731 0
-729 -732 0
-729 -733 0
-729 -734 0
-730 -731 0
-730 -732 0
-730 -733 0
-730 -734 0
-731 -732 0
-731 -733 0
-731 -734 0
-732 -733 0
-732 -734 0
-733 -734 0
735 0
736 737 738 739 740 741 742 0
-736 -737 0
-736 -738 0
-736 -739 0
-736 -740 0
-736 -741 0
-736 -742 0
-737 -738 0
-737 -739 0
-737 -740 0
-737 -741 0
-737 -742 0
-738 -739 0
-738 -740 0
-738 -741 0
-738 -742 0
-739 -740 0
-739 -741 0
-739 -742 0
-740 -741 0
-740 -742 0
-741 -742 0
743 744 745 746 747 748 0
-743 -744 0
-743 -745 0
-743 -746 0
-743 -747 0
-743 -748 0
-744 -745 0
-744 -746 0
-744 -747 0
-744 -748 0
-745 -746 0
-745 -747 0
-745 -748 0
-746 -747 0
-746 -748 0
-747 -748 0
749 750 751 752 753 754 0
-749 -750 0
-749 -751 0
-749 -752 0
-749 -753 0
-749 -754 0
-750 -751 0
-750 -752 0
-750 -753 0
-750 -754 0
-751 -752 0
-751 -753 0
-751 -754 0
-752 -753 0
-752 -754 0
-753 -754 0
755 756 757 758 759 760 0
-755 -756 0
-755 -757 0
-755 -758 0
-755 -759 0
-755 -760 0
-756 -757 0
-756 -758 0
-756 -759 0
-756 -760 0
-757 -758 0
-757 -759 0
-757 -760 0
-758 -759 0
-758 -760 0
-759 -760 0
761 762 763 764 765 766 767 0
-761 -762 0
-761 -763 0
-761 -764 0
-761 -765 0
-761 -766 0
-761 -767 0
-762 -763 0
-762 -764 0
-762 -765 0
-762 -766 0
-762 -767 0
-763 -764 0
-763 -765 0
-763 -766 0
-763 -767 0
-764 -765 0
-764 -766 0
-764 -767 0
-765 -766 0
-765 -767 0
-766 -767 0
768 769 770 771 772 773 774 0
-768 -769 0
-768 -770 0
-768 -771 0
-768 -772 0
-768 -773 0
-768 -774 0
-769 -770 0
-769 -771 0
-769 -772 0
-769 -773 0
-769 -774 0
-770 -771 0
-770 -772 0
-770 -773 0
-770 -774 0
-771 -772 0
-771 -773 0
-771 -774 0
-772 -773 0
-772 -774 0
-773 -774 0
775 776 777 778 779 780 0
-775 -776 0
-775 -777 0
-775 -778 0
-775 -779 0
-775 -780 0
-776 -777 0
-776 -778 0
-776 -779 0
-776 -780 0
-777 -778 0
-777 -779 0
-777 -780 0
-778 -779 0
-778 -780 0
-779 -780 0
781 782 783 784 785 786 0
-781 -782 0
-781 -783 0
-781 -784 0
-781 -785 0
-781 -786 0
-782 -783 0
-782 -784 0
-782 -785 0
-782 -786 0
-783 -784 0
-783 -785 0
-783 -786 0
-784 -785 0
-784 -786 0
-785 -786 0
787 788 789 790 791 792 0
-787 -788 0
-787 -789 0
-787 -790 0
-787 -791 0
-787 -792 0
-788 -789 0
-788 -790 0
-788 -791 0
-788 -792 0
-789 -790 0
-789 -791 0
-789 -792 0
-790 -791 0
-790 -792 0
-791 -792 0
793 794 795 796 797 798 0
-793 -794 0
-793 -795 0
-793 -796 0
-793 -797 0
-793 -798 0
-794 -795 0
-794 -796 0
-794 -797 0
-794 -798 0
-795 -796 0
-795 -797 0
-795 -798 0
-796 -797 0
-796 -798 0
-797 -798 0
799 800 801 802 803 804 805 0
-799 -800 0
-799 -801 0
-799 -802 0
-799 -803 0
-799 -804 0
-799 -805 0
-800 -801 0
-800 -802 0
-800 -803 0
-800 -804 0
-800 -805 0
-801 -802 0
-801 -803 0
-801 -804 0
-801 -805 0
-802 -803 0
-802 -804 0
-802 -805 0
-803 -804 0
-803 -805 0
-804 -805 0
806 807 808 809 810 811 812 813 814 0
-806 -807 0
-806 -808 0
-806 -809 0
-806 -810 0
-806 -811 0
-806 -812 0
-806 -813 0
-806 -814 0
-807 -808 0
-807 -809 0
-807 -810 0
-807 -811 0
-807 -812 0
-807 -813 0
-807 -814 0
-808 -809 0
-808 -810 0
-808 -811 0
-808 -812 0
-808 -813 0
-808 -814 0
-809 -810 0
-809 -811 0
-809 -812 0
-809 -813 0
-809 -814 0
-810 -811 0
-810 -812 0
-810 -813 0
-810 -814 0
-811 -812 0
-811 -813 0
-811 -814 0
-812 -813 0
-812 -814 0
-813 -814 0
815 816 817 818 819 820 0
-815 -816 0
-815 -817 0
-815 -818 0
-815 -819 0
-815 -820 0
-816 -817 0
-816 -818 0
-816 -819 0
-816 -820 0
-817 -818 0
-817 -819 0
-817 -820 0
-818 -819 0
-818 -820 0
-819 -820 0
821 822 823 824 825 826 827 828 829 830 0
-821 -822 0
-821 -823 0
-821 -824 0
-821 -825 0
-821 -826 0
-821 -827 0
-821 -828 0
-821 -829 0
-821 -830 0
-822 -823 0
-822 -824 0
-822 -825 0
-822 -826 0
-822 -827 0
-822 -828 0
-822 -829 0
-822 -830 0
-823 -824 0
-823 -825 0
-823 -826 0
-823 -827 0
-823 -828 0
-823 -829 0
-823 -830 0
-824 -825 0
-824 -826 0
-824 -827 0
-824 -828 0
-824 -829 0
-824 -830 0
-825 -826 0
-825 -827 0
-825 -828 0
-825 -829 0
-825 -830 0
-826 -827 0
-826 -828 0
-826 -829 0
-826 -830 0
-827 -828 0
-827 -829 0
-827 -830 0
-828 -829 0
-828 -830 0
-829 -830 0
831 832 833 834 835 836 837 0
-831 -832 0
-831 -833 0
-831 -834 0
-831 -835 0
-831 -836 0
-831 -837 0
-832 -833 0
-832 -834 0
-832 -835 0
-832 -836 0
-832 -837 0
-833 -834 0
-833 -835 0
-833 -836 0
-833 -837 0
-834 -835 0
-834 -836 0
-834 -837 0
-835 -836 0
-835 -837 0
-836 -837 0
838 839 840 841 842 843 0
-838 -839 0
-838 -840 0
-838 -841 0
-838 -842 0
-838 -843 0
-839 -840 0
-839 -841 0
-839 -842 0
-839 -843 0
-840 -841 0
-840 -842 0
-840 -843 0
-841 -842 0
-841 -843 0
-842 -843 0
844 845 846 847 848 849 0
-844 -845 0
-844 -846 0
-844 -847 0
-844 -848 0
-844 -849 0
-845 -846 0
-845 -847 0
-845 -848 0
-845 -849 0
-846 -847 0
-846 -848 0
-846 -849 0
-847 -848 0
-847 -849 0
-848 -849 0
850 851 852 853 854 855 856 857 858 0
-850 -851 0
-850 -852 0
-850 -853 0
-850 -854 0
-850 -855 0
-850 -856 0
-850 -857 0
-850 -858 0
-851 -852 0
-851 -853 0
-851 -854 0
-851 -855 0
-851 -856 0
-851 -857 0
-851 -858 0
-852 -853 0
-852 -854 0
-852 -855 0
-852 -856 0
-852 -857 0
-852 -858 0
-853 -854 0
-853 -855 0
-853 -856 0
-853 -857 0
-853 -858 0
-854 -855 0
-854 -856 0
-854 -857 0
-854 -858 0
-855 -856 0
-855 -857 0
-855 -858 0
-856 -857 0
-856 -858 0
-857 -858 0
859 860 861 862 863 864 0
-859 -860 0
-859 -861 0
-859 -862 0
-859 -863 0
-859 -864 0
-860 -861 0
-860 -862 0
-860 -863 0
-860 -864 0
-861 -862 0
-861 -863 0
-861 -864 0
-862 -863 0
-862 -864 0
-863 -864 0
865 866 867 868 869 870 871 0
-865 -866 0
-865 -867 0
-865 -868 0
-865 -869 0
-865 -870 0
-865 -871 0
-866 -867 0
-866 -868 0
-866 -869 0
-866 -870 0
-866 -871 0
-867 -868 0
-867 -869 0
-867 -870 0
-867 -871 0
-868 -869 0
-868 -870 0
-868 -871 0
-869 -870 0
-869 -871 0
-870 -871 0
872 873 874 875 876 877 878 0
-872 -873 0
-872 -874 0
-872 -875 0
-872 -876 0
-872 -877 0
-872 -878 0
-873 -874 0
-873 -875 0
-873 -876 0
-873 -877 0
-873 -878 0
-874 -875 0
-874 -876 0
-874 -877 0
-874 -878 0
-875 -876 0
-875 -877 0
-875 -878 0
-876 -877 0
-876 -878 0
-877 -878 0
879 880 881 882 883 884 885 0
-879 -880 0
-879 -881 0
-879 -882 0
-879 -883 0
-879 -884 0
-879 -885 0
-880 -881 0
-880 -882 0
-880 -883 0
-880 -884 0
-880 -885 0
-881 -882 0
-881 -883 0
-881 -884 0
-881 -885 0
-882 -883 0
-882 -884 0
-882 -885 0
-883 -884 0
-883 -885 0
-884 -885 0
886 887 888 889 890 891 0
-886 -887 0
-886 -888 0
-886 -889 0
-886 -890 0
-886 -891 0
-887 -888 0
-887 -889 0
-887 -890 0
-887 -891 0
-888 -889 0
-888 -890 0
-888 -891 0
-889 -890 0
-889 -891 0
-890 -891 0
892 893 894 895 896 897 0
-892 -893 0
-892 -894 0
-892 -895 0
-892 -896 0
-892 -897 0
-893 -894 0
-893 -895 0
-893 -896 0
-893 -897 0
-894 -895 0
-894 -896 0
-894 -897 0
-895 -896 0
-895 -897 0
-896 -897 0
898 899 900 901 902 903 904 0
-898 -899 0
-898 -900 0
-898 -901 0
-898 -902 0
-898 -903 0
-898 -904 0
-899 -900 0
-899 -901 0
-899 -902 0
-899 -903 0
-899 -904 0
-900 -901 0
-900 -902 0
-900 -903 0
-900 -904 0
-901 -902 0
-901 -903 0
-901 -904 0
-902 -903 0
-902 -904 0
-903 -904 0
905 906 907 908 909 910 911 912 913 914 0
-905 -906 0
-905 -907 0
-905 -908 0
-905 -909 0
-905 -910 0
-905 -911 0
-905 -912 0
-905 -913 0
-905 -914 0
-906 -907 0
-906 -908 0
-906 -909 0
-906 -910 0
-906 -911 0
-906 -912 0
-906 -913 0
-906 -914 0
-907 -908 0
-907 -909 0
-907 -910 0
-907 -911 0
-907 -912 0
-907 -913 0
-907 -914 0
-908 -909 0
-908 -910 0
-908 -911 0
-908 -912 0
-908 -913 0
-908 -914 0
-909 -910 0
-909 -911 0
-909 -912 0
-909 -913 0
-909 -914 0
-910 -911 0
-910 -912 0
-910 -913 0
-910 -914 0
-911 -912 0
-911 -913 0
-911 -914 0
-912 -913 0
-912 -914 0
-913 -914 0
915 916 917 918 919 920 921 0
-915 -916 0
-915 -917 0
-915 -918 0
-915 -919 0
-915 -920 0
-915 -921 0
-916 -917 0
-916 -918 0
-916 -919 0
-916 -920 0
-916 -921 0
-917 -918 0
-917 -919 0
-917 -920 0
-917 -921 0
-918 -919 0
-918 -920 0
-918 -921 0
-919 -920 0
-919 -921 0
-920 -921 0
922 923 924 925 926 927 928 0
-922 -923 0
-922 -924 0
-922 -925 0
-922 -926 0
-922 -927 0
-922 -928 0
-923 -924 0
-923 -925 0
-923 -926 0
-923 -927 0
-923 -928 0
-924 -925 0
-924 -926 0
-924 -927 0
-924 -928 0
-925 -926 0
-925 -927 0
-925 -928 0
-926 -927 0
-926 -928 0
-927 -928 0
929 930 931 932 933 934 935 0
-929 -930 0
-929 -931 0
-929 -932 0
-929 -933 0
-929 -934 0
-929 -935 0
-930 -931 0
-930 -932 0
-930 -933 0
-930 -934 0
-930 -935 0
-931 -932 0
-931 -933 0
-931 -934 0
-931 -935 0
-932 -933 0
-932 -934 0
-932 -935 0
-933 -934 0
-933 -935 0
-934 -935 0
936 937 938 939 940 941 942 943 944 0
-936 -937 0
-936 -938 0
-936 -939 0
-936 -940 0
-936 -941 0
-936 -942 0
-936 -943 0
-936 -944 0
-937 -938 0
-937 -939 0
-937 -940 0
-937 -941 0
-937 -942 0
-937 -943 0
-937 -944 0
-938 -939 0
-938 -940 0
-938 -941 0
-938 -942 0
-938 -943 0
-938 -944 0
-939 -940 0
-939 -941 0
-939 -942 0
-939 -943 0
-939 -944 0
-940 -941 0
-940 -942 0
-940 -943 0
-940 -944 0
-941 -942 0
-941 -943 0
-941 -944 0
-942 -943 0
-942 -944 0
-943 -944 0
945 946 947 948 949 950 0
-945 -946 0
-945 -947 0
-945 -948 0
-945 -949 0
-945 -950 0
-946 -947 0
-946 -948 0
-946 -949 0
-946 -950 0
-947 -948 0
-947 -949 0
-947 -950 0
-948 -949 0
-948 -950 0
-949 -950 0
951 952 953 954 955 956 957 0
-951 -952 0
-951 -953 0
-951 -954 0
-951 -955 0
-951 -956 0
-951 -957 0
-952 -953 0
-952 -954 0
-952 -955 0
-952 -956 0
-952 -957 0
-953 -954 0
-953 -955 0
-953 -956 0
-953 -957 0
-954 -955 0
-954 -956 0
-954 -957 0
-955 -956 0
-955 -957 0
-956 -957 0
958 959 960 961 962 963 964 965 966 0
-958 -959 0
-958 -960 0
-958 -961 0
-958 -962 0
-958 -963 0
-958 -964 0
-958 -965 0
-958 -966 0
-959 -960 0
-959 -961 0
-959 -962 0
-959 -963 0
-959 -964 0
-959 -965 0
-959 -966 0
-960 -961 0
-960 -962 0
-960 -963 0
-960 -964 0
-960 -965 0
-960 -966 0
-961 -962 0
-961 -963 0
-961 -964 0
-961 -965 0
-961 -966 0
-962 -963 0
-962 -964 0
-962 -965 0
-962 -966 0
-963 -964 0
-963 -965 0
-963 -966 0
-964 -965 0
-964 -966 0
-965 -966 0
967 968 969 970 971 972 0
-967 -968 0
-967 -969 0
-967 -970 0
-967 -971 0
-967 -972 0
-968 -969 0
-968 -970 0
-968 -971 0
-968 -972 0
-969 -970 0
-969 -971 0
-969 -972 0
-970 -971 0
-970 -972 0
-971 -972 0
973 974 975 976 977 978 979 0
-973 -974 0
-973 -975 0
-973 -976 0
-973 -977 0
-973 -978 0
-973 -979 0
-974 -975 0
-974 -976 0
-974 -977 0
-974 -978 0
-974 -979 0
-975 -976 0
-975 -977 0
-975 -978 0
-975 -979 0
-976 -977 0
-976 -978 0
-976 -979 0
-977 -978 0
-977 -979 0
-978 -979 0
980 981 982 983 984 985 986 0
-980 -981 0
-980 -982 0
-980 -983 0
-980 -984 0
-980 -985 0
-980 -986 0
-981 -982 0
-981 -983 0
-981 -984 0
-981 -985 0
-981 -986 0
-982 -983 0
-982 -984 0
-982 -985 0
-982 -986 0
-983 -984 0
-983 -985 0
-983 -986 0
-984 -985 0
-984 -986 0
-985 -986 0
987 988 989 990 991 992 993 0
-987 -988 0
-987 -989 0
-987 -990 0
-987 -991 0
-987 -992 0
-987 -993 0
-988 -989 0
-988 -990 0
-988 -991 0
-988 -992 0
-988 -993 0
-989 -990 0
-989 -991 0
-989 -992 0
-989 -993 0
-990 -991 0
-990 -992 0
-990 -993 0
-991 -992 0
-991 -993 0
-992 -993 0
994 995 996 997 998 999 1000 0
-994 -995 0
-994 -996 0
-994 -997 0
-994 -998 0
-994 -999 0
-994 -1000 0
-995 -996 0
-995 -997 0
-995 -998 0
-995 -999 0
-995 -1000 0
-996 -997 0
-996 -998 0
-996 -999 0
-996 -1000 0
-997 -998 0
-997 -999 0
-997 -1000 0
-998 -999 0
-998 -1000 0
-999 -1000 0
1001 1002 1003 1004 1005 1006 1007 0
-1001 -1002 0
-1001 -1003 0
-1001 -1004 0
-1001 -1005 0
-1001 -1006 0
-1001 -1007 0
-1002 -1003 0
-1002 -1004 0
-1002 -1005 0
-1002 -1006 0
-1002 -1007 0
-1003 -1004 0
-1003 -1005 0
-1003 -1006 0
-1003 -1007 0
-1004 -1005 0
-1004 -1006 0
-1004 -1007 0
-1005 -1006 0
-1005 -1007 0
-1006 -1007 0
1008 1009 1010 1011 1012 1013 1014 0
-1008 -1009 0
-1008 -1010 0
-1008 -1011 0
-1008 -1012 0
-1008 -1013 0
-1008 -1014 0
-1009 -1010 0
-1009 -1011 0
-1009 -1012 0
-1009 -1013 0
-1009 -1014 0
-1010 -1011 0
-1010 -1012 0
-1010 -1013 0
-1010 -1014 0
-1011 -1012 0
-1011 -1013 0
-1011 -1014 0
-1012 -1013 0
-1012 -1014 0
-1013 -1014 0
1015 1016 1017 1018 1019 1020 0
-1015 -1016 0
-1015 -1017 0
-1015 -1018 0
-1015 -1019 0
-1015 -1020 0
-1016 -1017 0
-1016 -1018 0
-1016 -1019 0
-1016 -1020 0
-1017 -1018 0
-1017 -1019 0
-1017 -1020 0
-1018 -1019 0
-1018 -1020 0
-1019 -1020 0
1021 1022 1023 1024 1025 1026 1027 0
-1021 -1022 0
-1021 -1023 0
-1021 -1024 0
-1021 -1025 0
-1021 -1026 0
-1021 -1027 0
-1022 -1023 0
-1022 -1024 0
-1022 -1025 0
-1022 -1026 0
-1022 -1027 0
-1023 -1024 0
-1023 -1025 0
-1023 -1026 0
-1023 -1027 0
-1024 -1025 0
-1024 -1026 0
-1024 -1027 0
-1025 -1026 0
-1025 -1027 0
-1026 -1027 0
1028 1029 1030 1031 1032 1033 1034 0
-1028 -1029 0
-1028 -1030 0
-1028 -1031 0
-1028 -1032 0
-1028 -1033 0
-1028 -1034 0
-1029 -1030 0
-1029 -1031 0
-1029 -1032 0
-1029 -1033 0
-1029 -1034 0
-1030 -1031 0
-1030 -1032 0
-1030 -1033 0
-1030 -1034 0
-1031 -1032 0
-1031 -1033 0
-1031 -1034 0
-1032 -1033 0
-1032 -1034 0
-1033 -1034 0
1035 1036 1037 1038 1039 1040 0
-1035 -1036 0
-1035 -1037 0
-1035 -1038 0
-1035 -1039 0
-1035 -1040 0
-1036 -1037 0
-1036 -1038 0
-1036 -1039 0
-1036 -1040 0
-1037 -1038 0
-1037 -1039 0
-1037 -1040 0
-1038 -1039 0
-1038 -1040 0
-1039 -1040 0
1041 1042 1043 1044 1045 1046 1047 1048 1049 0
-1041 -1042 0
-1041 -1043 0
-1041 -1044 0
-1041 -1045 0
-1041 -1046 0
-1041 -1047 0
-1041 -1048 0
-1041 -1049 0
-1042 -1043 0
-1042 -1044 0
-1042 -1045 0
-1042 -1046 0
-1042 -1047 0
-1042 -1048 0
-1042 -1049 0
-1043 -1044 0
-1043 -1045 0
-1043 -1046 0
-1043 -1047 0
-1043 -1048 0
-1043 -1049 0
-1044 -1045 0
-1044 -1046 0
-1044 -1047 0
-1044 -1048 0
-1044 -1049 0
-1045 -1046 0
-1045 -1047 0
-1045 -1048 0
-1045 -1049 0
-1046 -1047 0
-1046 -1048 0
-1046 -1049 0
-1047 -1048 0
-1047 -1049 0
-1048 -1049 0
1050 1051 1052 1053 1054 1055 0
-1050 -1051 0
-1050 -1052 0
-1050 -1053 0
-1050 -1054 0
-1050 -1055 0
-1051 -1052 0
-1051 -1053 0
-1051 -1054 0
-1051 -1055 0
-1052 -1053 0
-1052 -1054 0
-1052 -1055 0
-1053 -1054 0
-1053 -1055 0
-1054 -1055 0
1056 1057 1058 1059 1060 1061 0
-1056 -1057 0
-1056 -1058 0
-1056 -1059 0
-1056 -1060 0
-1056 -1061 0
-1057 -1058 0
-1057 -1059 0
-1057 -1060 0
-1057 -1061 0
-1058 -1059 0
-1058 -1060 0
-1058 -1061 0
-1059 -1060 0
-1059 -1061 0
-1060 -1061 0
1062 1063 1064 1065 1066 1067 1068 1069 1070 0
-1062 -1063 0
-1062 -1064 0
-1062 -1065 0
-1062 -1066 0
-1062 -1067 0
-1062 -1068 0
-1062 -1069 0
-1062 -1070 0
-1063 -1064 0
-1063 -1065 0
-1063 -1066 0
-1063 -1067 0
-1063 -1068 0
-1063 -1069 0
-1063 -1070 0
-1064 -1065 0
-1064 -1066 0
-1064 -1067 0
-1064 -1068 0
-1064 -1069 0
-1064 -1070 0
-1065 -1066 0
-1065 -1067 0
-1065 -1068 0
-1065 -1069 0
-1065 -1070 0
-1066 -1067 0
-1066 -1068 0
-1066 -1069 0
-1066 -1070 0
-1067 -1068 0
-1067 -1069 0
-1067 -1070 0
-1068 -1069 0
-1068 -1070 0
-1069 -1070 0
1071 1072 1073 1074 1075 1076 1077 0
-1071 -1072 0
-1071 -1073 0
-1071 -1074 0
-1071 -1075 0
-1071 -1076 0
-1071 -1077 0
-1072 -1073 0
-1072 -1074 0
-1072 -1075 0
-1072 -1076 0
-1072 -1077 0
-1073 -1074 0
-1073 -1075 0
-1073 -1076 0
-1073 -1077 0
-1074 -1075 0
-1074 -1076 0
-1074 -1077 0
-1075 -1076 0
-1075 -1077 0
-1076 -1077 0
1078 1079 1080 1081 1082 1083 1084 1085 1086 0
-1078 -1079 0
-1078 -1080 0
-1078 -1081 0
-1078 -1082 0
-1078 -1083 0
-1078 -1084 0
-1078 -1085 0
-1078 -1086 0
-1079 -1080 0
-1079 -1081 0
-1079 -1082 0
-1079 -1083 0
-1079 -1084 0
-1079 -1085 0
-1079 -1086 0
-1080 -1081 0
-1080 -1082 0
-1080 -1083 0
-1080 -1084 0
-1080 -1085 0
-1080 -1086 0
-1081 -1082 0
-1081 -1083 0
-1081 -1084 0
-1081 -1085 0
-1081 -1086 0
-1082 -1083 0
-1082 -1084 0
-1082 -1085 0
-1082 -1086 0
-1083 -1084 0
-1083 -1085 0
-1083 -1086 0
-1084 -1085 0
-1084 -1086 0
-1085 -1086 0
1087 1088 1089 1090 1091 1092 0
-1087 -1088 0
-1087 -1089 0
-1087 -1090 0
-1087 -1091 0
-1087 -1092 0
-1088 -1089 0
-1088 -1090 0
-1088 -1091 0
-1088 -1092 0
-1089 -1090 0
-1089 -1091 0
-1089 -1092 0
-1090 -1091 0
-1090 -1092 0
-1091 -1092 0
1093 1094 1095 1096 1097 1098 0
-1093 -1094 0
-1093 -1095 0
-1093 -1096 0
-1093 -1097 0
-1093 -1098 0
-1094 -1095 0
-1094 -1096 0
-1094 -1097 0
-1094 -1098 0
-1095 -1096 0
-1095 -1097 0
-1095 -1098 0
-1096 -1097 0
-1096 -1098 0
-1097 -1098 0
1099 1100 1101 1102 1103 1104 0
-1099 -1100 0
-1099 -1101 0
-1099 -1102 0
-1099 -1103 0
-1099 -1104 0
-1100 -1101 0
-1100 -1102 0
-1100 -1103 0
-1100 -1104 0
-1101 -1102 0
-1101 -1103 0
-1101 -1104 0
-1102 -1103 0
-1102 -1104 0
-1103 -1104 0
1105 1106 1107 1108 1109 1110 0
-1105 -1106 0
-1105 -1107 0
-1105 -1108 0
-1105 -1109 0
-1105 -1110 0
-1106 -1107 0
-1106 -1108 0
-1106 -1109 0
-1106 -1110 0
-1107 -1108 0
-1107 -1109 0
-1107 -1110 0
-1108 -1109 0
-1108 -1110 0
-1109 -1110 0
1111 1112 1113 1114 1115 1116 0
-1111 -1112 0
-1111 -1113 0
-1111 -1114 0
-1111 -1115 0
-1111 -1116 0
-1112 -1113 0
-1112 -1114 0
-1112 -1115 0
-1112 -1116 0
-1113 -1114 0
-1113 -1115 0
-1113 -1116 0
-1114 -1115 0
-1114 -1116 0
-1115 -1116 0
1117 1118 1119 1120 1121 1122 0
-1117 -1118 0
-1117 -1119 0
-1117 -1120 0
-1117 -1121 0
-1117 -1122 0
-1118 -1119 0
-1118 -1120 0
-1118 -1121 0
-1118 -1122 0
-1119 -1120 0
-1119 -1121 0
-1119 -1122 0
-1120 -1121 0
-1120 -1122 0
-1121 -1122 0
1123 1124 1125 1126 1127 1128 0
-1123 -1124 0
-1123 -1125 0
-1123 -1126 0
-1123 -1127 0
-1123 -1128 0
-1124 -1125 0
-1124 -1126 0
-1124 -1127 0
-1124 -1128 0
-1125 -1126 0
-1125 -1127 0
-1125 -1128 0
-1126 -1127 0
-1126 -1128 0
-1127 -1128 0
1129 1130 1131 1132 1133 1134 0
-1129 -1130 0
-1129 -1131 0
-1129 -1132 0
-1129 -1133 0
-1129 -1134 0
-1130 -1131 0
-1130 -1132 0
-1130 -1133 0
-1130 -1134 0
-1131 -1132 0
-1131 -1133 0
-1131 -1134 0
-1132 -1133 0
-1132 -1134 0
-1133 -1134 0
1135 1136 1137 1138 1139 1140 0
-1135 -1136 0
-1135 -1137 0
-1135 -1138 0
-1135 -1139 0
-1135 -1140 0
-1136 -1137 0
-1136 -1138 0
-1136 -1139 0
-1136 -1140 0
-1137 -1138 0
-1137 -1139 0
-1137 -1140 0
-1138 -1139 0
-1138 -1140 0
-1139 -1140 0
1141 1142 1143 1144 1145 1146 0
-1141 -1142 0
-1141 -1143 0
-1141 -1144 0
-1141 -1145 0
-1141 -1146 0
-1142 -1143 0
-1142 -1144 0
-1142 -1145 0
-1142 -1146 0
-1143 -1144 0
-1143 -1145 0
-1143 -1146 0
-1144 -1145 0
-1144 -1146 0
-1145 -1146 0
1147 1148 1149 1150 1151 1152 1153 0
-1147 -1148 0
-1147 -1149 0
-1147 -1150 0
-1147 -1151 0
-1147 -1152 0
-1147 -1153 0
-1148 -1149 0
-1148 -1150 0
-1148 -1151 0
-1148 -1152 0
-1148 -1153 0
-1149 -1150 0
-1149 -1151 0
-1149 -1152 0
-1149 -1153 0
-1150 -1151 0
-1150 -1152 0
-1150 -1153 0
-1151 -1152 0
-1151 -1153 0
-1152 -1153 0
1154 1155 1156 1157 1158 1159 1160 0
-1154 -1155 0
-1154 -1156 0
-1154 -1157 0
-1154 -1158 0
-1154 -1159 0
-1154 -1160 0
-1155 -1156 0
-1155 -1157 0
-1155 -1158 0
-1155 -1159 0
-1155 -1160 0
-1156 -1157 0
-1156 -1158 0
-1156 -1159 0
-1156 -1160 0
-1157 -1158 0
-1157 -1159 0
-1157 -1160 0
-1158 -1159 0
-1158 -1160 0
-1159 -1160 0
1161 1162 1163 1164 1165 1166 0
-1161 -1162 0
-1161 -1163 0
-1161 -1164 0
-1161 -1165 0
-1161 -1166 0
-1162 -1163 0
-1162 -1164 0
-1162 -1165 0
-1162 -1166 0
-1163 -1164 0
-1163 -1165 0
-1163 -1166 0
-1164 -1165 0
-1164 -1166 0
-1165 -1166 0
1167 1168 1169 1170 1171 1172 0
-1167 -1168 0
-1167 -1169 0
-1167 -1170 0
-1167 -1171 0
-1167 -1172 0
-1168 -1169 0
-1168 -1170 0
-1168 -1171 0
-1168 -1172 0
-1169 -1170 0
-1169 -1171 0
-1169 -1172 0
-1170 -1171 0
-1170 -1172 0
-1171 -1172 0
1173 1174 1175 1176 1177 1178 0
-1173 -1174 0
-1173 -1175 0
-1173 -1176 0
-1173 -1177 0
-1173 -1178 0
-1174 -1175 0
-1174 -1176 0
-1174 -1177 0
-1174 -1178 0
-1175 -1176 0
-1175 -1177 0
-1175 -1178 0
-1176 -1177 0
-1176 -1178 0
-1177 -1178 0
1179 1180 1181 1182 1183 1184 1185 0
-1179 -1180 0
-1179 -1181 0
-1179 -1182 0
-1179 -1183 0
-1179 -1184 0
-1179 -1185 0
-1180 -1181 0
-1180 -1182 0
-1180 -1183 0
-1180 -1184 0
-1180 -1185 0
-1181 -1182 0
-1181 -1183 0
-1181 -1184 0
-1181 -1185 0
-1182 -1183 0
-1182 -1184 0
-1182 -1185 0
-1183 -1184 0
-1183 -1185 0
-1184 -1185 0
1186 1187 1188 1189 1190 1191 1192 0
-1186 -1187 0
-1186 -1188 0
-1186 -1189 0
-1186 -1190 0
-1186 -1191 0
-1186 -1192 0
-1187 -1188 0
-1187 -1189 0
-1187 -1190 0
-1187 -1191 0
-1187 -1192 0
-1188 -1189 0
-1188 -1190 0
-1188 -1191 0
-1188 -1192 0
-1189 -1190 0
-1189 -1191 0
-1189 -1192 0
-1190 -1191 0
-1190 -1192 0
-1191 -1192 0
1193 1194 1195 1196 1197 1198 0
-1193 -1194 0
-1193 -1195 0
-1193 -1196 0
-1193 -1197 0
-1193 -1198 0
-1194 -1195 0
-1194 -1196 0
-1194 -1197 0
-1194 -1198 0
-1195 -1196 0
-1195 -1197 0
-1195 -1198 0
-1196 -1197 0
-1196 -1198 0
-1197 -1198 0
1199 1200 1201 1202 1203 1204 0
-1199 -1200 0
-1199 -1201 0
-1199 -1202 0
-1199 -1203 0
-1199 -1204 0
-1200 -1201 0
-1200 -1202 0
-1200 -1203 0
-1200 -1204 0
-1201 -1202 0
-1201 -1203 0
-1201 -1204 0
-1202 -1203 0
-1202 -1204 0
-1203 -1204 0
1205 1206 1207 1208 1209 1210 0
-1205 -1206 0
-1205 -1207 0
-1205 -1208 0
-1205 -1209 0
-1205 -1210 0
-1206 -1207 0
-1206 -1208 0
-1206 -1209 0
-1206 -1210 0
-1207 -1208 0
-1207 -1209 0
-1207 -1210 0
-1208 -1209 0
-1208 -1210 0
-1209 -1210 0
1211 1212 1213 1214 1215 1216 0
-1211 -1212 0
-1211 -1213 0
-1211 -1214 0
-1211 -1215 0
-1211 -1216 0
-1212 -1213 0
-1212 -1214 0
-1212 -1215 0
-1212 -1216 0
-1213 -1214 0
-1213 -1215 0
-1213 -1216 0
-1214 -1215 0
-1214 -1216 0
-1215 -1216 0
1217 1218 1219 1220 1221 1222 0
-1217 -1218 0
-1217 -1219 0
-1217 -1220 0
-1217 -1221 0
-1217 -1222 0
-1218 -1219 0
-1218 -1220 0
-1218 -1221 0
-1218 -1222 0
-1219 -1220 0
-1219 -1221 0
-1219 -1222 0
-1220 -1221 0
-1220 -1222 0
-1221 -1222 0
1223 0
1224 1225 1226 1227 1228 1229 1230 1231 1232 0
-1224 -1225 0
-1224 -1226 0
-1224 -1227 0
-1224 -1228 0
-1224 -1229 0
-1224 -1230 0
-1224 -1231 0
-1224 -1232 0
-1225 -1226 0
-1225 -1227 0
-1225 -1228 0
-1225 -1229 0
-1225 -1230 0
-1225 -1231 0
-1225 -1232 0
-1226 -1227 0
-1226 -1228 0
-1226 -1229 0
-1226 -1230 0
-1226 -1231 0
-1226 -1232 0
-1227 -1228 0
-1227 -1229 0
-1227 -1230 0
-1227 -1231 0
-1227 -1232 0
-1228 -1229 0
-1228 -1230 0
-1228 -1231 0
-1228 -1232 0
-1229 -1230 0
-1229 -1231 0
-1229 -1232 0
-1230 -1231 0
-1230 -1232 0
-1231 -1232 0
1233 1234 1235 1236 1237 1238 1239 0
-1233 -1234 0
-1233 -1235 0
-1233 -1236 0
-1233 -1237 0
-1233 -1238 0
-1233 -1239 0
-1234 -1235 0
-1234 -1236 0
-1234 -1237 0
-1234 -1238 0
-1234 -1239 0
-1235 -1236 0
-1235 -1237 0
-1235 -1238 0
-1235 -1239 0
-1236 -1237 0
-1236 -1238 0
-1236 -1239 0
-1237 -1238 0
-1237 -1239 0
-1238 -1239 0
1240 1241 1242 1243 1244 1245 1246 0
-1240 -1241 0
-1240 -1242 0
-1240 -1243 0
-1240 -1244 0
-1240 -1245 0
-1240 -1246 0
-1241 -1242 0
-1241 -1243 0
-1241 -1244 0
-1241 -1245 0
-1241 -1246 0
-1242 -1243 0
-1242 -1244 0
-1242 -1245 0
-1242 -1246 0
-1243 -1244 0
-1243 -1245 0
-1243 -1246 0
-1244 -1245 0
-1244 -1246 0
-1245 -1246 0
1247 1248 1249 1250 1251 1252 1253 0
-1247 -1248 0
-1247 -1249 0
-1247 -1250 0
-1247 -1251 0
-1247 -1252 0
-1247 -1253 0
-1248 -1249 0
-1248 -1250 0
-1248 -1251 0
-1248 -1252 0
-1248 -1253 0
-1249 -1250 0
-1249 -1251 0
-1249 -1252 0
-1249 -1253 0
-1250 -1251 0
-1250 -1252 0
-1250 -1253 0
-1251 -1252 0
-1251 -1253 0
-1252 -1253 0
1254 1255 1256 1257 1258 1259 1260 0
-1254 -1255 0
-1254 -1256 0
-1254 -1257 0
-1254 -1258 0
-1254 -1259 0
-1254 -1260 0
-1255 -1256 0
-1255 -1257 0
-1255 -1258 0
-1255 -1259 0
-1255 -1260 0
-1256 -1257 0
-1256 -1258 0
-1256 -1259 0
-1256 -1260 0
-1257 -1258 0
-1257 -1259 0
-1257 -1260 0
-1258 -1259 0
-1258 -1260 0
-1259 -1260 0
1261 1262 1263 1264 1265 1266 0
-1261 -1262 0
-1261 -1263 0
-1261 -1264 0
-1261 -1265 0
-1261 -1266 0
-1262 -1263 0
-1262 -1264 0
-1262 -1265 0
-1262 -1266 0
-1263 -1264 0
-1263 -1265 0
-1263 -1266 0
-1264 -1265 0
-1264 -1266 0
-1265 -1266 0
1267 1268 1269 1270 1271 1272 0
-1267 -1268 0
-1267 -1269 0
-1267 -1270 0
-1267 -1271 0
-1267 -1272 0
-1268 -1269 0
-1268 -1270 0
-1268 -1271 0
-1268 -1272 0
-1269 -1270 0
-1269 -1271 0
-1269 -1272 0
-1270 -1271 0
-1270 -1272 0
-1271 -1272 0
1273 1274 1275 1276 1277 1278 1279 0
-1273 -1274 0
-1273 -1275 0
-1273 -1276 0
-1273 -1277 0
-1273 -1278 0
-1273 -1279 0
-1274 -1275 0
-1274 -1276 0
-1274 -1277 0
-1274 -1278 0
-1274 -1279 0
-1275 -1276 0
-1275 -1277 0
-1275 -1278 0
-1275 -1279 0
-1276 -1277 0
-1276 -1278 0
-1276 -1279 0
-1277 -1278 0
-1277 -1279 0
-1278 -1279 0
1280 1281 1282 1283 1284 1285 1286 0
-1280 -1281 0
-1280 -1282 0
-1280 -1283 0
-1280 -1284 0
-1280 -1285 0
-1280 -1286 0
-1281 -1282 0
-1281 -1283 0
-1281 -1284 0
-1281 -1285 0
-1281 -1286 0
-1282 -1283 0
-1282 -1284 0
-1282 -1285 0
-1282 -1286 0
-1283 -1284 0
-1283 -1285 0
-1283 -1286 0
-1284 -1285 0
-1284 -1286 0
-1285 -1286 0
1287 1288 1289 1290 1291 1292 1293 0
-1287 -1288 0
-1287 -1289 0
-1287 -1290 0
-1287 -1291 0
-1287 -1292 0
-1287 -1293 0
-1288 -1289 0
-1288 -1290 0
-1288 -1291 0
-1288 -1292 0
-1288 -1293 0
-1289 -1290 0
-1289 -1291 0
-1289 -1292 0
-1289 -1293 0
-1290 -1291 0
-1290 -1292 0
-1290 -1293 0
-1291 -1292 0
-1291 -1293 0
-1292 -1293 0
1294 1295 1296 1297 1298 1299 1300 0
-1294 -1295 0
-1294 -1296 0
-1294 -1297 0
-1294 -1298 0
-1294 -1299 0
-1294 -1300 0
-1295 -1296 0
-1295 -1297 0
-1295 -1298 0
-1295 -1299 0
-1295 -1300 0
-1296 -1297 0
-1296 -1298 0
-1296 -1299 0
-1296 -1300 0
-1297 -1298 0
-1297 -1299 0
-1297 -1300 0
-1298 -1299 0
-1298 -1300 0
-1299 -1300 0
1301 1302 1303 1304 1305 1306 1307 0
-1301 -1302 0
-1301 -1303 0
-1301 -1304 0
-1301 -1305 0
-1301 -1306 0
-1301 -1307 0
-1302 -1303 0
-1302 -1304 0
-1302 -1305 0
-1302 -1306 0
-1302 -1307 0
-1303 -1304 0
-1303 -1305 0
-1303 -1306 0
-1303 -1307 0
-1304 -1305 0
-1304 -1306 0
-1304 -1307 0
-1305 -1306 0
-1305 -1307 0
-1306 -1307 0
1308 1309 1310 1311 1312 1313 0
-1308 -1309 0
-1308 -1310 0
-1308 -1311 0
-1308 -1312 0
-1308 -1313 0
-1309 -1310 0
-1309 -1311 0
-1309 -1312 0
-1309 -1313 0
-1310 -1311 0
-1310 -1312 0
-1310 -1313 0
-1311 -1312 0
-1311 -1313 0
-1312 -1313 0
1314 1315 1316 1317 1318 1319 0
-1314 -1315 0
-1314 -1316 0
-1314 -1317 0
-1314 -1318 0
-1314 -1319 0
-1315 -1316 0
-1315 -1317 0
-1315 -1318 0
-1315 -1319 0
-1316 -1317 0
-1316 -1318 0
-1316 -1319 0
-1317 -1318 0
-1317 -1319 0
-1318 -1319 0
1320 1321 1322 1323 1324 1325 0
-1320 -1321 0
-1320 -1322 0
-1320 -1323 0
-1320 -1324 0
-1320 -1325 0
-1321 -1322 0
-1321 -1323 0
-1321 -1324 0
-1321 -1325 0
-1322 -1323 0
-1322 -1324 0
-1322 -1325 0
-1323 -1324 0
-1323 -1325 0
-1324 -1325 0
1326 1327 1328 1329 1330 1331 1332 1333 1334 0
-1326 -1327 0
-1326 -1328 0
-1326 -1329 0
-1326 -1330 0
-1326 -1331 0
-1326 -1332 0
-1326 -1333 0
-1326 -1334 0
-1327 -1328 0
-1327 -1329 0
-1327 -1330 0
-1327 -1331 0
-1327 -1332 0
-1327 -1333 0
-1327 -1334 0
-1328 -1329 0
-1328 -1330 0
-1328 -1331 0
-1328 -1332 0
-1328 -1333 0
-1328 -1334 0
-1329 -1330 0
-1329 -1331 0
-1329 -1332 0
-1329 -1333 0
-1329 -1334 0
-1330 -1331 0
-1330 -1332 0
-1330 -1333 0
-1330 -1334 0
-1331 -1332 0
-1331 -1333 0
-1331 -1334 0
-1332 -1333 0
-1332 -1334 0
-1333 -1334 0
1335 1336 1337 1338 1339 1340 1341 0
-1335 -1336 0
-1335 -1337 0
-1335 -1338 0
-1335 -1339 0
-1335 -1340 0
-1335 -1341 0
-1336 -1337 0
-1336 -1338 0
-1336 -1339 0
-1336 -1340 0
-1336 -1341 0
-1337 -1338 0
-1337 -1339 0
-1337 -1340 0
-1337 -1341 0
-1338 -1339 0
-1338 -1340 0
-1338 -1341 0
-1339 -1340 0
-1339 -1341 0
-1340 -1341 0
1342 1343 1344 1345 1346 1347 1348 0
-1342 -1343 0
-1342 -1344 0
-1342 -1345 0
-1342 -1346 0
-1342 -1347 0
-1342 -1348 0
-1343 -1344 0
-1343 -1345 0
-1343 -1346 0
-1343 -1347 0
-1343 -1348 0
-1344 -1345 0
-1344 -1346 0
-1344 -1347 0
-1344 -1348 0
-1345 -1346 0
-1345 -1347 0
-1345 -1348 0
-1346 -1347 0
-1346 -1348 0
-1347 -1348 0
1349 1350 1351 1352 1353 1354 1355 0
-1349 -1350 0
-1349 -1351 0
-1349 -1352 0
-1349 -1353 0
-1349 -1354 0
-1349 -1355 0
-1350 -1351 0
-1350 -1352 0
-1350 -1353 0
-1350 -1354 0
-1350 -1355 0
-1351 -1352 0
-1351 -1353 0
-1351 -1354 0
-1351 -1355 0
-1352 -1353 0
-1352 -1354 0
-1352 -1355 0
-1353 -1354 0
-1353 -1355 0
-1354 -1355 0
1356 1357 1358 1359 1360 1361 1362 0
-1356 -1357 0
-1356 -1358 0
-1356 -1359 0
-1356 -1360 0
-1356 -1361 0
-1356 -1362 0
-1357 -1358 0
-1357 -1359 0
-1357 -1360 0
-1357 -1361 0
-1357 -1362 0
-1358 -1359 0
-1358 -1360 0
-1358 -1361 0
-1358 -1362 0
-1359 -1360 0
-1359 -1361 0
-1359 -1362 0
-1360 -1361 0
-1360 -1362 0
-1361 -1362 0
1363 1364 1365 1366 1367 1368 0
-1363 -1364 0
-1363 -1365 0
-1363 -1366 0
-1363 -1367 0
-1363 -1368 0
-1364 -1365 0
-1364 -1366 0
-1364 -1367 0
-1364 -1368 0
-1365 -1366 0
-1365 -1367 0
-1365 -1368 0
-1366 -1367 0
-1366 -1368 0
-1367 -1368 0
1369 1370 1371 1372 1373 1374 1375 0
-1369 -1370 0
-1369 -1371 0
-1369 -1372 0
-1369 -1373 0
-1369 -1374 0
-1369 -1375 0
-1370 -1371 0
-1370 -1372 0
-1370 -1373 0
-1370 -1374 0
-1370 -1375 0
-1371 -1372 0
-1371 -1373 0
-1371 -1374 0
-1371 -1375 0
-1372 -1373 0
-1372 -1374 0
-1372 -1375 0
-1373 -1374 0
-1373 -1375 0
-1374 -1375 0
1376 1377 1378 1379 1380 1381 1382 0
-1376 -1377 0
-1376 -1378 0
-1376 -1379 0
-1376 -1380 0
-1376 -1381 0
-1376 -1382 0
-1377 -1378 0
-1377 -1379 0
-1377 -1380 0
-1377 -1381 0
-1377 -1382 0
-1378 -1379 0
-1378 -1380 0
-1378 -1381 0
-1378 -1382 0
-1379 -1380 0
-1379 -1381 0
-1379 -1382 0
-1380 -1381 0
-1380 -1382 0
-1381 -1382 0
1383 1384 1385 1386 1387 1388 1389 0
-1383 -1384 0
-1383 -1385 0
-1383 -1386 0
-1383 -1387 0
-1383 -1388 0
-1383 -1389 0
-1384 -1385 0
-1384 -1386 0
-1384 -1387 0
-1384 -1388 0
-1384 -1389 0
-1385 -1386 0
-1385 -1387 0
-1385 -1388 0
-1385 -1389 0
-1386 -1387 0
-1386 -1388 0
-1386 -1389 0
-1387 -1388 0
-1387 -1389 0
-1388 -1389 0
1390 1391 1392 1393 1394 1395 1396 0
-1390 -1391 0
-1390 -1392 0
-1390 -1393 0
-1390 -1394 0
-1390 -1395 0
-1390 -1396 0
-1391 -1392 0
-1391 -1393 0
-1391 -1394 0
-1391 -1395 0
-1391 -1396 0
-1392 -1393 0
-1392 -1394 0
-1392 -1395 0
-1392 -1396 0
-1393 -1394 0
-1393 -1395 0
-1393 -1396 0
-1394 -1395 0
-1394 -1396 0
-1395 -1396 0
1397 1398 1399 1400 1401 1402 1403 0
-1397 -1398 0
-1397 -1399 0
-1397 -1400 0
-1397 -1401 0
-1397 -1402 0
-1397 -1403 0
-1398 -1399 0
-1398 -1400 0
-1398 -1401 0
-1398 -1402 0
-1398 -1403 0
-1399 -1400 0
-1399 -1401 0
-1399 -1402 0
-1399 -1403 0
-1400 -1401 0
-1400 -1402 0
-1400 -1403 0
-1401 -1402 0
-1401 -1403 0
-1402 -1403 0
1404 0
1405 1406 1407 1408 1409 1410 0
-1405 -1406 0
-1405 -1407 0
-1405 -1408 0
-1405 -1409 0
-1405 -1410 0
-1406 -1407 0
-1406 -1408 0
-1406 -1409 0
-1406 -1410 0
-1407 -1408 0
-1407 -1409 0
-1407 -1410 0
-1408 -1409 0
-1408 -1410 0
-1409 -1410 0
1411 1412 1413 1414 1415 1416 0
-1411 -1412 0
-1411 -1413 0
-1411 -1414 0
-1411 -1415 0
-1411 -1416 0
-1412 -1413 0
-1412 -1414 0
-1412 -1415 0
-1412 -1416 0
-1413 -1414 0
-1413 -1415 0
-1413 -1416 0
-1414 -1415 0
-1414 -1416 0
-1415 -1416 0
1417 1418 1419 1420 1421 1422 1423 0
-1417 -1418 0
-1417 -1419 0
-1417 -1420 0
-1417 -1421 0
-1417 -1422 0
-1417 -1423 0
-1418 -1419 0
-1418 -1420 0
-1418 -1421 0
-1418 -1422 0
-1418 -1423 0
-1419 -1420 0
-1419 -1421 0
-1419 -1422 0
-1419 -1423 0
-1420 -1421 0
-1420 -1422 0
-1420 -1423 0
-1421 -1422 0
-1421 -1423 0
-1422 -1423 0
1424 1425 1426 1427 1428 1429 1430 0
-1424 -1425 0
-1424 -1426 0
-1424 -1427 0
-1424 -1428 0
-1424 -1429 0
-1424 -1430 0
-1425 -1426 0
-1425 -1427 0
-1425 -1428 0
-1425 -1429 0
-1425 -1430 0
-1426 -1427 0
-1426 -1428 0
-1426 -1429 0
-1426 -1430 0
-1427 -1428 0
-1427 -1429 0
-1427 -1430 0
-1428 -1429 0
-1428 -1430 0
-1429 -1430 0
1431 1432 1433 1434 1435 1436 0
-1431 -1432 0
-1431 -1433 0
-1431 -1434 0
-1431 -1435 0
-1431 -1436 0
-1432 -1433 0
-1432 -1434 0
-1432 -1435 0
-1432 -1436 0
-1433 -1434 0
-1433 -1435 0
-1433 -1436 0
-1434 -1435 0
-1434 -1436 0
-1435 -1436 0
1437 1438 1439 1440 1441 1442 0
-1437 -1438 0
-1437 -1439 0
-1437 -1440 0
-1437 -1441 0
-1437 -1442 0
-1438 -1439 0
-1438 -1440 0
-1438 -1441 0
-1438 -1442 0
-1439 -1440 0
-1439 -1441 0
-1439 -1442 0
-1440 -1441 0
-1440 -1442 0
-1441 -1442 0
1443 1444 1445 1446 1447 1448 0
-1443 -1444 0
-1443 -1445 0
-1443 -1446 0
-1443 -1447 0
-1443 -1448 0
-1444 -1445 0
-1444 -1446 0
-1444 -1447 0
-1444 -1448 0
-1445 -1446 0
-1445 -1447 0
-1445 -1448 0
-1446 -1447 0
-1446 -1448 0
-1447 -1448 0
1449 0
1450 1451 1452 1453 1454 1455 1456 0
-1450 -1451 0
-1450 -1452 0
-1450 -1453 0
-1450 -1454 0
-1450 -1455 0
-1450 -1456 0
-1451 -1452 0
-1451 -1453 0
-1451 -1454 0
-1451 -1455 0
-1451 -1456 0
-1452 -1453 0
-1452 -1454 0
-1452 -1455 0
-1452 -1456 0
-1453 -1454 0
-1453 -1455 0
-1453 -1456 0
-1454 -1455 0
-1454 -1456 0
-1455 -1456 0
1457 1458 1459 1460 1461 1462 0
-1457 -1458 0
-1457 -1459 0
-1457 -1460 0
-1457 -1461 0
-1457 -1462 0
-1458 -1459 0
-1458 -1460 0
-1458 -1461 0
-1458 -1462 0
-1459 -1460 0
-1459 -1461 0
-1459 -1462 0
-1460 -1461 0
-1460 -1462 0
-1461 -1462 0
1463 1464 1465 1466 1467 1468 0
-1463 -1464 0
-1463 -1465 0
-1463 -1466 0
-1463 -1467 0
-1463 -1468 0
-1464 -1465 0
-1464 -1466 0
-1464 -1467 0
-1464 -1468 0
-1465 -1466 0
-1465 -1467 0
-1465 -1468 0
-1466 -1467 0
-1466 -1468 0
-1467 -1468 0
1469 1470 1471 1472 1473 1474 1475 1476 1477 0
-1469 -1470 0
-1469 -1471 0
-1469 -1472 0
-1469 -1473 0
-1469 -1474 0
-1469 -1475 0
-1469 -1476 0
-1469 -1477 0
-1470 -1471 0
-1470 -1472 0
-1470 -1473 0
-1470 -1474 0
-1470 -1475 0
-1470 -1476 0
-1470 -1477 0
-1471 -1472 0
-1471 -1473 0
-1471 -1474 0
-1471 -1475 0
-1471 -1476 0
-1471 -1477 0
-1472 -1473 0
-1472 -1474 0
-1472 -1475 0
-1472 -1476 0
-1472 -1477 0
-1473 -1474 0
-1473 -1475 0
-1473 -1476 0
-1473 -1477 0
-1474 -1475 0
-1474 -1476 0
-1474 -1477 0
-1475 -1476 0
-1475 -1477 0
-1476 -1477 0
1478 1479 1480 1481 1482 1483 1484 0
-1478 -1479 0
-1478 -1480 0
-1478 -1481 0
-1478 -1482 0
-1478 -1483 0
-1478 -1484 0
-1479 -1480 0
-1479 -1481 0
-1479 -1482 0
-1479 -1483 0
-1479 -1484 0
-1480 -1481 0
-1480 -1482 0
-1480 -1483 0
-1480 -1484 0
-1481 -1482 0
-1481 -1483 0
-1481 -1484 0
-1482 -1483 0
-1482 -1484 0
-1483 -1484 0
1485 1486 1487 1488 1489 1490 1491 0
-1485 -1486 0
-1485 -1487 0
-1485 -1488 0
-1485 -1489 0
-1485 -1490 0
-1485 -1491 0
-1486 -1487 0
-1486 -1488 0
-1486 -1489 0
-1486 -1490 0
-1486 -1491 0
-1487 -1488 0
-1487 -1489 0
-1487 -1490 0
-1487 -1491 0
-1488 -1489 0
-1488 -1490 0
-1488 -1491 0
-1489 -1490 0
-1489 -1491 0
-1490 -1491 0
1492 1493 1494 1495 1496 1497 1498 0
-1492 -1493 0
-1492 -1494 0
-1492 -1495 0
-1492 -1496 0
-1492 -1497 0
-1492 -1498 0
-1493 -1494 0
-1493 -1495 0
-1493 -1496 0
-1493 -1497 0
-1493 -1498 0
-1494 -1495 0
-1494 -1496 0
-1494 -1497 0
-1494 -1498 0
-1495 -1496 0
-1495 -1497 0
-1495 -1498 0
-1496 -1497 0
-1496 -1498 0
-1497 -1498 0
1499 1500 1501 1502 1503 1504 1505 1506 1507 0
-1499 -1500 0
-1499 -1501 0
-1499 -1502 0
-1499 -1503 0
-1499 -1504 0
-1499 -1505 0
-1499 -1506 0
-1499 -1507 0
-1500 -1501 0
-1500 -1502 0
-1500 -1503 0
-1500 -1504 0
-1500 -1505 0
-1500 -1506 0
-1500 -1507 0
-1501 -1502 0
-1501 -1503 0
-1501 -1504 0
-1501 -1505 0
-1501 -1506 0
-1501 -1507 0
-1502 -1503 0
-1502 -1504 0
-1502 -1505 0
-1502 -1506 0
-1502 -1507 0
-1503 -1504 0
-1503 -1505 0
-1503 -1506 0
-1503 -1507 0
-1504 -1505 0
-1504 -1506 0
-1504 -1507 0
-1505 -1506 0
-1505 -1507 0
-1506 -1507 0
1508 1509 1510 1511 1512 1513 0
-1508 -1509 0
-1508 -1510 0
-1508 -1511 0
-1508 -1512 0
-1508 -1513 0
-1509 -1510 0
-1509 -1511 0
-1509 -1512 0
-1509 -1513 0
-1510 -1511 0
-1510 -1512 0
-1510 -1513 0
-1511 -1512 0
-1511 -1513 0
-1512 -1513 0
1514 1515 1516 1517 1518 1519 0
-1514 -1515 0
-1514 -1516 0
-1514 -1517 0
-1514 -1518 0
-1514 -1519 0
-1515 -1516 0
-1515 -1517 0
-1515 -1518 0
-1515 -1519 0
-1516 -1517 0
-1516 -1518 0
-1516 -1519 0
-1517 -1518 0
-1517 -1519 0
-1518 -1519 0
1520 1521 1522 1523 1524 1525 0
-1520 -1521 0
-1520 -1522 0
-1520 -1523 0
-1520 -1524 0
-1520 -1525 0
-1521 -1522 0
-1521 -1523 0
-1521 -1524 0
-1521 -1525 0
-1522 -1523 0
-1522 -1524 0
-1522 -1525 0
-1523 -1524 0
-1523 -1525 0
-1524 -1525 0
1526 1527 1528 1529 1530 1531 0
-1526 -1527 0
-1526 -1528 0
-1526 -1529 0
-1526 -1530 0
-1526 -1531 0
-1527 -1528 0
-1527 -1529 0
-1527 -1530 0
-1527 -1531 0
-1528 -1529 0
-1528 -1530 0
-1528 -1531 0
-1529 -1530 0
-1529 -1531 0
-1530 -1531 0
1532 1533 1534 1535 1536 1537 1538 0
-1532 -1533 0
-1532 -1534 0
-1532 -1535 0
-1532 -1536 0
-1532 -1537 0
-1532 -1538 0
-1533 -1534 0
-1533 -1535 0
-1533 -1536 0
-1533 -1537 0
-1533 -1538 0
-1534 -1535 0
-1534 -1536 0
-1534 -1537 0
-1534 -1538 0
-1535 -1536 0
-1535 -1537 0
-1535 -1538 0
-1536 -1537 0
-1536 -1538 0
-1537 -1538 0
1539 1540 1541 1542 1543 1544 1545 0
-1539 -1540 0
-1539 -1541 0
-1539 -1542 0
-1539 -1543 0
-1539 -1544 0
-1539 -1545 0
-1540 -1541 0
-1540 -1542 0
-1540 -1543 0
-1540 -1544 0
-1540 -1545 0
-1541 -1542 0
-1541 -1543 0
-1541 -1544 0
-1541 -1545 0
-1542 -1543 0
-1542 -1544 0
-1542 -1545 0
-1543 -1544 0
-1543 -1545 0
-1544 -1545 0
1546 1547 1548 1549 1550 1551 0
-1546 -1547 0
-1546 -1548 0
-1546 -1549 0
-1546 -1550 0
-1546 -1551 0
-1547 -1548 0
-1547 -1549 0
-1547 -1550 0
-1547 -1551 0
-1548 -1549 0
-1548 -1550 0
-1548 -1551 0
-1549 -1550 0
-1549 -1551 0
-1550 -1551 0
1552 1553 1554 1555 1556 1557 1558 0
-1552 -1553 0
-1552 -1554 0
-1552 -1555 0
-1552 -1556 0
-1552 -1557 0
-1552 -1558 0
-1553 -1554 0
-1553 -1555 0
-1553 -1556 0
-1553 -1557 0
-1553 -1558 0
-1554 -1555 0
-1554 -1556 0
-1554 -1557 0
-1554 -1558 0
-1555 -1556 0
-1555 -1557 0
-1555 -1558 0
-1556 -1557 0
-1556 -1558 0
-1557 -1558 0
1559 1560 1561 1562 1563 1564 1565 0
-1559 -1560 0
-1559 -1561 0
-1559 -1562 0
-1559 -1563 0
-1559 -1564 0
-1559 -1565 0
-1560 -1561 0
-1560 -1562 0
-1560 -1563 0
-1560 -1564 0
-1560 -1565 0
-1561 -1562 0
-1561 -1563 0
-1561 -1564 0
-1561 -1565 0
-1562 -1563 0
-1562 -1564 0
-1562 -1565 0
-1563 -1564 0
-1563 -1565 0
-1564 -1565 0
1566 1567 1568 1569 1570 1571 1572 1573 1574 0
-1566 -1567 0
-1566 -1568 0
-1566 -1569 0
-1566 -1570 0
-1566 -1571 0
-1566 -1572 0
-1566 -1573 0
-1566 -1574 0
-1567 -1568 0
-1567 -1569 0
-1567 -1570 0
-1567 -1571 0
-1567 -1572 0
-1567 -1573 0
-1567 -1574 0
-1568 -1569 0
-1568 -1570 0
-1568 -1571 0
-1568 -1572 0
-1568 -1573 0
-1568 -1574 0
-1569 -1570 0
-1569 -1571 0
-1569 -1572 0
-1569 -1573 0
-1569 -1574 0
-1570 -1571 0
-1570 -1572 0
-1570 -1573 0
-1570 -1574 0
-1571 -1572 0
-1571 -1573 0
-1571 -1574 0
-1572 -1573 0
-1572 -1574 0
-1573 -1574 0
1575 1576 1577 1578 1579 1580 0
-1575 -1576 0
-1575 -1577 0
-1575 -1578 0
-1575 -1579 0
-1575 -1580 0
-1576 -1577 0
-1576 -1578 0
-1576 -1579 0
-1576 -1580 0
-1577 -1578 0
-1577 -1579 0
-1577 -1580 0
-1578 -1579 0
-1578 -1580 0
-1579 -1580 0
1581 1582 1583 1584 1585 1586 0
-1581 -1582 0
-1581 -1583 0
-1581 -1584 0
-1581 -1585 0
-1581 -1586 0
-1582 -1583 0
-1582 -1584 0
-1582 -1585 0
-1582 -1586 0
-1583 -1584 0
-1583 -1585 0
-1583 -1586 0
-1584 -1585 0
-1584 -1586 0
-1585 -1586 0
1587 1588 1589 1590 1591 1592 0
-1587 -1588 0
-1587 -1589 0
-1587 -1590 0
-1587 -1591 0
-1587 -1592 0
-1588 -1589 0
-1588 -1590 0
-1588 -1591 0
-1588 -1592 0
-1589 -1590 0
-1589 -1591 0
-1589 -1592 0
-1590 -1591 0
-1590 -1592 0
-1591 -1592 0
1593 1594 1595 1596 1597 1598 1599 0
-1593 -1594 0
-1593 -1595 0
-1593 -1596 0
-1593 -1597 0
-1593 -1598 0
-1593 -1599 0
-1594 -1595 0
-1594 -1596 0
-1594 -1597 0
-1594 -1598 0
-1594 -1599 0
-1595 -1596 0
-1595 -1597 0
-1595 -1598 0
-1595 -1599 0
-1596 -1597 0
-1596 -1598 0
-1596 -1599 0
-1597 -1598 0
-1597 -1599 0
-1598 -1599 0
1600 1601 1602 1603 1604 1605 1606 0
-1600 -1601 0
-1600 -1602 0
-1600 -1603 0
-1600 -1604 0
-1600 -1605 0
-1600 -1606 0
-1601 -1602 0
-1601 -1603 0
-1601 -1604 0
-1601 -1605 0
-1601 -1606 0
-1602 -1603 0
-1602 -1604 0
-1602 -1605 0
-1602 -1606 0
-1603 -1604 0
-1603 -1605 0
-1603 -1606 0
-1604 -1605 0
-1604 -1606 0
-1605 -1606 0
1607 1608 1609 1610 1611 1612 1613 0
-1607 -1608 0
-1607 -1609 0
-1607 -1610 0
-1607 -1611 0
-1607 -1612 0
-1607 -1613 0
-1608 -1609 0
-1608 -1610 0
-1608 -1611 0
-1608 -1612 0
-1608 -1613 0
-1609 -1610 0
-1609 -1611 0
-1609 -1612 0
-1609 -1613 0
-1610 -1611 0
-1610 -1612 0
-1610 -1613 0
-1611 -1612 0
-1611 -1613 0
-1612 -1613 0
1614 1615 1616 1617 1618 1619 1620 0
-1614 -1615 0
-1614 -1616 0
-1614 -1617 0
-1614 -1618 0
-1614 -1619 0
-1614 -1620 0
-1615 -1616 0
-1615 -1617 0
-1615 -1618 0
-1615 -1619 0
-1615 -1620 0
-1616 -1617 0
-1616 -1618 0
-1616 -1619 0
-1616 -1620 0
-1617 -1618 0
-1617 -1619 0
-1617 -1620 0
-1618 -1619 0
-1618 -1620 0
-1619 -1620 0
1621 1622 1623 1624 1625 1626 0
-1621 -1622 0
-1621 -1623 0
-1621 -1624 0
-1621 -1625 0
-1621 -1626 0
-1622 -1623 0
-1622 -1624 0
-1622 -1625 0
-1622 -1626 0
-1623 -1624 0
-1623 -1625 0
-1623 -1626 0
-1624 -1625 0
-1624 -1626 0
-1625 -1626 0
1627 1628 1629 1630 1631 1632 1633 0
-1627 -1628 0
-1627 -1629 0
-1627 -1630 0
-1627 -1631 0
-1627 -1632 0
-1627 -1633 0
-1628 -1629 0
-1628 -1630 0
-1628 -1631 0
-1628 -1632 0
-1628 -1633 0
-1629 -1630 0
-1629 -1631 0
-1629 -1632 0
-1629 -1633 0
-1630 -1631 0
-1630 -1632 0
-1630 -1633 0
-1631 -1632 0
-1631 -1633 0
-1632 -1633 0
1634 1635 1636 1637 1638 1639 0
-1634 -1635 0
-1634 -1636 0
-1634 -1637 0
-1634 -1638 0
-1634 -1639 0
-1635 -1636 0
-1635 -1637 0
-1635 -1638 0
-1635 -1639 0
-1636 -1637 0
-1636 -1638 0
-1636 -1639 0
-1637 -1638 0
-1637 -1639 0
-1638 -1639 0
1640 1641 1642 1643 1644 1645 0
-1640 -1641 0
-1640 -1642 0
-1640 -1643 0
-1640 -1644 0
-1640 -1645 0
-1641 -1642 0
-1641 -1643 0
-1641 -1644 0
-1641 -1645 0
-1642 -1643 0
-1642 -1644 0
-1642 -1645 0
-1643 -1644 0
-1643 -1645 0
-1644 -1645 0
1646 1647 1648 1649 1650 1651 1652 1653 1654 0
-1646 -1647 0
-1646 -1648 0
-1646 -1649 0
-1646 -1650 0
-1646 -1651 0
-1646 -1652 0
-1646 -1653 0
-1646 -1654 0
-1647 -1648 0
-1647 -1649 0
-1647 -1650 0
-1647 -1651 0
-1647 -1652 0
-1647 -1653 0
-1647 -1654 0
-1648 -1649 0
-1648 -1650 0
-1648 -1651 0
-1648 -1652 0
-1648 -1653 0
-1648 -1654 0
-1649 -1650 0
-1649 -1651 0
-1649 -1652 0
-1649 -1653 0
-1649 -1654 0
-1650 -1651 0
-1650 -1652 0
-1650 -1653 0
-1650 -1654 0
-1651 -1652 0
-1651 -1653 0
-1651 -1654 0
-1652 -1653 0
-1652 -1654 0
-1653 -1654 0
1655 1656 1657 1658 1659 1660 0
-1655 -1656 0
-1655 -1657 0
-1655 -1658 0
-1655 -1659 0
-1655 -1660 0
-1656 -1657 0
-1656 -1658 0
-1656 -1659 0
-1656 -1660 0
-1657 -1658 0
-1657 -1659 0
-1657 -1660 0
-1658 -1659 0
-1658 -1660 0
-1659 -1660 0
1661 1662 1663 1664 1665 1666 1667 0
-1661 -1662 0
-1661 -1663 0
-1661 -1664 0
-1661 -1665 0
-1661 -1666 0
-1661 -1667 0
-1662 -1663 0
-1662 -1664 0
-1662 -1665 0
-1662 -1666 0
-1662 -1667 0
-1663 -1664 0
-1663 -1665 0
-1663 -1666 0
-1663 -1667 0
-1664 -1665 0
-1664 -1666 0
-1664 -1667 0
-1665 -1666 0
-1665 -1667 0
-1666 -1667 0
1668 1669 1670 1671 1672 1673 1674 0
-1668 -1669 0
-1668 -1670 0
-1668 -1671 0
-1668 -1672 0
-1668 -1673 0
-1668 -1674 0
-1669 -1670 0
-1669 -1671 0
-1669 -1672 0
-1669 -1673 0
-1669 -1674 0
-1670 -1671 0
-1670 -1672 0
-1670 -1673 0
-1670 -1674 0
-1671 -1672 0
-1671 -1673 0
-1671 -1674 0
-1672 -1673 0
-1672 -1674 0
-1673 -1674 0
1675 1676 1677 1678 1679 1680 0
-1675 -1676 0
-1675 -1677 0
-1675 -1678 0
-1675 -1679 0
-1675 -1680 0
-1676 -1677 0
-1676 -1678 0
-1676 -1679 0
-1676 -1680 0
-1677 -1678 0
-1677 -1679 0
-1677 -1680 0
-1678 -1679 0
-1678 -1680 0
-1679 -1680 0
1681 1682 1683 1684 1685 1686 0
-1681 -1682 0
-1681 -1683 0
-1681 -1684 0
-1681 -1685 0
-1681 -1686 0
-1682 -1683 0
-1682 -1684 0
-1682 -1685 0
-1682 -1686 0
-1683 -1684 0
-1683 -1685 0
-1683 -1686 0
-1684 -1685 0
-1684 -1686 0
-1685 -1686 0
1687 1688 1689 1690 1691 1692 1693 0
-1687 -1688 0
-1687 -1689 0
-1687 -1690 0
-1687 -1691 0
-1687 -1692 0
-1687 -1693 0
-1688 -1689 0
-1688 -1690 0
-1688 -1691 0
-1688 -1692 0
-1688 -1693 0
-1689 -1690 0
-1689 -1691 0
-1689 -1692 0
-1689 -1693 0
-1690 -1691 0
-1690 -1692 0
-1690 -1693 0
-1691 -1692 0
-1691 -1693 0
-1692 -1693 0
1694 1695 1696 1697 1698 1699 1700 0
-1694 -1695 0
-1694 -1696 0
-1694 -1697 0
-1694 -1698 0
-1694 -1699 0
-1694 -1700 0
-1695 -1696 0
-1695 -1697 0
-1695 -1698 0
-1695 -1699 0
-1695 -1700 0
-1696 -1697 0
-1696 -1698 0
-1696 -1699 0
-1696 -1700 0
-1697 -1698 0
-1697 -1699 0
-1697 -1700 0
-1698 -1699 0
-1698 -1700 0
-1699 -1700 0
1701 1702 1703 1704 1705 1706 0
-1701 -1702 0
-1701 -1703 0
-1701 -1704 0
-1701 -1705 0
-1701 -1706 0
-1702 -1703 0
-1702 -1704 0
-1702 -1705 0
-1702 -1706 0
-1703 -1704 0
-1703 -1705 0
-1703 -1706 0
-1704 -1705 0
-1704 -1706 0
-1705 -1706 0
1707 1708 1709 1710 1711 1712 1713 1714 1715 0
-1707 -1708 0
-1707 -1709 0
-1707 -1710 0
-1707 -1711 0
-1707 -1712 0
-1707 -1713 0
-1707 -1714 0
-1707 -1715 0
-1708 -1709 0
-1708 -1710 0
-1708 -1711 0
-1708 -1712 0
-1708 -1713 0
-1708 -1714 0
-1708 -1715 0
-1709 -1710 0
-1709 -1711 0
-1709 -1712 0
-1709 -1713 0
-1709 -1714 0
-1709 -1715 0
-1710 -1711 0
-1710 -1712 0
-1710 -1713 0
-1710 -1714 0
-1710 -1715 0
-1711 -1712 0
-1711 -1713 0
-1711 -1714 0
-1711 -1715 0
-1712 -1713 0
-1712 -1714 0
-1712 -1715 0
-1713 -1714 0
-1713 -1715 0
-1714 -1715 0
1716 1717 1718 1719 1720 1721 0
-1716 -1717 0
-1716 -1718 0
-1716 -1719 0
-1716 -1720 0
-1716 -1721 0
-1717 -1718 0
-1717 -1719 0
-1717 -1720 0
-1717 -1721 0
-1718 -1719 0
-1718 -1720 0
-1718 -1721 0
-1719 -1720 0
-1719 -1721 0
-1720 -1721 0
1722 1723 1724 1725 1726 1727 1728 0
-1722 -1723 0
-1722 -1724 0
-1722 -1725 0
-1722 -1726 0
-1722 -1727 0
-1722 -1728 0
-1723 -1724 0
-1723 -1725 0
-1723 -1726 0
-1723 -1727 0
-1723 -1728 0
-1724 -1725 0
-1724 -1726 0
-1724 -1727 0
-1724 -1728 0
-1725 -1726 0
-1725 -1727 0
-1725 -1728 0
-1726 -1727 0
-1726 -1728 0
-1727 -1728 0
1729 1730 1731 1732 1733 1734 1735 0
-1729 -1730 0
-1729 -1731 0
-1729 -1732 0
-1729 -1733 0
-1729 -1734 0
-1729 -1735 0
-1730 -1731 0
-1730 -1732 0
-1730 -1733 0
-1730 -1734 0
-1730 -1735 0
-1731 -1732 0
-1731 -1733 0
-1731 -1734 0
-1731 -1735 0
-1732 -1733 0
-1732 -1734 0
-1732 -1735 0
-1733 -1734 0
-1733 -1735 0
-1734 -1735 0
1736 1737 1738 1739 1740 1741 1742 0
-1736 -1737 0
-1736 -1738 0
-1736 -1739 0
-1736 -1740 0
-1736 -1741 0
-1736 -1742 0
-1737 -1738 0
-1737 -1739 0
-1737 -1740 0
-1737 -1741 0
-1737 -1742 0
-1738 -1739 0
-1738 -1740 0
-1738 -1741 0
-1738 -1742 0
-1739 -1740 0
-1739 -1741 0
-1739 -1742 0
-1740 -1741 0
-1740 -1742 0
-1741 -1742 0
1743 1744 1745 1746 1747 1748 1749 0
-1743 -1744 0
-1743 -1745 0
-1743 -1746 0
-1743 -1747 0
-1743 -1748 0
-1743 -1749 0
-1744 -1745 0
-1744 -1746 0
-1744 -1747 0
-1744 -1748 0
-1744 -1749 0
-1745 -1746 0
-1745 -1747 0
-1745 -1748 0
-1745 -1749 0
-1746 -1747 0
-1746 -1748 0
-1746 -1749 0
-1747 -1748 0
-1747 -1749 0
-1748 -1749 0
1750 1751 1752 1753 1754 1755 0
-1750 -1751 0
-1750 -1752 0
-1750 -1753 0
-1750 -1754 0
-1750 -1755 0
-1751 -1752 0
-1751 -1753 0
-1751 -1754 0
-1751 -1755 0
-1752 -1753 0
-1752 -1754 0
-1752 -1755 0
-1753 -1754 0
-1753 -1755 0
-1754 -1755 0
1756 1757 1758 1759 1760 1761 0
-1756 -1757 0
-1756 -1758 0
-1756 -1759 0
-1756 -1760 0
-1756 -1761 0
-1757 -1758 0
-1757 -1759 0
-1757 -1760 0
-1757 -1761 0
-1758 -1759 0
-1758 -1760 0
-1758 -1761 0
-1759 -1760 0
-1759 -1761 0
-1760 -1761 0
1762 1763 1764 1765 1766 1767 0
-1762 -1763 0
-1762 -1764 0
-1762 -1765 0
-1762 -1766 0
-1762 -1767 0
-1763 -1764 0
-1763 -1765 0
-1763 -1766 0
-1763 -1767 0
-1764 -1765 0
-1764 -1766 0
-1764 -1767 0
-1765 -1766 0
-1765 -1767 0
-1766 -1767 0
1768 1769 1770 1771 1772 1773 0
-1768 -1769 0
-1768 -1770 0
-1768 -1771 0
-1768 -1772 0
-1768 -1773 0
-1769 -1770 0
-1769 -1771 0
-1769 -1772 0
-1769 -1773 0
-1770 -1771 0
-1770 -1772 0
-1770 -1773 0
-1771 -1772 0
-1771 -1773 0
-1772 -1773 0
1774 1775 1776 1777 1778 1779 0
-1774 -1775 0
-1774 -1776 0
-1774 -1777 0
-1774 -1778 0
-1774 -1779 0
-1775 -1776 0
-1775 -1777 0
-1775 -1778 0
-1775 -1779 0
-1776 -1777 0
-1776 -1778 0
-1776 -1779 0
-1777 -1778 0
-1777 -1779 0
-1778 -1779 0
1780 0
1781 1782 1783 1784 1785 1786 1787 0
-1781 -1782 0
-1781 -1783 0
-1781 -1784 0
-1781 -1785 0
-1781 -1786 0
-1781 -1787 0
-1782 -1783 0
-1782 -1784 0
-1782 -1785 0
-1782 -1786 0
-1782 -1787 0
-1783 -1784 0
-1783 -1785 0
-1783 -1786 0
-1783 -1787 0
-1784 -1785 0
-1784 -1786 0
-1784 -1787 0
-1785 -1786 0
-1785 -1787 0
-1786 -1787 0
1788 1789 1790 1791 1792 1793 0
-1788 -1789 0
-1788 -1790 0
-1788 -1791 0
-1788 -1792 0
-1788 -1793 0
-1789 -1790 0
-1789 -1791 0
-1789 -1792 0
-1789 -1793 0
-1790 -1791 0
-1790 -1792 0
-1790 -1793 0
-1791 -1792 0
-1791 -1793 0
-1792 -1793 0
1794 1795 1796 1797 1798 1799 0
-1794 -1795 0
-1794 -1796 0
-1794 -1797 0
-1794 -1798 0
-1794 -1799 0
-1795 -1796 0
-1795 -1797 0
-1795 -1798 0
-1795 -1799 0
-1796 -1797 0
-1796 -1798 0
-1796 -1799 0
-1797 -1798 0
-1797 -1799 0
-1798 -1799 0
1800 1801 1802 1803 1804 1805 0
-1800 -1801 0
-1800 -1802 0
-1800 -1803 0
-1800 -1804 0
-1800 -1805 0
-1801 -1802 0
-1801 -1803 0
-1801 -1804 0
-1801 -1805 0
-1802 -1803 0
-1802 -1804 0
-1802 -1805 0
-1803 -1804 0
-1803 -1805 0
-1804 -1805 0
1806 1807 1808 1809 1810 1811 0
-1806 -1807 0
-1806 -1808 0
-1806 -1809 0
-1806 -1810 0
-1806 -1811 0
-1807 -1808 0
-1807 -1809 0
-1807 -1810 0
-1807 -1811 0
-1808 -1809 0
-1808 -1810 0
-1808 -1811 0
-1809 -1810 0
-1809 -1811 0
-1810 -1811 0
1812 1813 1814 1815 1816 1817 0
-1812 -1813 0
-1812 -1814 0
-1812 -1815 0
-1812 -1816 0
-1812 -1817 0
-1813 -1814 0
-1813 -1815 0
-1813 -1816 0
-1813 -1817 0
-1814 -1815 0
-1814 -1816 0
-1814 -1817 0
-1815 -1816 0
-1815 -1817 0
-1816 -1817 0
1818 1819 1820 1821 1822 1823 0
-1818 -1819 0
-1818 -1820 0
-1818 -1821 0
-1818 -1822 0
-1818 -1823 0
-1819 -1820 0
-1819 -1821 0
-1819 -1822 0
-1819 -1823 0
-1820 -1821 0
-1820 -1822 0
-1820 -1823 0
-1821 -1822 0
-1821 -1823 0
-1822 -1823 0
1824 1825 1826 1827 1828 1829 0
-1824 -1825 0
-1824 -1826 0
-1824 -1827 0
-1824 -1828 0
-1824 -1829 0
-1825 -1826 0
-1825 -1827 0
-1825 -1828 0
-1825 -1829 0
-1826 -1827 0
-1826 -1828 0
-1826 -1829 0
-1827 -1828 0
-1827 -1829 0
-1828 -1829 0
1830 1831 1832 1833 1834 1835 0
-1830 -1831 0
-1830 -1832 0
-1830 -1833 0
-1830 -1834 0
-1830 -1835 0
-1831 -1832 0
-1831 -1833 0
-1831 -1834 0
-1831 -1835 0
-1832 -1833 0
-1832 -1834 0
-1832 -1835 0
-1833 -1834 0
-1833 -1835 0
-1834 -1835 0
1836 1837 1838 1839 1840 1841 1842 0
-1836 -1837 0
-1836 -1838 0
-1836 -1839 0
-1836 -1840 0
-1836 -1841 0
-1836 -1842 0
-1837 -1838 0
-1837 -1839 0
-1837 -1840 0
-1837 -1841 0
-1837 -1842 0
-1838 -1839 0
-1838 -1840 0
-1838 -1841 0
-1838 -1842 0
-1839 -1840 0
-1839 -1841 0
-1839 -1842 0
-1840 -1841 0
-1840 -1842 0
-1841 -1842 0
1843 0
1844 1845 1846 1847 1848 1849 1850 0
-1844 -1845 0
-1844 -1846 0
-1844 -1847 0
-1844 -1848 0
-1844 -1849 0
-1844 -1850 0
-1845 -1846 0
-1845 -1847 0
-1845 -1848 0
-1845 -1849 0
-1845 -1850 0
-1846 -1847 0
-1846 -1848 0
-1846 -1849 0
-1846 -1850 0
-1847 -1848 0
-1847 -1849 0
-1847 -1850 0
-1848 -1849 0
-1848 -1850 0
-1849 -1850 0
1851 1852 1853 1854 1855 1856 1857 0
-1851 -1852 0
-1851 -1853 0
-1851 -1854 0
-1851 -1855 0
-1851 -1856 0
-1851 -1857 0
-1852 -1853 0
-1852 -1854 0
-1852 -1855 0
-1852 -1856 0
-1852 -1857 0
-1853 -1854 0
-1853 -1855 0
-1853 -1856 0
-1853 -1857 0
-1854 -1855 0
-1854 -1856 0
-1854 -1857 0
-1855 -1856 0
-1855 -1857 0
-1856 -1857 0
1858 1859 1860 1861 1862 1863 1864 0
-1858 -1859 0
-1858 -1860 0
-1858 -1861 0
-1858 -1862 0
-1858 -1863 0
-1858 -1864 0
-1859 -1860 0
-1859 -1861 0
-1859 -1862 0
-1859 -1863 0
-1859 -1864 0
-1860 -1861 0
-1860 -1862 0
-1860 -1863 0
-1860 -1864 0
-1861 -1862 0
-1861 -1863 0
-1861 -1864 0
-1862 -1863 0
-1862 -1864 0
-1863 -1864 0
1865 1866 1867 1868 1869 1870 0
-1865 -1866 0
-1865 -1867 0
-1865 -1868 0
-1865 -1869 0
-1865 -1870 0
-1866 -1867 0
-1866 -1868 0
-1866 -1869 0
-1866 -1870 0
-1867 -1868 0
-1867 -1869 0
-1867 -1870 0
-1868 -1869 0
-1868 -1870 0
-1869 -1870 0
1871 1872 1873 1874 1875 1876 1877 0
-1871 -1872 0
-1871 -1873 0
-1871 -1874 0
-1871 -1875 0
-1871 -1876 0
-1871 -1877 0
-1872 -1873 0
-1872 -1874 0
-1872 -1875 0
-1872 -1876 0
-1872 -1877 0
-1873 -1874 0
-1873 -1875 0
-1873 -1876 0
-1873 -1877 0
-1874 -1875 0
-1874 -1876 0
-1874 -1877 0
-1875 -1876 0
-1875 -1877 0
-1876 -1877 0
1878 0
1879 1880 1881 1882 1883 1884 0
-1879 -1880 0
-1879 -1881 0
-1879 -1882 0
-1879 -1883 0
-1879 -1884 0
-1880 -1881 0
-1880 -1882 0
-1880 -1883 0
-1880 -1884 0
-1881 -1882 0
-1881 -1883 0
-1881 -1884 0
-1882 -1883 0
-1882 -1884 0
-1883 -1884 0
1885 1886 1887 1888 1889 1890 1891 0
-1885 -1886 0
-1885 -1887 0
-1885 -1888 0
-1885 -1889 0
-1885 -1890 0
-1885 -1891 0
-1886 -1887 0
-1886 -1888 0
-1886 -1889 0
-1886 -1890 0
-1886 -1891 0
-1887 -1888 0
-1887 -1889 0
-1887 -1890 0
-1887 -1891 0
-1888 -1889 0
-1888 -1890 0
-1888 -1891 0
-1889 -1890 0
-1889 -1891 0
-1890 -1891 0
1892 1893 1894 1895 1896 1897 1898 0
-1892 -1893 0
-1892 -1894 0
-1892 -1895 0
-1892 -1896 0
-1892 -1897 0
-1892 -1898 0
-1893 -1894 0
-1893 -1895 0
-1893 -1896 0
-1893 -1897 0
-1893 -1898 0
-1894 -1895 0
-1894 -1896 0
-1894 -1897 0
-1894 -1898 0
-1895 -1896 0
-1895 -1897 0
-1895 -1898 0
-1896 -1897 0
-1896 -1898 0
-1897 -1898 0
1899 1900 1901 1902 1903 1904 0
-1899 -1900 0
-1899 -1901 0
-1899 -1902 0
-1899 -1903 0
-1899 -1904 0
-1900 -1901 0
-1900 -1902 0
-1900 -1903 0
-1900 -1904 0
-1901 -1902 0
-1901 -1903 0
-1901 -1904 0
-1902 -1903 0
-1902 -1904 0
-1903 -1904 0
1905 1906 1907 1908 1909 1910 0
-1905 -1906 0
-1905 -1907 0
-1905 -1908 0
-1905 -1909 0
-1905 -1910 0
-1906 -1907 0
-1906 -1908 0
-1906 -1909 0
-1906 -1910 0
-1907 -1908 0
-1907 -1909 0
-1907 -1910 0
-1908 -1909 0
-1908 -1910 0
-1909 -1910 0
1911 1912 1913 1914 1915 1916 1917 0
-1911 -1912 0
-1911 -1913 0
-1911 -1914 0
-1911 -1915 0
-1911 -1916 0
-1911 -1917 0
-1912 -1913 0
-1912 -1914 0
-1912 -1915 0
-1912 -1916 0
-1912 -1917 0
-1913 -1914 0
-1913 -1915 0
-1913 -1916 0
-1913 -1917 0
-1914 -1915 0
-1914 -1916 0
-1914 -1917 0
-1915 -1916 0
-1915 -1917 0
-1916 -1917 0
1918 1919 1920 1921 1922 1923 1924 0
-1918 -1919 0
-1918 -1920 0
-1918 -1921 0
-1918 -1922 0
-1918 -1923 0
-1918 -1924 0
-1919 -1920 0
-1919 -1921 0
-1919 -1922 0
-1919 -1923 0
-1919 -1924 0
-1920 -1921 0
-1920 -1922 0
-1920 -1923 0
-1920 -1924 0
-1921 -1922 0
-1921 -1923 0
-1921 -1924 0
-1922 -1923 0
-1922 -1924 0
-1923 -1924 0
1925 1926 1927 1928 1929 1930 0
-1925 -1926 0
-1925 -1927 0
-1925 -1928 0
-1925 -1929 0
-1925 -1930 0
-1926 -1927 0
-1926 -1928 0
-1926 -1929 0
-1926 -1930 0
-1927 -1928 0
-1927 -1929 0
-1927 -1930 0
-1928 -1929 0
-1928 -1930 0
-1929 -1930 0
1931 1932 1933 1934 1935 1936 0
-1931 -1932 0
-1931 -1933 0
-1931 -1934 0
-1931 -1935 0
-1931 -1936 0
-1932 -1933 0
-1932 -1934 0
-1932 -1935 0
-1932 -1936 0
-1933 -1934 0
-1933 -1935 0
-1933 -1936 0
-1934 -1935 0
-1934 -1936 0
-1935 -1936 0
1937 1938 1939 1940 1941 1942 0
-1937 -1938 0
-1937 -1939 0
-1937 -1940 0
-1937 -1941 0
-1937 -1942 0
-1938 -1939 0
-1938 -1940 0
-1938 -1941 0
-1938 -1942 0
-1939 -1940 0
-1939 -1941 0
-1939 -1942 0
-1940 -1941 0
-1940 -1942 0
-1941 -1942 0
1943 1944 1945 1946 1947 1948 1949 0
-1943 -1944 0
-1943 -1945 0
-1943 -1946 0
-1943 -1947 0
-1943 -1948 0
-1943 -1949 0
-1944 -1945 0
-1944 -1946 0
-1944 -1947 0
-1944 -1948 0
-1944 -1949 0
-1945 -1946 0
-1945 -1947 0
-1945 -1948 0
-1945 -1949 0
-1946 -1947 0
-1946 -1948 0
-1946 -1949 0
-1947 -1948 0
-1947 -1949 0
-1948 -1949 0
1950 0
1951 0
1952 1953 1954 1955 1956 1957 1958 0
-1952 -1953 0
-1952 -1954 0
-1952 -1955 0
-1952 -1956 0
-1952 -1957 0
-1952 -1958 0
-1953 -1954 0
-1953 -1955 0
-1953 -1956 0
-1953 -1957 0
-1953 -1958 0
-1954 -1955 0
-1954 -1956 0
-1954 -1957 0
-1954 -1958 0
-1955 -1956 0
-1955 -1957 0
-1955 -1958 0
-1956 -1957 0
-1956 -1958 0
-1957 -1958 0
-2 -194 0
-3 -195 0
-5 -196 0
-6 -197 0
-7 -200 0
-8 -201 0
-2 -246 0
-3 -247 0
-6 -248 0
-7 -249 0
-8 -250 0
-2 -264 0
-3 -265 0
-6 -267 0
-7 -269 0
-8 -270 0
-3 -279 0
-6 -281 0
-7 -283 0
-8 -284 0
-3 -292 0
-6 -293 0
-7 -295 0
-8 -296 0
-2 -364 0
-3 -365 0
-5 -366 0
-7 -367 0
-8 -368 0
-2 -382 0
-3 -383 0
-5 -384 0
-7 -387 0
-8 -388 0
-3 -396 0
-5 -398 0
-7 -400 0
-8 -401 0
-2 -434 0
-4 -435 0
-5 -436 0
-7 -437 0
-8 -438 0
-2 -459 0
-4 -460 0
-5 -462 0
-6 -463 0
-7 -465 0
-8 -466 0
-2 -474 0
-5 -476 0
-7 -478 0
-8 -479 0
-3 -482 0
-4 -483 0
-5 -485 0
-7 -487 0
-8 -488 0
-3 -497 0
-4 -498 0
-5 -499 0
-7 -501 0
-8 -502 0
-2 -510 0
-4 -511 0
-6 -513 0
-7 -515 0
-8 -516 0
-2 -525 0
-7 -528 0
-8 -529 0
-3 -531 0
-4 -532 0
-7 -535 0
-8 -536 0
-3 -547 0
-4 -548 0
-7 -550 0
-8 -551 0
-3 -552 0
-4 -553 0
-6 -555 0
-7 -556 0
-8 -557 0
-3 -559 0
-7 -563 0
-8 -564 0
-2 -600 0
-3 -601 0
-5 -603 0
-6 -604 0
-8 -606 0
-2 -633 0
-4 -634 0
-5 -636 0
-6 -637 0
-7 -639 0
-8 -640 0
-2 -654 0
-4 -655 0
-5 -656 0
-6 -657 0
-8 -660 0
-2 -669 0
-5 -670 0
-6 -671 0
-8 -673 0
-3 -675 0
-4 -676 0
-5 -677 0
-6 -678 0
-8 -680 0
-3 -688 0
-4 -689 0
-5 -691 0
-6 -692 0
-8 -695 0
-3 -696 0
-6 -698 0
-8 -701 0
-2 -715 0
-4 -716 0
-5 -718 0
-7 -720 0
-8 -721 0
-3 -729 0
-4 -730 0
-5 -731 0
-8 -734 0
-4 -737 0
-5 -738 0
-7 -741 0
-8 -742 0
-4 -750 0
-5 -752 0
-7 -753 0
-8 -754 0
-4 -755 0
-5 -757 0
-6 -758 0
-8 -760 0
-4 -762 0
-5 -764 0
-8 -767 0
-4 -775 0
-7 -779 0
-8 -780 0
-2 -924 0
-6 -926 0
-7 -927 0
-8 -928 0
-2 -947 0
-6 -948 0
-8 -950 0
-3 -969 0
-6 -970 0
-8 -972 0
-3 -982 0
-6 -984 0
-8 -986 0
-2 -995 0
-5 -996 0
-6 -997 0
-7 -999 0
-8 -1000 0
-3 -1009 0
-5 -1010 0
-6 -1011 0
-7 -1013 0
-8 -1014 0
-3 -1016 0
-5 -1018 0
-6 -1019 0
-8 -1020 0
-3 -1029 0
-5 -1030 0
-6 -1031 0
-8 -1034 0
-2 -1064 0
-5 -1066 0
-7 -1069 0
-8 -1070 0
-2 -1094 0
-5 -1095 0
-6 -1096 0
-8 -1098 0
-3 -1107 0
-5 -1108 0
-8 -1110 0
-3 -1118 0
-5 -1120 0
-8 -1122 0
-2 -1129 0
-6 -1130 0
-7 -1133 0
-8 -1134 0
-3 -1142 0
-7 -1145 0
-8 -1146 0
-3 -1155 0
-7 -1159 0
-8 -1160 0
-3 -1161 0
-6 -1163 0
-8 -1166 0
-4 -1175 0
-7 -1177 0
-8 -1178 0
-4 -1188 0
-7 -1191 0
-8 -1192 0
-4 -1195 0
-6 -1197 0
-8 -1198 0
-4 -1206 0
-6 -1207 0
-8 -1210 0
-8 -1216 0
-4 -1225 0
-5 -1227 0
-6 -1228 0
-7 -1231 0
-8 -1232 0
-4 -1241 0
-5 -1242 0
-6 -1243 0
-7 -1245 0
-8 -1246 0
-5 -1250 0
-7 -1252 0
-8 -1253 0
-5 -1263 0
-6 -1264 0
-8 -1266 0
-2 -1295 0
-5 -1297 0
-6 -1298 0
-8 -1300 0
-2 -1314 0
-5 -1316 0
-6 -1317 0
-7 -1318 0
-8 -1319 0
-3 -1327 0
-5 -1329 0
-6 -1330 0
-7 -1333 0
-8 -1334 0
-3 -1343 0
-5 -1345 0
-6 -1346 0
-7 -1347 0
-8 -1348 0
-4 -1357 0
-6 -1359 0
-8 -1362 0
-4 -1364 0
-6 -1365 0
-7 -1367 0
-8 -1368 0
-4 -1377 0
-6 -1379 0
-7 -1381 0
-8 -1382 0
-6 -1385 0
-7 -1388 0
-8 -1389 0
-5 -1398 0
-6 -1399 0
-7 -1402 0
-8 -1403 0
-4 -1412 0
-5 -1414 0
-8 -1416 0
-4 -1425 0
-5 -1427 0
-8 -1430 0
-4 -1431 0
-5 -1432 0
-6 -1433 0
-7 -1435 0
-8 -1436 0
-5 -1438 0
-7 -1441 0
-8 -1442 0
-2 -1521 0
-5 -1522 0
-7 -1524 0
-8 -1525 0
-2 -1540 0
-5 -1542 0
-6 -1543 0
-8 -1545 0
-3 -1560 0
-5 -1562 0
-8 -1565 0
-3 -1577 0
-5 -1578 0
-8 -1580 0
-3 -1587 0
-6 -1589 0
-8 -1592 0
-2 -1615 0
-5 -1616 0
-6 -1617 0
-7 -1619 0
-8 -1620 0
-2 -1640 0
-5 -1642 0
-8 -1645 0
-3 -1656 0
-5 -1658 0
-6 -1659 0
-8 -1660 0
-3 -1669 0
-5 -1670 0
-6 -1671 0
-8 -1674 0
-3 -1681 0
-5 -1682 0
-6 -1683 0
-7 -1685 0
-8 -1686 0
-4 -1695 0
-5 -1697 0
-6 -1698 0
-7 -1699 0
-8 -1700 0
-4 -1709 0
-5 -1710 0
-6 -1711 0
-7 -1714 0
-8 -1715 0
-4 -1717 0
-5 -1719 0
-8 -1721 0
-4 -1730 0
-5 -1732 0
-8 -1735 0
-5 -1739 0
-6 -1740 0
-8 -1742 0
-5 -1752 0
-6 -1753 0
-8 -1755 0
-4 -1762 0
-7 -1766 0
-8 -1767 0
-6 -1770 0
-7 -1772 0
-8 -1773 0
-3 -1794 0
-5 -1796 0
-7 -1798 0
-8 -1799 0
-4 -1806 0
-5 -1807 0
-6 -1808 0
-7 -1810 0
-8 -1811 0
-5 -1814 0
-7 -1816 0
-8 -1817 0
-4 -1830 0
-5 -1832 0
-6 -1833 0
-8 -1835 0
-5 -1837 0
-6 -1838 0
-7 -1841 0
-8 -1842 0
-6 -1881 0
-7 -1883 0
-8 -1884 0
-6 -1894 0
-7 -1897 0
-8 -1898 0
-5 -1906 0
-6 -1907 0
-8 -1910 0
-5 -1921 0
-6 -1922 0
-8 -1924 0
-5 -1927 0
-7 -1929 0
-8 -1930 0
-5 -1938 0
-7 -1941 0
-8 -1942 0
-5 -1953 0
-6 -1954 0
-7 -1957 0
-8 -1958 0
-9 -187 0
-10 -188 0
-12 -189 0
-14 -190 0
-15 -191 0
-9 -237 0
-10 -238 0
-12 -239 0
-13 -241 0
-14 -242 0
-15 -244 0
-9 -257 0
-10 -258 0
-12 -259 0
-14 -262 0
-15 -263 0
-10 -279 0
-12 -280 0
-14 -282 0
-15 -284 0
-10 -286 0
-12 -287 0
-14 -289 0
-15 -290 0
-9 -355 0
-10 -356 0
-12 -357 0
-13 -360 0
-14 -361 0
-15 -362 0
-9 -375 0
-10 -376 0
-12 -377 0
-13 -379 0
-15 -381 0
-10 -396 0
-12 -397 0
-13 -399 0
-15 -401 0
-9 -424 0
-11 -425 0
-12 -426 0
-13 -428 0
-14 -429 0
-15 -431 0
-9 -453 0
-11 -454 0
-12 -455 0
-14 -456 0
-15 -457 0
-9 -474 0
-12 -475 0
-14 -477 0
-15 -479 0
-10 -482 0
-11 -483 0
-12 -484 0
-14 -486 0
-15 -488 0
-10 -490 0
-11 -491 0
-12 -492 0
-14 -494 0
-15 -495 0
-9 -503 0
-11 -504 0
-12 -505 0
-13 -507 0
-15 -509 0
-9 -525 0
-12 -526 0
-13 -527 0
-15 -529 0
-10 -531 0
-11 -532 0
-12 -533 0
-13 -534 0
-15 -536 0
-10 -538 0
-11 -539 0
-12 -540 0
-13 -543 0
-15 -545 0
-10 -552 0
-11 -553 0
-12 -554 0
-15 -557 0
-10 -566 0
-12 -567 0
-15 -571 0
-9 -593 0
-10 -594 0
-13 -596 0
-14 -597 0
-15 -599 0
-9 -627 0
-11 -628 0
-13 -629 0
-14 -630 0
-15 -631 0
-9 -647 0
-11 -648 0
-12 -649 0
-14 -651 0
-15 -653 0
-9 -669 0
-14 -672 0
-15 -673 0
-10 -675 0
-11 -676 0
-14 -679 0
-15 -680 0
-10 -682 0
-11 -683 0
-14 -684 0
-15 -686 0
-10 -702 0
-14 -705 0
-15 -707 0
-9 -708 0
-11 -709 0
-13 -712 0
-14 -713 0
-15 -714 0
-10 -729 0
-11 -730 0
-13 -732 0
-14 -733 0
-15 -734 0
-11 -737 0
-13 -739 0
-14 -740 0
-15 -742 0
-11 -744 0
-13 -746 0
-14 -747 0
-15 -748 0
-11 -755 0
-12 -756 0
-14 -759 0
-15 -760 0
-11 -769 0
-14 -772 0
-15 -774 0
-11 -781 0
-13 -784 0
-15 -786 0
-9 -917 0
-13 -919 0
-14 -920 0
-15 -921 0
-9 -938 0
-12 -939 0
-14 -942 0
-15 -944 0
-10 -969 0
-14 -971 0
-15 -972 0
-10 -975 0
-14 -977 0
-15 -979 0
-9 -988 0
-12 -989 0
-13 -992 0
-15 -993 0
-10 -1009 0
-13 -1012 0
-15 -1014 0
-10 -1016 0
-12 -1017 0
-15 -1020 0
-10 -1022 0
-12 -1023 0
-15 -1027 0
-9 -1058 0
-13 -1060 0
-15 -1061 0
-9 -1088 0
-12 -1089 0
-13 -1090 0
-15 -1092 0
-10 -1107 0
-13 -1109 0
-15 -1110 0
-10 -1112 0
-13 -1114 0
-15 -1116 0
-9 -1123 0
-12 -1124 0
-13 -1126 0
-14 -1127 0
-15 -1128 0
-10 -1142 0
-13 -1143 0
-14 -1144 0
-15 -1146 0
-10 -1148 0
-13 -1151 0
-14 -1152 0
-15 -1153 0
-10 -1161 0
-12 -1162 0
-13 -1164 0
-14 -1165 0
-15 -1166 0
-11 -1175 0
-13 -1176 0
-15 -1178 0
-11 -1181 0
-13 -1184 0
-15 -1185 0
-11 -1195 0
-12 -1196 0
-15 -1198 0
-11 -1200 0
-12 -1201 0
-15 -1204 0
-15 -1222 0
-11 -1225 0
-12 -1226 0
-13 -1229 0
-14 -1230 0
-15 -1232 0
-11 -1234 0
-12 -1235 0
-13 -1237 0
-14 -1238 0
-15 -1239 0
-13 -1257 0
-14 -1258 0
-15 -1260 0
-12 -1268 0
-14 -1270 0
-15 -1272 0
-9 -1288 0
-12 -1289 0
-13 -1290 0
-14 -1291 0
-15 -1293 0
-9 -1308 0
-13 -1310 0
-14 -1311 0
-15 -1313 0
-10 -1327 0
-12 -1328 0
-13 -1331 0
-14 -1332 0
-15 -1334 0
-10 -1336 0
-12 -1337 0
-13 -1338 0
-14 -1339 0
-15 -1341 0
-11 -1357 0
-12 -1358 0
-13 -1360 0
-14 -1361 0
-15 -1362 0
-11 -1364 0
-14 -1366 0
-15 -1368 0
-11 -1370 0
-14 -1373 0
-15 -1375 0
-12 -1392 0
-14 -1395 0
-15 -1396 0
-11 -1412 0
-12 -1413 0
-13 -1415 0
-15 -1416 0
-11 -1418 0
-12 -1419 0
-13 -1421 0
-15 -1423 0
-11 -1431 0
-13 -1434 0
-15 -1436 0
-12 -1444 0
-13 -1447 0
-15 -1448 0
-12 -1450 0
-13 -1453 0
-14 -1454 0
-15 -1456 0
-9 -1515 0
-12 -1516 0
-14 -1518 0
-15 -1519 0
-9 -1533 0
-12 -1534 0
-13 -1535 0
-14 -1536 0
-15 -1538 0
-10 -1560 0
-12 -1561 0
-13 -1563 0
-14 -1564 0
-15 -1565 0
-10 -1568 0
-12 -1569 0
-13 -1571 0
-14 -1572 0
-15 -1574 0
-10 -1581 0
-12 -1582 0
-13 -1584 0
-15 -1586 0
-9 -1608 0
-12 -1609 0
-13 -1612 0
-15 -1613 0
-9 -1634 0
-12 -1635 0
-15 -1639 0
-10 -1656 0
-12 -1657 0
-15 -1660 0
-10 -1662 0
-12 -1663 0
-15 -1667 0
-10 -1675 0
-12 -1676 0
-13 -1678 0
-14 -1679 0
-15 -1680 0
-11 -1695 0
-12 -1696 0
-15 -1700 0
-11 -1703 0
-12 -1704 0
-15 -1706 0
-11 -1717 0
-12 -1718 0
-13 -1720 0
-15 -1721 0
-11 -1723 0
-12 -1724 0
-13 -1726 0
-15 -1728 0
-12 -1745 0
-13 -1747 0
-15 -1749 0
-12 -1751 0
-13 -1754 0
-15 -1755 0
-11 -1756 0
-12 -1757 0
-14 -1760 0
-15 -1761 0
-12 -1775 0
-14 -1777 0
-15 -1779 0
-12 -1781 0
-13 -1784 0
-14 -1785 0
-15 -1787 0
-10 -1788 0
-14 -1791 0
-15 -1793 0
-11 -1800 0
-12 -1801 0
-13 -1802 0
-14 -1803 0
-15 -1805 0
-13 -1821 0
-14 -1822 0
-15 -1823 0
-11 -1824 0
-13 -1827 0
-15 -1829 0
-12 -1880 0
-13 -1882 0
-15 -1884 0
-12 -1887 0
-13 -1889 0
-15 -1891 0
-13 -1908 0
-14 -1909 0
-15 -1910 0
-13 -1914 0
-14 -1915 0
-15 -1917 0
-12 -1926 0
-14 -1928 0
-15 -1930 0
-12 -1932 0
-14 -1934 0
-15 -1936 0
-12 -1943 0
-13 -1946 0
-14 -1947 0
-15 -1949 0
-17 -179 0
-18 -180 0
-19 -182 0
-20 -183 0
-22 -184 0
-17 -227 0
-18 -228 0
-19 -231 0
-20 -232 0
-21 -233 0
-22 -235 0
-17 -264 0
-18 -265 0
-19 -267 0
-20 -268 0
-22 -270 0
-18 -271 0
-19 -275 0
-20 -276 0
-22 -277 0
-18 -292 0
-19 -293 0
-20 -294 0
-22 -296 0
-17 -416 0
-20 -418 0
-21 -419 0
-22 -421 0
-17 -459 0
-19 -463 0
-20 -464 0
-22 -466 0
-18 -468 0
-20 -471 0
-22 -472 0
-18 -497 0
-20 -500 0
-22 -502 0
-17 -510 0
-19 -513 0
-21 -514 0
-22 -516 0
-18 -517 0
-21 -521 0
-22 -523 0
-18 -547 0
-21 -549 0
-22 -551 0
-18 -552 0
-19 -555 0
-22 -557 0
-18 -566 0
-19 -569 0
-22 -571 0
-17 -620 0
-19 -623 0
-20 -624 0
-22 -625 0
-17 -654 0
-19 -657 0
-20 -658 0
-21 -659 0
-22 -660 0
-18 -661 0
-19 -663 0
-20 -664 0
-21 -665 0
-22 -667 0
-18 -688 0
-19 -692 0
-20 -693 0
-21 -694 0
-22 -695 0
-18 -702 0
-19 -704 0
-21 -705 0
-22 -707 0
-22 -754 0
-19 -758 0
-21 -759 0
-22 -760 0
-19 -771 0
-21 -772 0
-22 -774 0
-19 -783 0
-20 -784 0
-22 -786 0
-17 -851 0
-18 -852 0
-19 -854 0
-20 -855 0
-21 -856 0
-22 -858 0
-17 -872 0
-18 -873 0
-19 -876 0
-21 -877 0
-22 -878 0
-18 -886 0
-19 -888 0
-21 -889 0
-22 -891 0
-16 -906 0
-17 -907 0
-19 -911 0
-20 -912 0
-21 -913 0
-22 -914 0
-16 -946 0
-17 -947 0
-19 -948 0
-20 -949 0
-22 -950 0
-17 -952 0
-19 -954 0
-20 -955 0
-22 -957 0
-16 -959 0
-18 -960 0
-19 -963 0
-20 -964 0
-22 -966 0
-16 -981 0
-18 -982 0
-19 -984 0
-20 -985 0
-22 -986 0
-16 -994 0
-17 -995 0
-19 -997 0
-21 -998 0
-22 -1000 0
-16 -1001 0
-18 -1002 0
-19 -1005 0
-21 -1006 0
-22 -1007 0
-16 -1015 0
-18 -1016 0
-19 -1019 0
-22 -1020 0
-18 -1022 0
-19 -1025 0
-22 -1027 0
-17 -1051 0
-21 -1054 0
-22 -1055 0
-17 -1094 0
-19 -1096 0
-21 -1097 0
-22 -1098 0
-18 -1100 0
-21 -1102 0
-22 -1104 0
-18 -1118 0
-21 -1121 0
-22 -1122 0
-17 -1129 0
-19 -1130 0
-20 -1131 0
-21 -1132 0
-22 -1134 0
-18 -1135 0
-20 -1138 0
-21 -1139 0
-22 -1140 0
-18 -1155 0
-20 -1157 0
-21 -1158 0
-22 -1160 0
-18 -1161 0
-19 -1163 0
-20 -1164 0
-21 -1165 0
-22 -1166 0
-16 -1168 0
-21 -1171 0
-22 -1172 0
-16 -1187 0
-21 -1190 0
-22 -1192 0
-16 -1194 0
-19 -1197 0
-22 -1198 0
-22 -1204 0
-16 -1218 0
-19 -1220 0
-22 -1222 0
-16 -1224 0
-19 -1228 0
-20 -1229 0
-21 -1230 0
-22 -1232 0
-20 -1237 0
-21 -1238 0
-22 -1239 0
-16 -1255 0
-19 -1256 0
-20 -1257 0
-21 -1258 0
-22 -1260 0
-19 -1264 0
-20 -1265 0
-22 -1266 0
-17 -1280 0
-19 -1283 0
-21 -1284 0
-22 -1286 0
-17 -1314 0
-19 -1317 0
-22 -1319 0
-18 -1320 0
-19 -1323 0
-22 -1325 0
-18 -1343 0
-19 -1346 0
-22 -1348 0
-16 -1349 0
-19 -1353 0
-22 -1355 0
-16 -1363 0
-19 -1365 0
-21 -1366 0
-22 -1368 0
-19 -1372 0
-21 -1373 0
-22 -1375 0
-16 -1391 0
-19 -1394 0
-21 -1395 0
-22 -1396 0
-19 -1399 0
-20 -1400 0
-21 -1401 0
-22 -1403 0
-20 -1407 0
-21 -1408 0
-22 -1410 0
-20 -1428 0
-21 -1429 0
-22 -1430 0
-19 -1433 0
-20 -1434 0
-22 -1436 0
-19 -1446 0
-20 -1447 0
-22 -1448 0
-19 -1452 0
-20 -1453 0
-21 -1454 0
-22 -1456 0
-17 -1485 0
-18 -1486 0
-20 -1488 0
-21 -1489 0
-22 -1491 0
-16 -1508 0
-17 -1509 0
-20 -1511 0
-21 -1512 0
-22 -1513 0
-16 -1539 0
-17 -1540 0
-19 -1543 0
-20 -1544 0
-22 -1545 0
-17 -1547 0
-20 -1549 0
-22 -1551 0
-16 -1552 0
-18 -1553 0
-20 -1556 0
-22 -1558 0
-16 -1576 0
-18 -1577 0
-20 -1579 0
-22 -1580 0
-18 -1581 0
-20 -1584 0
-22 -1586 0
-17 -1600 0
-19 -1603 0
-20 -1604 0
-21 -1605 0
-22 -1606 0
-17 -1640 0
-20 -1643 0
-21 -1644 0
-22 -1645 0
-18 -1646 0
-19 -1650 0
-20 -1651 0
-21 -1652 0
-22 -1654 0
-18 -1669 0
-19 -1671 0
-20 -1672 0
-21 -1673 0
-22 -1674 0
-18 -1681 0
-19 -1683 0
-21 -1684 0
-22 -1686 0
-16 -1687 0
-19 -1690 0
-20 -1691 0
-21 -1692 0
-22 -1693 0
-16 -1708 0
-19 -1711 0
-20 -1712 0
-21 -1713 0
-22 -1715 0
-16 -1716 0
-20 -1720 0
-22 -1721 0
-19 -1725 0
-20 -1726 0
-22 -1728 0
-16 -1744 0
-20 -1747 0
-22 -1749 0
-19 -1753 0
-20 -1754 0
-22 -1755 0
-19 -1759 0
-21 -1760 0
-22 -1761 0
-16 -1774 0
-21 -1777 0
-22 -1779 0
-18 -1794 0
-20 -1797 0
-22 -1799 0
-20 -1802 0
-21 -1803 0
-22 -1805 0
-16 -1818 0
-19 -1820 0
-20 -1821 0
-21 -1822 0
-22 -1823 0
-19 -1833 0
-21 -1834 0
-22 -1835 0
-16 -1851 0
-17 -1852 0
-20 -1854 0
-21 -1855 0
-22 -1857 0
-16 -1865 0
-18 -1866 0
-20 -1867 0
-21 -1868 0
-22 -1870 0
-16 -1871 0
-20 -1874 0
-21 -1875 0
-22 -1877 0
-16 -1879 0
-19 -1881 0
-20 -1882 0
-22 -1884 0
-16 -1886 0
-20 -1889 0
-22 -1891 0
-16 -1899 0
-19 -1901 0
-21 -1902 0
-22 -1904 0
-16 -1919 0
-19 -1922 0
-21 -1923 0
-22 -1924 0
-16 -1925 0
-21 -1928 0
-22 -1930 0
-19 -1933 0
-21 -1934 0
-22 -1936 0
-19 -1945 0
-20 -1946 0
-21 -1947 0
-22 -1949 0
-24 -169 0
-25 -170 0
-26 -172 0
-27 -173 0
-28 -176 0
-29 -177 0
-24 -221 0
-25 -222 0
-26 -224 0
-27 -225 0
-29 -226 0
-24 -257 0
-25 -258 0
-26 -259 0
-27 -260 0
-29 -263 0
-25 -271 0
-26 -273 0
-27 -274 0
-29 -277 0
-25 -286 0
-26 -287 0
-27 -288 0
-29 -290 0
-24 -409 0
-26 -411 0
-27 -412 0
-29 -414 0
-24 -453 0
-26 -455 0
-29 -457 0
-25 -468 0
-26 -470 0
-29 -472 0
-25 -490 0
-26 -492 0
-29 -495 0
-24 -503 0
-26 -505 0
-27 -506 0
-28 -508 0
-29 -509 0
-25 -517 0
-26 -519 0
-27 -520 0
-28 -522 0
-29 -523 0
-25 -538 0
-26 -540 0
-27 -541 0
-28 -544 0
-29 -545 0
-25 -552 0
-26 -554 0
-28 -556 0
-29 -557 0
-25 -559 0
-26 -560 0
-28 -563 0
-29 -564 0
-24 -614 0
-27 -616 0
-28 -618 0
-29 -619 0
-24 -647 0
-26 -649 0
-28 -652 0
-29 -653 0
-25 -661 0
-28 -666 0
-29 -667 0
-25 -682 0
-28 -685 0
-29 -686 0
-25 -696 0
-26 -697 0
-29 -701 0
-29 -748 0
-26 -756 0
-27 -757 0
-29 -760 0
-26 -763 0
-27 -764 0
-29 -767 0
-26 -776 0
-28 -779 0
-29 -780 0
-24 -845 0
-25 -846 0
-27 -847 0
-28 -848 0
-29 -849 0
-24 -865 0
-25 -866 0
-27 -867 0
-28 -870 0
-29 -871 0
-25 -886 0
-27 -887 0
-28 -890 0
-29 -891 0
-23 -899 0
-24 -900 0
-27 -902 0
-28 -903 0
-29 -904 0
-23 -937 0
-24 -938 0
-26 -939 0
-27 -940 0
-28 -943 0
-29 -944 0
-24 -952 0
-27 -953 0
-28 -956 0
-29 -957 0
-23 -959 0
-25 -960 0
-27 -962 0
-28 -965 0
-29 -966 0
-23 -974 0
-25 -975 0
-27 -976 0
-28 -978 0
-29 -979 0
-23 -987 0
-24 -988 0
-26 -989 0
-27 -990 0
-29 -993 0
-23 -1001 0
-25 -1002 0
-27 -1004 0
-29 -1007 0
-23 -1015 0
-25 -1016 0
-26 -1017 0
-27 -1018 0
-29 -1020 0
-25 -1029 0
-27 -1030 0
-29 -1034 0
-24 -1042 0
-27 -1044 0
-28 -1048 0
-29 -1049 0
-24 -1088 0
-26 -1089 0
-28 -1091 0
-29 -1092 0
-25 -1100 0
-28 -1103 0
-29 -1104 0
-25 -1112 0
-28 -1115 0
-29 -1116 0
-24 -1123 0
-26 -1124 0
-27 -1125 0
-29 -1128 0
-25 -1135 0
-27 -1137 0
-29 -1140 0
-25 -1148 0
-27 -1149 0
-29 -1153 0
-25 -1161 0
-26 -1162 0
-29 -1166 0
-23 -1168 0
-27 -1170 0
-29 -1172 0
-23 -1180 0
-27 -1182 0
-29 -1185 0
-23 -1194 0
-26 -1196 0
-29 -1198 0
-29 -1210 0
-23 -1212 0
-26 -1213 0
-29 -1216 0
-23 -1224 0
-26 -1226 0
-27 -1227 0
-28 -1231 0
-29 -1232 0
-27 -1242 0
-28 -1245 0
-29 -1246 0
-23 -1248 0
-26 -1249 0
-27 -1250 0
-28 -1252 0
-29 -1253 0
-26 -1268 0
-28 -1271 0
-29 -1272 0
-24 -1273 0
-26 -1275 0
-27 -1276 0
-28 -1278 0
-29 -1279 0
-24 -1308 0
-28 -1312 0
-29 -1313 0
-25 -1320 0
-26 -1322 0
-28 -1324 0
-29 -1325 0
-25 -1336 0
-26 -1337 0
-28 -1340 0
-29 -1341 0
-23 -1349 0
-26 -1351 0
-27 -1352 0
-28 -1354 0
-29 -1355 0
-23 -1363 0
-28 -1367 0
-29 -1368 0
-26 -1378 0
-28 -1381 0
-29 -1382 0
-23 -1384 0
-28 -1388 0
-29 -1389 0
-26 -1406 0
-28 -1409 0
-29 -1410 0
-26 -1419 0
-28 -1422 0
-29 -1423 0
-27 -1432 0
-28 -1435 0
-29 -1436 0
-27 -1438 0
-28 -1441 0
-29 -1442 0
-24 -1478 0
-25 -1479 0
-26 -1480 0
-28 -1483 0
-29 -1484 0
-23 -1499 0
-24 -1500 0
-26 -1502 0
-27 -1503 0
-28 -1506 0
-29 -1507 0
-23 -1532 0
-24 -1533 0
-26 -1534 0
-28 -1537 0
-29 -1538 0
-24 -1547 0
-26 -1548 0
-28 -1550 0
-29 -1551 0
-23 -1552 0
-25 -1553 0
-26 -1555 0
-28 -1557 0
-29 -1558 0
-23 -1567 0
-25 -1568 0
-26 -1569 0
-28 -1573 0
-29 -1574 0
-25 -1587 0
-26 -1588 0
-29 -1592 0
-24 -1593 0
-26 -1595 0
-28 -1598 0
-29 -1599 0
-24 -1634 0
-26 -1635 0
-27 -1636 0
-28 -1638 0
-29 -1639 0
-25 -1646 0
-26 -1648 0
-27 -1649 0
-28 -1653 0
-29 -1654 0
-25 -1662 0
-26 -1663 0
-27 -1664 0
-28 -1666 0
-29 -1667 0
-25 -1675 0
-26 -1676 0
-29 -1680 0
-23 -1687 0
-26 -1689 0
-29 -1693 0
-23 -1702 0
-26 -1704 0
-29 -1706 0
-23 -1716 0
-26 -1718 0
-27 -1719 0
-29 -1721 0
-26 -1731 0
-27 -1732 0
-29 -1735 0
-23 -1737 0
-26 -1738 0
-27 -1739 0
-29 -1742 0
-26 -1751 0
-27 -1752 0
-29 -1755 0
-26 -1763 0
-28 -1766 0
-29 -1767 0
-23 -1768 0
-26 -1769 0
-28 -1772 0
-29 -1773 0
-26 -1781 0
-27 -1782 0
-28 -1786 0
-29 -1787 0
-25 -1788 0
-27 -1789 0
-28 -1792 0
-29 -1793 0
-27 -1807 0
-28 -1810 0
-29 -1811 0
-23 -1812 0
-26 -1813 0
-27 -1814 0
-28 -1816 0
-29 -1817 0
-27 -1825 0
-28 -1828 0
-29 -1829 0
-26 -1836 0
-27 -1837 0
-28 -1841 0
-29 -1842 0
-23 -1844 0
-24 -1845 0
-27 -1846 0
-28 -1849 0
-29 -1850 0
-23 -1865 0
-25 -1866 0
-28 -1869 0
-29 -1870 0
-23 -1871 0
-27 -1873 0
-28 -1876 0
-29 -1877 0
-23 -1879 0
-26 -1880 0
-28 -1883 0
-29 -1884 0
-23 -1893 0
-28 -1897 0
-29 -1898 0
-23 -1899 0
-28 -1903 0
-29 -1904 0
-23 -1912 0
-28 -1916 0
-29 -1917 0
-23 -1925 0
-26 -1926 0
-27 -1927 0
-28 -1929 0
-29 -1930 0
-27 -1938 0
-28 -1941 0
-29 -1942 0
-26 -1952 0
-27 -1953 0
-28 -1957 0
-29 -1958 0
-31 -160 0
-32 -161 0
-33 -163 0
-34 -164 0
-35 -167 0
-31 -257 0
-32 -258 0
-33 -259 0
-34 -261 0
-35 -263 0
-31 -264 0
-32 -265 0
-33 -266 0
-34 -267 0
-35 -270 0
-32 -271 0
-33 -273 0
-34 -275 0
-35 -277 0
-32 -279 0
-33 -280 0
-34 -281 0
-35 -284 0
-31 -348 0
-32 -349 0
-33 -351 0
-35 -353 0
-32 -396 0
-33 -397 0
-35 -401 0
-31 -403 0
-33 -405 0
-35 -407 0
-30 -452 0
-31 -453 0
-33 -455 0
-35 -457 0
-30 -458 0
-31 -459 0
-33 -461 0
-34 -463 0
-35 -466 0
-30 -467 0
-32 -468 0
-33 -470 0
-35 -472 0
-30 -480 0
-32 -482 0
-33 -484 0
-35 -488 0
-31 -503 0
-33 -505 0
-35 -509 0
-31 -510 0
-33 -512 0
-34 -513 0
-35 -516 0
-32 -517 0
-33 -519 0
-35 -523 0
-32 -531 0
-33 -533 0
-35 -536 0
-30 -558 0
-32 -559 0
-33 -560 0
-35 -564 0
-30 -565 0
-32 -566 0
-33 -567 0
-34 -569 0
-35 -571 0
-31 -647 0
-33 -649 0
-34 -650 0
-35 -653 0
-31 -654 0
-34 -657 0
-35 -660 0
-32 -661 0
-34 -663 0
-35 -667 0
-32 -675 0
-34 -678 0
-35 -680 0
-32 -696 0
-33 -697 0
-34 -698 0
-35 -701 0
-32 -702 0
-34 -704 0
-35 -707 0
-32 -729 0
-35 -734 0
-35 -742 0
-30 -761 0
-33 -763 0
-35 -767 0
-30 -768 0
-34 -771 0
-35 -774 0
-33 -776 0
-35 -780 0
-34 -783 0
-35 -786 0
-31 -839 0
-32 -840 0
-34 -841 0
-35 -843 0
-32 -886 0
-34 -888 0
-35 -891 0
-31 -893 0
-34 -896 0
-35 -897 0
-30 -936 0
-31 -938 0
-33 -939 0
-34 -941 0
-35 -944 0
-30 -945 0
-31 -947 0
-34 -948 0
-35 -950 0
-30 -958 0
-32 -960 0
-34 -963 0
-35 -966 0
-30 -967 0
-32 -969 0
-34 -970 0
-35 -972 0
-31 -988 0
-33 -989 0
-34 -991 0
-35 -993 0
-31 -995 0
-34 -997 0
-35 -1000 0
-32 -1002 0
-34 -1005 0
-35 -1007 0
-32 -1009 0
-34 -1011 0
-35 -1014 0
-30 -1021 0
-32 -1022 0
-33 -1023 0
-34 -1025 0
-35 -1027 0
-30 -1028 0
-32 -1029 0
-34 -1031 0
-35 -1034 0
-31 -1036 0
-35 -1040 0
-30 -1087 0
-31 -1088 0
-33 -1089 0
-35 -1092 0
-30 -1093 0
-31 -1094 0
-34 -1096 0
-35 -1098 0
-30 -1099 0
-32 -1100 0
-35 -1104 0
-30 -1105 0
-32 -1107 0
-35 -1110 0
-31 -1123 0
-33 -1124 0
-35 -1128 0
-31 -1129 0
-34 -1130 0
-35 -1134 0
-32 -1135 0
-35 -1140 0
-32 -1142 0
-35 -1146 0
-30 -1167 0
-35 -1172 0
-30 -1173 0
-35 -1178 0
-30 -1199 0
-33 -1201 0
-35 -1204 0
-30 -1205 0
-34 -1207 0
-35 -1210 0
-30 -1211 0
-33 -1213 0
-35 -1216 0
-30 -1217 0
-34 -1220 0
-35 -1222 0
-30 -1233 0
-33 -1235 0
-35 -1239 0
-30 -1240 0
-34 -1243 0
-35 -1246 0
-30 -1247 0
-33 -1249 0
-35 -1253 0
-30 -1254 0
-34 -1256 0
-35 -1260 0
-31 -1308 0
-34 -1309 0
-35 -1313 0
-31 -1314 0
-33 -1315 0
-34 -1317 0
-35 -1319 0
-32 -1320 0
-33 -1322 0
-34 -1323 0
-35 -1325 0
-32 -1327 0
-33 -1328 0
-34 -1330 0
-35 -1334 0
-33 -1351 0
-34 -1353 0
-35 -1355 0
-33 -1358 0
-34 -1359 0
-35 -1362 0
-30 -1369 0
-34 -1372 0
-35 -1375 0
-30 -1376 0
-33 -1378 0
-34 -1379 0
-35 -1382 0
-30 -1383 0
-34 -1385 0
-35 -1389 0
-30 -1390 0
-33 -1392 0
-34 -1394 0
-35 -1396 0
-33 -1406 0
-35 -1410 0
-33 -1413 0
-35 -1416 0
-30 -1437 0
-35 -1442 0
-30 -1443 0
-33 -1444 0
-34 -1446 0
-35 -1448 0
-33 -1450 0
-34 -1452 0
-35 -1456 0
-31 -1533 0
-33 -1534 0
-35 -1538 0
-31 -1540 0
-33 -1541 0
-34 -1543 0
-35 -1545 0
-32 -1553 0
-33 -1555 0
-35 -1558 0
-32 -1560 0
-33 -1561 0
-35 -1565 0
-32 -1581 0
-33 -1582 0
-35 -1586 0
-32 -1587 0
-33 -1588 0
-34 -1589 0
-35 -1592 0
-31 -1634 0
-33 -1635 0
-34 -1637 0
-35 -1639 0
-31 -1640 0
-33 -1641 0
-35 -1645 0
-32 -1646 0
-33 -1648 0
-34 -1650 0
-35 -1654 0
-32 -1656 0
-33 -1657 0
-34 -1659 0
-35 -1660 0
-33 -1689 0
-34 -1690 0
-35 -1693 0
-33 -1696 0
-34 -1698 0
-35 -1700 0
-30 -1722 0
-33 -1724 0
-34 -1725 0
-35 -1728 0
-30 -1729 0
-33 -1731 0
-35 -1735 0
-30 -1736 0
-33 -1738 0
-34 -1740 0
-35 -1742 0
-30 -1743 0
-33 -1745 0
-35 -1749 0
-33 -1757 0
-34 -1759 0
-35 -1761 0
-33 -1763 0
-35 -1767 0
-33 -1769 0
-34 -1770 0
-35 -1773 0
-33 -1775 0
-35 -1779 0
-33 -1801 0
-35 -1805 0
-34 -1808 0
-35 -1811 0
-33 -1813 0
-35 -1817 0
-34 -1820 0
-35 -1823 0
-33 -1836 0
-34 -1838 0
-35 -1842 0
-32 -1866 0
-35 -1870 0
-35 -1877 0
-30 -1885 0
-33 -1887 0
-35 -1891 0
-30 -1892 0
-34 -1894 0
-35 -1898 0
-34 -1901 0
-35 -1904 0
-34 -1907 0
-35 -1910 0
-30 -1931 0
-33 -1932 0
-34 -1933 0
-35 -1936 0
-30 -1937 0
-35 -1942 0
-33 -1943 0
-34 -1945 0
-35 -1949 0
-33 -1952 0
-34 -1954 0
-35 -1958 0
-37 -153 0
-40 -154 0
-41 -155 0
-42 -158 0
-37 -215 0
-40 -216 0
-41 -218 0
-42 -220 0
-37 -257 0
-38 -258 0
-40 -259 0
-41 -261 0
-42 -263 0
-37 -264 0
-38 -265 0
-40 -266 0
-41 -267 0
-42 -270 0
-37 -453 0
-39 -454 0
-40 -455 0
-42 -457 0
-37 -459 0
-39 -460 0
-40 -461 0
-41 -463 0
-42 -466 0
-37 -474 0
-40 -475 0
-42 -479 0
-37 -503 0
-39 -504 0
-40 -505 0
-42 -509 0
-37 -510 0
-39 -511 0
-40 -512 0
-41 -513 0
-42 -516 0
-37 -525 0
-40 -526 0
-42 -529 0
-38 -552 0
-39 -553 0
-40 -554 0
-41 -555 0
-42 -557 0
-38 -559 0
-40 -560 0
-42 -564 0
-38 -566 0
-40 -567 0
-41 -569 0
-42 -571 0
-37 -647 0
-39 -648 0
-40 -649 0
-41 -650 0
-42 -653 0
-37 -654 0
-39 -655 0
-41 -657 0
-42 -660 0
-37 -669 0
-41 -671 0
-42 -673 0
-38 -696 0
-40 -697 0
-41 -698 0
-42 -701 0
-38 -702 0
-41 -704 0
-42 -707 0
-39 -755 0
-40 -756 0
-41 -758 0
-42 -760 0
-39 -762 0
-40 -763 0
-42 -767 0
-39 -769 0
-41 -771 0
-42 -774 0
-39 -775 0
-40 -776 0
-42 -780 0
-39 -781 0
-41 -783 0
-42 -786 0
-36 -937 0
-37 -938 0
-40 -939 0
-41 -941 0
-42 -944 0
-36 -946 0
-37 -947 0
-41 -948 0
-42 -950 0
-37 -952 0
-41 -954 0
-42 -957 0
-36 -987 0
-37 -988 0
-40 -989 0
-41 -991 0
-42 -993 0
-36 -994 0
-37 -995 0
-41 -997 0
-42 -1000 0
-36 -1015 0
-38 -1016 0
-40 -1017 0
-41 -1019 0
-42 -1020 0
-38 -1022 0
-40 -1023 0
-41 -1025 0
-42 -1027 0
-38 -1029 0
-41 -1031 0
-42 -1034 0
-37 -1088 0
-40 -1089 0
-42 -1092 0
-37 -1094 0
-41 -1096 0
-42 -1098 0
-37 -1123 0
-40 -1124 0
-42 -1128 0
-37 -1129 0
-41 -1130 0
-42 -1134 0
-38 -1161 0
-40 -1162 0
-41 -1163 0
-42 -1166 0
-36 -1194 0
-39 -1195 0
-40 -1196 0
-41 -1197 0
-42 -1198 0
-39 -1200 0
-40 -1201 0
-42 -1204 0
-39 -1206 0
-41 -1207 0
-42 -1210 0
-36 -1212 0
-40 -1213 0
-42 -1216 0
-36 -1218 0
-41 -1220 0
-42 -1222 0
-36 -1224 0
-39 -1225 0
-40 -1226 0
-41 -1228 0
-42 -1232 0
-39 -1234 0
-40 -1235 0
-42 -1239 0
-39 -1241 0
-41 -1243 0
-42 -1246 0
-36 -1248 0
-40 -1249 0
-42 -1253 0
-36 -1255 0
-41 -1256 0
-42 -1260 0
-37 -1308 0
-41 -1309 0
-42 -1313 0
-37 -1314 0
-40 -1315 0
-41 -1317 0
-42 -1319 0
-36 -1363 0
-39 -1364 0
-41 -1365 0
-42 -1368 0
-39 -1370 0
-41 -1372 0
-42 -1375 0
-39 -1377 0
-40 -1378 0
-41 -1379 0
-42 -1382 0
-36 -1384 0
-41 -1385 0
-42 -1389 0
-36 -1391 0
-40 -1392 0
-41 -1394 0
-42 -1396 0
-39 -1431 0
-41 -1433 0
-42 -1436 0
-42 -1442 0
-40 -1444 0
-41 -1446 0
-42 -1448 0
-40 -1450 0
-41 -1452 0
-42 -1456 0
-36 -1532 0
-37 -1533 0
-40 -1534 0
-42 -1538 0
-36 -1539 0
-37 -1540 0
-40 -1541 0
-41 -1543 0
-42 -1545 0
-37 -1547 0
-40 -1548 0
-42 -1551 0
-38 -1581 0
-40 -1582 0
-42 -1586 0
-38 -1587 0
-40 -1588 0
-41 -1589 0
-42 -1592 0
-37 -1634 0
-40 -1635 0
-41 -1637 0
-42 -1639 0
-37 -1640 0
-40 -1641 0
-42 -1645 0
-36 -1716 0
-39 -1717 0
-40 -1718 0
-42 -1721 0
-39 -1723 0
-40 -1724 0
-41 -1725 0
-42 -1728 0
-39 -1730 0
-40 -1731 0
-42 -1735 0
-36 -1737 0
-40 -1738 0
-41 -1740 0
-42 -1742 0
-36 -1744 0
-40 -1745 0
-42 -1749 0
-40 -1751 0
-41 -1753 0
-42 -1755 0
-39 -1756 0
-40 -1757 0
-41 -1759 0
-42 -1761 0
-39 -1762 0
-40 -1763 0
-42 -1767 0
-36 -1768 0
-40 -1769 0
-41 -1770 0
-42 -1773 0
-36 -1774 0
-40 -1775 0
-42 -1779 0
-39 -1800 0
-40 -1801 0
-42 -1805 0
-39 -1806 0
-41 -1808 0
-42 -1811 0
-36 -1812 0
-40 -1813 0
-42 -1817 0
-36 -1818 0
-41 -1820 0
-42 -1823 0
-40 -1836 0
-41 -1838 0
-42 -1842 0
-36 -1879 0
-40 -1880 0
-41 -1881 0
-42 -1884 0
-36 -1886 0
-40 -1887 0
-42 -1891 0
-36 -1893 0
-41 -1894 0
-42 -1898 0
-36 -1925 0
-40 -1926 0
-42 -1930 0
-40 -1932 0
-41 -1933 0
-42 -1936 0
-42 -1942 0
-40 -1943 0
-41 -1945 0
-42 -1949 0
-40 -1952 0
-41 -1954 0
-42 -1958 0
-43 -87 0
-44 -88 0
-45 -89 0
-46 -90 0
-47 -91 0
-48 -92 0
-43 -145 0
-44 -146 0
-45 -148 0
-47 -150 0
-48 -151 0
-43 -227 0
-44 -228 0
-46 -233 0
-47 -234 0
-48 -235 0
-43 -246 0
-44 -247 0
-47 -249 0
-48 -250 0
-44 -252 0
-47 -255 0
-48 -256 0
-44 -292 0
-47 -295 0
-48 -296 0
-43 -339 0
-44 -340 0
-45 -342 0
-46 -345 0
-47 -346 0
-48 -347 0
-43 -382 0
-44 -383 0
-46 -386 0
-47 -387 0
-48 -388 0
-44 -389 0
-46 -393 0
-47 -394 0
-48 -395 0
-43 -416 0
-46 -419 0
-47 -420 0
-48 -421 0
-43 -434 0
-47 -437 0
-48 -438 0
-43 -440 0
-47 -443 0
-48 -444 0
-44 -447 0
-47 -450 0
-48 -451 0
-44 -497 0
-47 -501 0
-48 -502 0
-43 -510 0
-45 -512 0
-46 -514 0
-47 -515 0
-48 -516 0
-44 -517 0
-45 -519 0
-46 -521 0
-47 -522 0
-48 -523 0
-43 -525 0
-45 -526 0
-47 -528 0
-48 -529 0
-44 -531 0
-45 -533 0
-47 -535 0
-48 -536 0
-44 -538 0
-45 -540 0
-47 -544 0
-48 -545 0
-44 -566 0
-45 -567 0
-47 -570 0
-48 -571 0
-43 -587 0
-44 -588 0
-45 -590 0
-48 -592 0
-43 -620 0
-45 -622 0
-48 -625 0
-43 -633 0
-45 -635 0
-46 -638 0
-47 -639 0
-48 -640 0
-44 -642 0
-45 -644 0
-46 -645 0
-48 -646 0
-44 -688 0
-45 -690 0
-46 -694 0
-48 -695 0
-44 -702 0
-46 -705 0
-47 -706 0
-48 -707 0
-43 -715 0
-45 -717 0
-47 -720 0
-48 -721 0
-44 -722 0
-45 -724 0
-48 -728 0
-46 -740 0
-47 -741 0
-48 -742 0
-46 -747 0
-48 -748 0
-46 -772 0
-47 -773 0
-48 -774 0
-45 -776 0
-46 -778 0
-47 -779 0
-48 -780 0
-43 -833 0
-44 -834 0
-45 -835 0
-46 -836 0
-48 -837 0
-43 -872 0
-44 -873 0
-45 -874 0
-46 -877 0
-48 -878 0
-44 -880 0
-45 -881 0
-46 -884 0
-48 -885 0
-43 -907 0
-45 -909 0
-46 -913 0
-48 -914 0
-43 -924 0
-45 -925 0
-47 -927 0
-48 -928 0
-44 -931 0
-45 -933 0
-48 -935 0
-44 -982 0
-45 -983 0
-48 -986 0
-43 -995 0
-46 -998 0
-47 -999 0
-48 -1000 0
-44 -1002 0
-46 -1006 0
-48 -1007 0
-44 -1009 0
-47 -1013 0
-48 -1014 0
-44 -1029 0
-46 -1033 0
-48 -1034 0
-43 -1051 0
-45 -1053 0
-46 -1054 0
-48 -1055 0
-43 -1064 0
-45 -1065 0
-46 -1068 0
-47 -1069 0
-48 -1070 0
-43 -1072 0
-45 -1073 0
-46 -1076 0
-48 -1077 0
-44 -1080 0
-45 -1082 0
-46 -1085 0
-48 -1086 0
-44 -1118 0
-45 -1119 0
-46 -1121 0
-48 -1122 0
-43 -1129 0
-46 -1132 0
-47 -1133 0
-48 -1134 0
-44 -1135 0
-46 -1139 0
-48 -1140 0
-44 -1142 0
-46 -1144 0
-47 -1145 0
-48 -1146 0
-44 -1148 0
-46 -1152 0
-48 -1153 0
-46 -1171 0
-48 -1172 0
-47 -1177 0
-48 -1178 0
-48 -1185 0
-46 -1209 0
-48 -1210 0
-47 -1221 0
-48 -1222 0
-45 -1226 0
-46 -1230 0
-47 -1231 0
-48 -1232 0
-45 -1235 0
-46 -1238 0
-48 -1239 0
-45 -1249 0
-47 -1252 0
-48 -1253 0
-45 -1268 0
-46 -1270 0
-47 -1271 0
-48 -1272 0
-43 -1280 0
-45 -1282 0
-46 -1284 0
-47 -1285 0
-48 -1286 0
-43 -1295 0
-45 -1296 0
-48 -1300 0
-44 -1302 0
-45 -1304 0
-47 -1306 0
-48 -1307 0
-44 -1343 0
-45 -1344 0
-47 -1347 0
-48 -1348 0
-45 -1351 0
-47 -1354 0
-48 -1355 0
-45 -1358 0
-46 -1361 0
-48 -1362 0
-45 -1378 0
-47 -1381 0
-48 -1382 0
-45 -1392 0
-46 -1395 0
-48 -1396 0
-45 -1406 0
-46 -1408 0
-47 -1409 0
-48 -1410 0
-45 -1413 0
-48 -1416 0
-45 -1419 0
-47 -1422 0
-48 -1423 0
-45 -1444 0
-48 -1448 0
-43 -1470 0
-44 -1471 0
-45 -1472 0
-46 -1476 0
-48 -1477 0
-43 -1509 0
-46 -1512 0
-48 -1513 0
-43 -1521 0
-47 -1524 0
-48 -1525 0
-44 -1527 0
-48 -1531 0
-44 -1577 0
-48 -1580 0
-44 -1587 0
-45 -1588 0
-46 -1591 0
-48 -1592 0
-43 -1600 0
-46 -1605 0
-48 -1606 0
-43 -1615 0
-46 -1618 0
-47 -1619 0
-48 -1620 0
-43 -1622 0
-46 -1625 0
-48 -1626 0
-44 -1628 0
-46 -1632 0
-48 -1633 0
-44 -1669 0
-46 -1673 0
-48 -1674 0
-44 -1675 0
-45 -1676 0
-46 -1679 0
-48 -1680 0
-45 -1689 0
-46 -1692 0
-48 -1693 0
-45 -1696 0
-47 -1699 0
-48 -1700 0
-45 -1704 0
-48 -1706 0
-45 -1731 0
-46 -1734 0
-48 -1735 0
-45 -1745 0
-47 -1748 0
-48 -1749 0
-45 -1751 0
-48 -1755 0
-45 -1757 0
-46 -1760 0
-48 -1761 0
-45 -1769 0
-47 -1772 0
-48 -1773 0
-45 -1781 0
-46 -1785 0
-47 -1786 0
-48 -1787 0
-44 -1794 0
-45 -1795 0
-47 -1798 0
-48 -1799 0
-47 -1810 0
-48 -1811 0
-46 -1822 0
-48 -1823 0
-47 -1828 0
-48 -1829 0
-43 -1852 0
-45 -1853 0
-46 -1855 0
-47 -1856 0
-48 -1857 0
-44 -1859 0
-45 -1860 0
-46 -1862 0
-47 -1863 0
-48 -1864 0
-46 -1875 0
-47 -1876 0
-48 -1877 0
-46 -1896 0
-47 -1897 0
-48 -1898 0
-46 -1902 0
-47 -1903 0
-48 -1904 0
-46 -1909 0
-48 -1910 0
-46 -1915 0
-47 -1916 0
-48 -1917 0
-46 -1940 0
-47 -1941 0
-48 -1942 0
-45 -1943 0
-46 -1947 0
-47 -1948 0
-48 -1949 0
-45 -1952 0
-46 -1956 0
-47 -1957 0
-48 -1958 0
-49 -81 0
-50 -82 0
-51 -83 0
-52 -84 0
-53 -85 0
-54 -86 0
-49 -136 0
-50 -137 0
-51 -139 0
-52 -140 0
-54 -142 0
-49 -221 0
-50 -222 0
-51 -225 0
-54 -226 0
-49 -237 0
-50 -238 0
-51 -240 0
-53 -241 0
-54 -244 0
-50 -252 0
-51 -254 0
-54 -256 0
-50 -286 0
-51 -288 0
-54 -290 0
-49 -332 0
-50 -333 0
-52 -335 0
-53 -336 0
-54 -337 0
-49 -375 0
-50 -376 0
-52 -378 0
-53 -379 0
-54 -381 0
-50 -389 0
-52 -391 0
-53 -392 0
-54 -395 0
-49 -409 0
-51 -412 0
-52 -413 0
-54 -414 0
-49 -424 0
-52 -427 0
-53 -428 0
-54 -431 0
-49 -440 0
-52 -442 0
-54 -444 0
-50 -447 0
-52 -449 0
-54 -451 0
-50 -490 0
-52 -493 0
-54 -495 0
-49 -503 0
-51 -506 0
-53 -507 0
-54 -509 0
-50 -517 0
-51 -520 0
-54 -523 0
-49 -525 0
-53 -527 0
-54 -529 0
-50 -531 0
-53 -534 0
-54 -536 0
-50 -547 0
-54 -551 0
-50 -559 0
-53 -561 0
-54 -564 0
-49 -578 0
-50 -579 0
-52 -582 0
-53 -583 0
-54 -586 0
-49 -614 0
-51 -616 0
-54 -619 0
-49 -627 0
-53 -629 0
-54 -631 0
-50 -642 0
-54 -646 0
-50 -682 0
-54 -686 0
-50 -696 0
-52 -698 0
-53 -699 0
-54 -701 0
-49 -708 0
-51 -710 0
-52 -711 0
-53 -712 0
-54 -714 0
-50 -722 0
-51 -725 0
-52 -726 0
-53 -727 0
-54 -728 0
-51 -738 0
-53 -739 0
-54 -742 0
-51 -752 0
-54 -754 0
-51 -764 0
-53 -765 0
-54 -767 0
-51 -782 0
-52 -783 0
-53 -784 0
-54 -786 0
-49 -823 0
-50 -824 0
-51 -826 0
-52 -827 0
-53 -828 0
-54 -830 0
-49 -865 0
-50 -866 0
-51 -867 0
-53 -868 0
-54 -871 0
-50 -880 0
-51 -882 0
-53 -883 0
-54 -885 0
-49 -900 0
-51 -902 0
-54 -904 0
-49 -917 0
-51 -918 0
-53 -919 0
-54 -921 0
-50 -931 0
-51 -934 0
-54 -935 0
-50 -975 0
-51 -976 0
-54 -979 0
-49 -988 0
-51 -990 0
-52 -991 0
-53 -992 0
-54 -993 0
-50 -1002 0
-51 -1004 0
-52 -1005 0
-54 -1007 0
-50 -1009 0
-51 -1010 0
-52 -1011 0
-53 -1012 0
-54 -1014 0
-50 -1022 0
-51 -1024 0
-52 -1025 0
-54 -1027 0
-49 -1042 0
-51 -1044 0
-52 -1045 0
-53 -1046 0
-54 -1049 0
-49 -1058 0
-52 -1059 0
-53 -1060 0
-54 -1061 0
-49 -1072 0
-52 -1074 0
-53 -1075 0
-54 -1077 0
-50 -1080 0
-52 -1083 0
-53 -1084 0
-54 -1086 0
-50 -1112 0
-52 -1113 0
-53 -1114 0
-54 -1116 0
-49 -1123 0
-51 -1125 0
-53 -1126 0
-54 -1128 0
-50 -1135 0
-51 -1137 0
-53 -1138 0
-54 -1140 0
-50 -1142 0
-53 -1143 0
-54 -1146 0
-50 -1155 0
-53 -1157 0
-54 -1160 0
-51 -1170 0
-54 -1172 0
-53 -1176 0
-54 -1178 0
-54 -1192 0
-51 -1202 0
-54 -1204 0
-53 -1214 0
-54 -1216 0
-51 -1227 0
-52 -1228 0
-53 -1229 0
-54 -1232 0
-51 -1242 0
-52 -1243 0
-54 -1246 0
-52 -1256 0
-53 -1257 0
-54 -1260 0
-51 -1263 0
-52 -1264 0
-53 -1265 0
-54 -1266 0
-49 -1273 0
-51 -1276 0
-53 -1277 0
-54 -1279 0
-49 -1288 0
-53 -1290 0
-54 -1293 0
-50 -1302 0
-53 -1305 0
-54 -1307 0
-50 -1336 0
-53 -1338 0
-54 -1341 0
-51 -1352 0
-52 -1353 0
-54 -1355 0
-52 -1359 0
-53 -1360 0
-54 -1362 0
-51 -1371 0
-52 -1372 0
-54 -1375 0
-52 -1385 0
-53 -1386 0
-54 -1389 0
-51 -1398 0
-52 -1399 0
-53 -1400 0
-54 -1403 0
-53 -1407 0
-54 -1410 0
-51 -1414 0
-53 -1415 0
-54 -1416 0
-51 -1427 0
-53 -1428 0
-54 -1430 0
-51 -1438 0
-53 -1439 0
-54 -1442 0
-51 -1451 0
-52 -1452 0
-53 -1453 0
-54 -1456 0
-49 -1464 0
-50 -1465 0
-52 -1466 0
-54 -1468 0
-49 -1500 0
-51 -1503 0
-52 -1504 0
-53 -1505 0
-54 -1507 0
-49 -1515 0
-52 -1517 0
-54 -1519 0
-50 -1527 0
-52 -1529 0
-53 -1530 0
-54 -1531 0
-50 -1568 0
-52 -1570 0
-53 -1571 0
-54 -1574 0
-50 -1581 0
-51 -1583 0
-53 -1584 0
-54 -1586 0
-49 -1593 0
-52 -1596 0
-54 -1599 0
-49 -1608 0
-51 -1610 0
-52 -1611 0
-53 -1612 0
-54 -1613 0
-49 -1622 0
-51 -1623 0
-52 -1624 0
-54 -1626 0
-50 -1628 0
-51 -1630 0
-52 -1631 0
-54 -1633 0
-50 -1662 0
-51 -1664 0
-52 -1665 0
-54 -1667 0
-50 -1681 0
-51 -1682 0
-52 -1683 0
-54 -1686 0
-52 -1690 0
-53 -1691 0
-54 -1693 0
-51 -1697 0
-52 -1698 0
-54 -1700 0
-51 -1710 0
-52 -1711 0
-53 -1712 0
-54 -1715 0
-52 -1725 0
-53 -1726 0
-54 -1728 0
-51 -1739 0
-52 -1740 0
-54 -1742 0
-51 -1752 0
-52 -1753 0
-53 -1754 0
-54 -1755 0
-53 -1764 0
-54 -1767 0
-51 -1776 0
-54 -1779 0
-50 -1788 0
-51 -1789 0
-52 -1790 0
-54 -1793 0
-53 -1802 0
-54 -1805 0
-51 -1814 0
-54 -1817 0
-51 -1832 0
-52 -1833 0
-54 -1835 0
-51 -1837 0
-52 -1838 0
-53 -1839 0
-54 -1842 0
-49 -1845 0
-51 -1846 0
-52 -1847 0
-54 -1850 0
-50 -1859 0
-52 -1861 0
-54 -1864 0
-51 -1873 0
-53 -1874 0
-54 -1877 0
-51 -1888 0
-53 -1889 0
-54 -1891 0
-52 -1901 0
-54 -1904 0
-51 -1906 0
-52 -1907 0
-53 -1908 0
-54 -1910 0
-51 -1921 0
-52 -1922 0
-54 -1924 0
-52 -1933 0
-54 -1936 0
-55 -123 0
-59 -125 0
-60 -126 0
-55 -215 0
-59 -219 0
-60 -220 0
-55 -237 0
-56 -238 0
-58 -241 0
-59 -243 0
-60 -244 0
-55 -246 0
-56 -247 0
-59 -249 0
-60 -250 0
-55 -316 0
-58 -319 0
-59 -320 0
-60 -321 0
-55 -375 0
-56 -376 0
-58 -379 0
-59 -380 0
-60 -381 0
-55 -382 0
-56 -383 0
-58 -385 0
-59 -387 0
-60 -388 0
-55 -424 0
-57 -425 0
-58 -428 0
-59 -430 0
-60 -431 0
-55 -434 0
-57 -435 0
-59 -437 0
-60 -438 0
-55 -440 0
-57 -441 0
-59 -443 0
-60 -444 0
-55 -474 0
-59 -478 0
-60 -479 0
-55 -503 0
-57 -504 0
-58 -507 0
-59 -508 0
-60 -509 0
-55 -510 0
-57 -511 0
-59 -515 0
-60 -516 0
-56 -531 0
-57 -532 0
-58 -534 0
-59 -535 0
-60 -536 0
-56 -538 0
-57 -539 0
-58 -543 0
-59 -544 0
-60 -545 0
-56 -547 0
-57 -548 0
-59 -550 0
-60 -551 0
-56 -559 0
-58 -561 0
-59 -563 0
-60 -564 0
-56 -566 0
-59 -570 0
-60 -571 0
-55 -572 0
-58 -575 0
-60 -577 0
-55 -627 0
-57 -628 0
-58 -629 0
-60 -631 0
-55 -633 0
-57 -634 0
-59 -639 0
-60 -640 0
-55 -669 0
-60 -673 0
-56 -696 0
-58 -699 0
-60 -701 0
-56 -702 0
-59 -706 0
-60 -707 0
-55 -708 0
-57 -709 0
-58 -712 0
-60 -714 0
-55 -715 0
-57 -716 0
-58 -719 0
-59 -720 0
-60 -721 0
-57 -737 0
-58 -739 0
-59 -741 0
-60 -742 0
-57 -744 0
-58 -746 0
-60 -748 0
-57 -750 0
-59 -753 0
-60 -754 0
-57 -762 0
-58 -765 0
-60 -767 0
-57 -769 0
-59 -773 0
-60 -774 0
-55 -917 0
-58 -919 0
-60 -921 0
-55 -924 0
-59 -927 0
-60 -928 0
-55 -988 0
-58 -992 0
-60 -993 0
-55 -995 0
-59 -999 0
-60 -1000 0
-56 -1009 0
-58 -1012 0
-59 -1013 0
-60 -1014 0
-55 -1058 0
-58 -1060 0
-60 -1061 0
-55 -1064 0
-58 -1067 0
-59 -1069 0
-60 -1070 0
-55 -1072 0
-58 -1075 0
-60 -1077 0
-55 -1123 0
-58 -1126 0
-60 -1128 0
-55 -1129 0
-58 -1131 0
-59 -1133 0
-60 -1134 0
-56 -1142 0
-58 -1143 0
-59 -1145 0
-60 -1146 0
-56 -1148 0
-58 -1151 0
-60 -1153 0
-56 -1155 0
-58 -1157 0
-59 -1159 0
-60 -1160 0
-57 -1175 0
-58 -1176 0
-59 -1177 0
-60 -1178 0
-57 -1181 0
-58 -1184 0
-60 -1185 0
-57 -1188 0
-59 -1191 0
-60 -1192 0
-58 -1214 0
-60 -1216 0
-59 -1221 0
-60 -1222 0
-57 -1225 0
-58 -1229 0
-59 -1231 0
-60 -1232 0
-57 -1234 0
-58 -1237 0
-60 -1239 0
-57 -1241 0
-59 -1245 0
-60 -1246 0
-58 -1265 0
-60 -1266 0
-59 -1271 0
-60 -1272 0
-55 -1288 0
-58 -1290 0
-59 -1292 0
-60 -1293 0
-55 -1295 0
-58 -1299 0
-60 -1300 0
-57 -1357 0
-58 -1360 0
-60 -1362 0
-58 -1386 0
-59 -1388 0
-60 -1389 0
-60 -1396 0
-58 -1400 0
-59 -1402 0
-60 -1403 0
-57 -1412 0
-58 -1415 0
-60 -1416 0
-57 -1418 0
-58 -1421 0
-59 -1422 0
-60 -1423 0
-57 -1425 0
-58 -1428 0
-60 -1430 0
-58 -1439 0
-59 -1441 0
-60 -1442 0
-58 -1447 0
-60 -1448 0
-55 -1515 0
-60 -1519 0
-55 -1521 0
-58 -1523 0
-59 -1524 0
-60 -1525 0
-55 -1608 0
-58 -1612 0
-60 -1613 0
-55 -1615 0
-59 -1619 0
-60 -1620 0
-55 -1622 0
-60 -1626 0
-56 -1675 0
-58 -1678 0
-60 -1680 0
-56 -1681 0
-59 -1685 0
-60 -1686 0
-57 -1695 0
-59 -1699 0
-60 -1700 0
-57 -1703 0
-60 -1706 0
-57 -1709 0
-58 -1712 0
-59 -1714 0
-60 -1715 0
-60 -1742 0
-58 -1747 0
-59 -1748 0
-60 -1749 0
-58 -1754 0
-60 -1755 0
-57 -1756 0
-60 -1761 0
-57 -1762 0
-58 -1764 0
-59 -1766 0
-60 -1767 0
-58 -1784 0
-59 -1786 0
-60 -1787 0
-59 -1816 0
-60 -1817 0
-58 -1821 0
-60 -1823 0
-57 -1824 0
-58 -1827 0
-59 -1828 0
-60 -1829 0
-57 -1830 0
-60 -1835 0
-58 -1839 0
-59 -1841 0
-60 -1842 0
-58 -1908 0
-60 -1910 0
-58 -1914 0
-59 -1916 0
-60 -1917 0
-60 -1924 0
-58 -1946 0
-59 -1948 0
-60 -1949 0
-62 -109 0
-64 -111 0
-66 -113 0
-62 -215 0
-64 -217 0
-66 -220 0
-62 -221 0
-63 -222 0
-64 -225 0
-66 -226 0
-62 -227 0
-63 -228 0
-64 -230 0
-65 -233 0
-66 -235 0
-62 -409 0
-64 -412 0
-66 -414 0
-62 -416 0
-65 -419 0
-66 -421 0
-62 -440 0
-66 -444 0
-62 -503 0
-64 -506 0
-66 -509 0
-62 -510 0
-65 -514 0
-66 -516 0
-63 -517 0
-64 -520 0
-65 -521 0
-66 -523 0
-62 -525 0
-66 -529 0
-63 -538 0
-64 -541 0
-66 -545 0
-63 -547 0
-65 -549 0
-66 -551 0
-62 -614 0
-64 -616 0
-65 -617 0
-66 -619 0
-62 -620 0
-66 -625 0
-65 -747 0
-66 -748 0
-64 -752 0
-66 -754 0
-65 -778 0
-66 -780 0
-64 -782 0
-66 -786 0
-62 -800 0
-64 -802 0
-65 -803 0
-66 -805 0
-62 -865 0
-63 -866 0
-64 -867 0
-65 -869 0
-66 -871 0
-62 -872 0
-63 -873 0
-64 -875 0
-65 -877 0
-66 -878 0
-61 -899 0
-62 -900 0
-64 -902 0
-66 -904 0
-61 -906 0
-62 -907 0
-64 -910 0
-65 -913 0
-66 -914 0
-62 -952 0
-64 -953 0
-66 -957 0
-61 -987 0
-62 -988 0
-64 -990 0
-66 -993 0
-61 -994 0
-62 -995 0
-64 -996 0
-65 -998 0
-66 -1000 0
-61 -1001 0
-63 -1002 0
-64 -1004 0
-65 -1006 0
-66 -1007 0
-63 -1022 0
-64 -1024 0
-66 -1027 0
-63 -1029 0
-64 -1030 0
-65 -1033 0
-66 -1034 0
-62 -1042 0
-64 -1044 0
-65 -1047 0
-66 -1049 0
-62 -1051 0
-65 -1054 0
-66 -1055 0
-62 -1072 0
-65 -1076 0
-66 -1077 0
-62 -1123 0
-64 -1125 0
-65 -1127 0
-66 -1128 0
-62 -1129 0
-65 -1132 0
-66 -1134 0
-63 -1135 0
-64 -1137 0
-65 -1139 0
-66 -1140 0
-63 -1148 0
-64 -1149 0
-65 -1152 0
-66 -1153 0
-63 -1155 0
-65 -1158 0
-66 -1160 0
-61 -1168 0
-64 -1170 0
-65 -1171 0
-66 -1172 0
-61 -1180 0
-64 -1182 0
-66 -1185 0
-61 -1187 0
-65 -1190 0
-66 -1192 0
-64 -1202 0
-66 -1204 0
-65 -1209 0
-66 -1210 0
-61 -1224 0
-64 -1227 0
-65 -1230 0
-66 -1232 0
-61 -1248 0
-64 -1250 0
-66 -1253 0
-61 -1255 0
-65 -1258 0
-66 -1260 0
-64 -1263 0
-66 -1266 0
-65 -1270 0
-66 -1272 0
-62 -1273 0
-64 -1276 0
-66 -1279 0
-62 -1280 0
-65 -1284 0
-66 -1286 0
-61 -1349 0
-64 -1352 0
-66 -1355 0
-64 -1371 0
-65 -1373 0
-66 -1375 0
-66 -1382 0
-64 -1398 0
-65 -1401 0
-66 -1403 0
-65 -1408 0
-66 -1410 0
-66 -1423 0
-64 -1427 0
-65 -1429 0
-66 -1430 0
-64 -1451 0
-65 -1454 0
-66 -1456 0
-62 -1457 0
-65 -1460 0
-66 -1462 0
-61 -1499 0
-62 -1500 0
-64 -1503 0
-66 -1507 0
-61 -1508 0
-62 -1509 0
-65 -1512 0
-66 -1513 0
-62 -1547 0
-66 -1551 0
-63 -1581 0
-64 -1583 0
-66 -1586 0
-63 -1587 0
-65 -1591 0
-66 -1592 0
-62 -1593 0
-65 -1597 0
-66 -1599 0
-62 -1600 0
-64 -1602 0
-65 -1605 0
-66 -1606 0
-62 -1622 0
-64 -1623 0
-65 -1625 0
-66 -1626 0
-63 -1675 0
-65 -1679 0
-66 -1680 0
-63 -1681 0
-64 -1682 0
-65 -1684 0
-66 -1686 0
-61 -1687 0
-65 -1692 0
-66 -1693 0
-61 -1702 0
-66 -1706 0
-61 -1708 0
-64 -1710 0
-65 -1713 0
-66 -1715 0
-66 -1728 0
-64 -1732 0
-65 -1734 0
-66 -1735 0
-64 -1752 0
-66 -1755 0
-61 -1768 0
-66 -1773 0
-61 -1774 0
-64 -1776 0
-65 -1777 0
-66 -1779 0
-64 -1782 0
-65 -1785 0
-66 -1787 0
-65 -1803 0
-66 -1805 0
-64 -1807 0
-66 -1811 0
-64 -1825 0
-66 -1829 0
-64 -1832 0
-65 -1834 0
-66 -1835 0
-61 -1844 0
-62 -1845 0
-64 -1846 0
-65 -1848 0
-66 -1850 0
-61 -1851 0
-62 -1852 0
-65 -1855 0
-66 -1857 0
-61 -1871 0
-64 -1873 0
-65 -1875 0
-66 -1877 0
-61 -1886 0
-64 -1888 0
-66 -1891 0
-61 -1893 0
-65 -1896 0
-66 -1898 0
-61 -1899 0
-65 -1902 0
-66 -1904 0
-61 -1912 0
-65 -1915 0
-66 -1917 0
-61 -1919 0
-64 -1921 0
-65 -1923 0
-66 -1924 0
-65 -1934 0
-66 -1936 0
-64 -1938 0
-65 -1940 0
-66 -1942 0
-64 -1953 0
-65 -1956 0
-66 -1958 0
-68 -102 0
-70 -104 0
-72 -106 0
-73 -107 0
-68 -215 0
-70 -218 0
-72 -219 0
-73 -220 0
-68 -227 0
-69 -228 0
-70 -231 0
-71 -233 0
-72 -234 0
-73 -235 0
-68 -246 0
-69 -247 0
-70 -248 0
-72 -249 0
-73 -250 0
-68 -264 0
-69 -265 0
-70 -267 0
-72 -269 0
-73 -270 0
-68 -303 0
-71 -306 0
-72 -307 0
-73 -308 0
-68 -382 0
-69 -383 0
-71 -386 0
-72 -387 0
-73 -388 0
-68 -403 0
-72 -406 0
-73 -407 0
-67 -415 0
-68 -416 0
-71 -419 0
-72 -420 0
-73 -421 0
-67 -432 0
-68 -434 0
-72 -437 0
-73 -438 0
-67 -458 0
-68 -459 0
-70 -463 0
-72 -465 0
-73 -466 0
-68 -503 0
-72 -508 0
-73 -509 0
-69 -517 0
-71 -521 0
-72 -522 0
-73 -523 0
-67 -524 0
-68 -525 0
-72 -528 0
-73 -529 0
-69 -531 0
-72 -535 0
-73 -536 0
-67 -546 0
-69 -547 0
-71 -549 0
-72 -550 0
-73 -551 0
-69 -552 0
-70 -555 0
-72 -556 0
-73 -557 0
-67 -565 0
-69 -566 0
-70 -569 0
-72 -570 0
-73 -571 0
-68 -620 0
-70 -623 0
-73 -625 0
-68 -633 0
-70 -637 0
-71 -638 0
-72 -639 0
-73 -640 0
-68 -654 0
-70 -657 0
-71 -659 0
-73 -660 0
-69 -702 0
-70 -704 0
-71 -705 0
-72 -706 0
-73 -707 0
-68 -715 0
-72 -720 0
-73 -721 0
-71 -740 0
-72 -741 0
-73 -742 0
-67 -749 0
-72 -753 0
-73 -754 0
-70 -758 0
-71 -759 0
-73 -760 0
-67 -768 0
-70 -771 0
-71 -772 0
-72 -773 0
-73 -774 0
-71 -778 0
-72 -779 0
-73 -780 0
-68 -794 0
-70 -796 0
-71 -797 0
-73 -798 0
-68 -872 0
-69 -873 0
-70 -876 0
-71 -877 0
-73 -878 0
-68 -893 0
-70 -896 0
-73 -897 0
-67 -905 0
-68 -907 0
-70 -911 0
-71 -913 0
-73 -914 0
-67 -922 0
-68 -924 0
-70 -926 0
-72 -927 0
-73 -928 0
-67 -945 0
-68 -947 0
-70 -948 0
-73 -950 0
-68 -988 0
-70 -991 0
-73 -993 0
-69 -1002 0
-70 -1005 0
-71 -1006 0
-73 -1007 0
-69 -1009 0
-70 -1011 0
-72 -1013 0
-73 -1014 0
-69 -1016 0
-70 -1019 0
-73 -1020 0
-67 -1028 0
-69 -1029 0
-70 -1031 0
-71 -1033 0
-73 -1034 0
-68 -1036 0
-71 -1039 0
-73 -1040 0
-67 -1050 0
-68 -1051 0
-71 -1054 0
-73 -1055 0
-67 -1062 0
-68 -1064 0
-71 -1068 0
-72 -1069 0
-73 -1070 0
-67 -1093 0
-68 -1094 0
-70 -1096 0
-71 -1097 0
-73 -1098 0
-68 -1123 0
-71 -1127 0
-73 -1128 0
-69 -1135 0
-71 -1139 0
-73 -1140 0
-69 -1142 0
-71 -1144 0
-72 -1145 0
-73 -1146 0
-67 -1154 0
-69 -1155 0
-71 -1158 0
-72 -1159 0
-73 -1160 0
-69 -1161 0
-70 -1163 0
-71 -1165 0
-73 -1166 0
-67 -1167 0
-71 -1171 0
-73 -1172 0
-67 -1173 0
-72 -1177 0
-73 -1178 0
-67 -1186 0
-71 -1190 0
-72 -1191 0
-73 -1192 0
-67 -1193 0
-70 -1197 0
-73 -1198 0
-67 -1205 0
-70 -1207 0
-71 -1209 0
-73 -1210 0
-67 -1217 0
-70 -1220 0
-72 -1221 0
-73 -1222 0
-67 -1233 0
-71 -1238 0
-73 -1239 0
-67 -1247 0
-72 -1252 0
-73 -1253 0
-67 -1261 0
-70 -1264 0
-73 -1266 0
-68 -1280 0
-70 -1283 0
-71 -1284 0
-72 -1285 0
-73 -1286 0
-68 -1295 0
-70 -1298 0
-73 -1300 0
-68 -1314 0
-70 -1317 0
-72 -1318 0
-73 -1319 0
-70 -1353 0
-72 -1354 0
-73 -1355 0
-70 -1359 0
-71 -1361 0
-73 -1362 0
-70 -1365 0
-71 -1366 0
-72 -1367 0
-73 -1368 0
-67 -1376 0
-70 -1379 0
-72 -1381 0
-73 -1382 0
-67 -1390 0
-70 -1394 0
-71 -1395 0
-73 -1396 0
-70 -1399 0
-71 -1401 0
-72 -1402 0
-73 -1403 0
-71 -1408 0
-72 -1409 0
-73 -1410 0
-73 -1416 0
-67 -1424 0
-71 -1429 0
-73 -1430 0
-70 -1433 0
-72 -1435 0
-73 -1436 0
-67 -1443 0
-70 -1446 0
-73 -1448 0
-68 -1509 0
-71 -1512 0
-73 -1513 0
-68 -1521 0
-72 -1524 0
-73 -1525 0
-68 -1540 0
-70 -1543 0
-73 -1545 0
-69 -1587 0
-70 -1589 0
-71 -1591 0
-73 -1592 0
-68 -1600 0
-70 -1603 0
-71 -1605 0
-73 -1606 0
-68 -1615 0
-70 -1617 0
-71 -1618 0
-72 -1619 0
-73 -1620 0
-68 -1640 0
-71 -1644 0
-73 -1645 0
-69 -1681 0
-70 -1683 0
-71 -1684 0
-72 -1685 0
-73 -1686 0
-70 -1690 0
-71 -1692 0
-73 -1693 0
-70 -1698 0
-72 -1699 0
-73 -1700 0
-67 -1707 0
-70 -1711 0
-71 -1713 0
-72 -1714 0
-73 -1715 0
-73 -1721 0
-67 -1729 0
-71 -1734 0
-73 -1735 0
-67 -1743 0
-72 -1748 0
-73 -1749 0
-70 -1759 0
-71 -1760 0
-73 -1761 0
-70 -1770 0
-72 -1772 0
-73 -1773 0
-70 -1808 0
-72 -1810 0
-73 -1811 0
-70 -1820 0
-71 -1822 0
-73 -1823 0
-70 -1833 0
-71 -1834 0
-73 -1835 0
-68 -1852 0
-71 -1855 0
-72 -1856 0
-73 -1857 0
-71 -1875 0
-72 -1876 0
-73 -1877 0
-70 -1881 0
-72 -1883 0
-73 -1884 0
-67 -1892 0
-70 -1894 0
-71 -1896 0
-72 -1897 0
-73 -1898 0
-70 -1901 0
-71 -1902 0
-72 -1903 0
-73 -1904 0
-70 -1907 0
-71 -1909 0
-73 -1910 0
-67 -1918 0
-70 -1922 0
-71 -1923 0
-73 -1924 0
-71 -1928 0
-72 -1929 0
-73 -1930 0
-67 -1937 0
-71 -1940 0
-72 -1941 0
-73 -1942 0
-70 -1945 0
-71 -1947 0
-72 -1948 0
-73 -1949 0
-70 -1954 0
-71 -1956 0
-72 -1957 0
-73 -1958 0
-75 -95 0
-77 -97 0
-78 -98 0
-80 -100 0
-75 -215 0
-77 -216 0
-78 -217 0
-80 -220 0
-75 -221 0
-76 -222 0
-77 -224 0
-78 -225 0
-80 -226 0
-75 -237 0
-76 -238 0
-77 -239 0
-78 -240 0
-79 -241 0
-80 -244 0
-75 -257 0
-76 -258 0
-77 -259 0
-78 -260 0
-80 -263 0
-75 -297 0
-77 -299 0
-79 -301 0
-80 -302 0
-75 -375 0
-76 -376 0
-77 -377 0
-79 -379 0
-80 -381 0
-75 -403 0
-77 -405 0
-80 -407 0
-74 -408 0
-75 -409 0
-77 -411 0
-78 -412 0
-80 -414 0
-74 -422 0
-75 -424 0
-77 -426 0
-79 -428 0
-80 -431 0
-74 -452 0
-75 -453 0
-77 -455 0
-80 -457 0
-75 -510 0
-77 -512 0
-80 -516 0
-76 -517 0
-77 -519 0
-78 -520 0
-80 -523 0
-74 -524 0
-75 -525 0
-77 -526 0
-79 -527 0
-80 -529 0
-76 -531 0
-77 -533 0
-79 -534 0
-80 -536 0
-74 -537 0
-76 -538 0
-77 -540 0
-78 -541 0
-79 -543 0
-80 -545 0
-76 -552 0
-77 -554 0
-80 -557 0
-74 -558 0
-76 -559 0
-77 -560 0
-79 -561 0
-80 -564 0
-75 -614 0
-78 -616 0
-80 -619 0
-75 -627 0
-79 -629 0
-80 -631 0
-75 -647 0
-77 -649 0
-80 -653 0
-76 -696 0
-77 -697 0
-79 -699 0
-80 -701 0
-75 -708 0
-78 -710 0
-79 -712 0
-80 -714 0
-78 -738 0
-79 -739 0
-80 -742 0
-74 -743 0
-79 -746 0
-80 -748 0
-77 -756 0
-78 -757 0
-80 -760 0
-74 -761 0
-77 -763 0
-78 -764 0
-79 -765 0
-80 -767 0
-78 -782 0
-79 -784 0
-80 -786 0
-75 -788 0
-78 -789 0
-79 -790 0
-80 -792 0
-75 -865 0
-76 -866 0
-78 -867 0
-79 -868 0
-80 -871 0
-75 -893 0
-78 -895 0
-80 -897 0
-74 -898 0
-75 -900 0
-78 -902 0
-80 -904 0
-74 -915 0
-75 -917 0
-78 -918 0
-79 -919 0
-80 -921 0
-74 -936 0
-75 -938 0
-77 -939 0
-78 -940 0
-80 -944 0
-75 -995 0
-78 -996 0
-80 -1000 0
-76 -1002 0
-78 -1004 0
-80 -1007 0
-76 -1009 0
-78 -1010 0
-79 -1012 0
-80 -1014 0
-76 -1016 0
-77 -1017 0
-78 -1018 0
-80 -1020 0
-74 -1021 0
-76 -1022 0
-77 -1023 0
-78 -1024 0
-80 -1027 0
-75 -1036 0
-79 -1038 0
-80 -1040 0
-74 -1041 0
-75 -1042 0
-78 -1044 0
-79 -1046 0
-80 -1049 0
-74 -1056 0
-75 -1058 0
-79 -1060 0
-80 -1061 0
-74 -1087 0
-75 -1088 0
-77 -1089 0
-79 -1090 0
-80 -1092 0
-75 -1129 0
-79 -1131 0
-80 -1134 0
-76 -1135 0
-78 -1137 0
-79 -1138 0
-80 -1140 0
-76 -1142 0
-79 -1143 0
-80 -1146 0
-74 -1147 0
-76 -1148 0
-78 -1149 0
-79 -1151 0
-80 -1153 0
-76 -1161 0
-77 -1162 0
-79 -1164 0
-80 -1166 0
-74 -1167 0
-78 -1170 0
-80 -1172 0
-74 -1173 0
-79 -1176 0
-80 -1178 0
-74 -1179 0
-78 -1182 0
-79 -1184 0
-80 -1185 0
-74 -1193 0
-77 -1196 0
-80 -1198 0
-74 -1199 0
-77 -1201 0
-78 -1202 0
-80 -1204 0
-74 -1211 0
-77 -1213 0
-79 -1214 0
-80 -1216 0
-74 -1240 0
-78 -1242 0
-80 -1246 0
-74 -1254 0
-79 -1257 0
-80 -1260 0
-74 -1267 0
-77 -1268 0
-80 -1272 0
-75 -1273 0
-77 -1275 0
-78 -1276 0
-79 -1277 0
-80 -1279 0
-75 -1288 0
-77 -1289 0
-79 -1290 0
-80 -1293 0
-75 -1308 0
-79 -1310 0
-80 -1313 0
-77 -1351 0
-78 -1352 0
-80 -1355 0
-77 -1358 0
-79 -1360 0
-80 -1362 0
-80 -1368 0
-74 -1369 0
-78 -1371 0
-80 -1375 0
-74 -1383 0
-79 -1386 0
-80 -1389 0
-77 -1406 0
-79 -1407 0
-80 -1410 0
-77 -1413 0
-78 -1414 0
-79 -1415 0
-80 -1416 0
-74 -1417 0
-77 -1419 0
-79 -1421 0
-80 -1423 0
-78 -1432 0
-79 -1434 0
-80 -1436 0
-74 -1437 0
-78 -1438 0
-79 -1439 0
-80 -1442 0
-77 -1450 0
-78 -1451 0
-79 -1453 0
-80 -1456 0
-75 -1500 0
-77 -1502 0
-78 -1503 0
-79 -1505 0
-80 -1507 0
-75 -1515 0
-77 -1516 0
-80 -1519 0
-75 -1533 0
-77 -1534 0
-79 -1535 0
-80 -1538 0
-76 -1581 0
-77 -1582 0
-78 -1583 0
-79 -1584 0
-80 -1586 0
-75 -1593 0
-77 -1595 0
-80 -1599 0
-75 -1608 0
-77 -1609 0
-78 -1610 0
-79 -1612 0
-80 -1613 0
-75 -1634 0
-77 -1635 0
-78 -1636 0
-80 -1639 0
-76 -1675 0
-77 -1676 0
-79 -1678 0
-80 -1680 0
-77 -1689 0
-79 -1691 0
-80 -1693 0
-77 -1696 0
-78 -1697 0
-80 -1700 0
-74 -1701 0
-77 -1704 0
-80 -1706 0
-77 -1718 0
-78 -1719 0
-79 -1720 0
-80 -1721 0
-74 -1722 0
-77 -1724 0
-79 -1726 0
-80 -1728 0
-74 -1736 0
-77 -1738 0
-78 -1739 0
-80 -1742 0
-77 -1763 0
-79 -1764 0
-80 -1767 0
-77 -1775 0
-78 -1776 0
-80 -1779 0
-77 -1781 0
-78 -1782 0
-79 -1784 0
-80 -1787 0
-77 -1801 0
-79 -1802 0
-80 -1805 0
-77 -1813 0
-78 -1814 0
-80 -1817 0
-78 -1825 0
-79 -1827 0
-80 -1829 0
-77 -1836 0
-78 -1837 0
-79 -1839 0
-80 -1842 0
-75 -1845 0
-78 -1846 0
-80 -1850 0
-78 -1873 0
-79 -1874 0
-80 -1877 0
-77 -1880 0
-79 -1882 0
-80 -1884 0
-74 -1885 0
-77 -1887 0
-78 -1888 0
-79 -1889 0
-80 -1891 0
-80 -1904 0
-78 -1906 0
-79 -1908 0
-80 -1910 0
-74 -1911 0
-79 -1914 0
-80 -1917 0
-77 -1926 0
-78 -1927 0
-80 -1930 0
-74 -1931 0
-77 -1932 0
-80 -1936 0
-81 -102 0
-84 -104 0
-85 -105 0
-86 -107 0
-81 -153 0
-84 -155 0
-85 -156 0
-86 -158 0
-81 -160 0
-82 -161 0
-84 -164 0
-85 -165 0
-86 -167 0
-81 -179 0
-82 -180 0
-84 -182 0
-85 -183 0
-86 -184 0
-81 -194 0
-82 -195 0
-83 -196 0
-84 -197 0
-85 -198 0
-86 -201 0
-81 -264 0
-82 -265 0
-84 -267 0
-85 -268 0
-86 -270 0
-81 -303 0
-83 -305 0
-86 -308 0
-81 -348 0
-82 -349 0
-83 -352 0
-86 -353 0
-81 -364 0
-82 -365 0
-83 -366 0
-86 -368 0
-81 -403 0
-86 -407 0
-81 -416 0
-85 -418 0
-86 -421 0
-81 -434 0
-83 -436 0
-86 -438 0
-81 -453 0
-86 -457 0
-82 -468 0
-85 -471 0
-86 -472 0
-81 -474 0
-83 -476 0
-86 -479 0
-82 -482 0
-83 -485 0
-86 -488 0
-82 -497 0
-83 -499 0
-85 -500 0
-86 -502 0
-81 -510 0
-84 -513 0
-86 -516 0
-82 -552 0
-84 -555 0
-86 -557 0
-82 -566 0
-83 -568 0
-84 -569 0
-86 -571 0
-81 -600 0
-82 -601 0
-83 -603 0
-84 -604 0
-86 -606 0
-81 -620 0
-84 -623 0
-85 -624 0
-86 -625 0
-81 -633 0
-83 -636 0
-84 -637 0
-86 -640 0
-81 -647 0
-84 -650 0
-86 -653 0
-82 -661 0
-84 -663 0
-85 -664 0
-86 -667 0
-81 -669 0
-83 -670 0
-84 -671 0
-86 -673 0
-82 -675 0
-83 -677 0
-84 -678 0
-86 -680 0
-82 -688 0
-83 -691 0
-84 -692 0
-85 -693 0
-86 -695 0
-82 -702 0
-83 -703 0
-84 -704 0
-86 -707 0
-81 -715 0
-83 -718 0
-85 -719 0
-86 -721 0
-82 -729 0
-83 -731 0
-85 -732 0
-86 -734 0
-83 -738 0
-85 -739 0
-86 -742 0
-83 -752 0
-86 -754 0
-83 -764 0
-85 -765 0
-86 -767 0
-83 -782 0
-84 -783 0
-85 -784 0
-86 -786 0
-81 -794 0
-84 -796 0
-86 -798 0
-81 -839 0
-82 -840 0
-84 -841 0
-86 -843 0
-81 -851 0
-82 -852 0
-84 -854 0
-85 -855 0
-86 -858 0
-81 -893 0
-83 -895 0
-84 -896 0
-86 -897 0
-81 -907 0
-83 -910 0
-84 -911 0
-85 -912 0
-86 -914 0
-81 -924 0
-84 -926 0
-86 -928 0
-81 -938 0
-83 -940 0
-84 -941 0
-86 -944 0
-81 -952 0
-83 -953 0
-84 -954 0
-85 -955 0
-86 -957 0
-82 -960 0
-83 -962 0
-84 -963 0
-85 -964 0
-86 -966 0
-82 -969 0
-84 -970 0
-86 -972 0
-82 -982 0
-84 -984 0
-85 -985 0
-86 -986 0
-81 -995 0
-83 -996 0
-84 -997 0
-86 -1000 0
-82 -1016 0
-83 -1018 0
-84 -1019 0
-86 -1020 0
-82 -1029 0
-83 -1030 0
-84 -1031 0
-85 -1032 0
-86 -1034 0
-81 -1036 0
-85 -1038 0
-86 -1040 0
-81 -1051 0
-86 -1055 0
-81 -1064 0
-83 -1066 0
-85 -1067 0
-86 -1070 0
-81 -1088 0
-85 -1090 0
-86 -1092 0
-82 -1100 0
-86 -1104 0
-82 -1107 0
-83 -1108 0
-85 -1109 0
-86 -1110 0
-82 -1118 0
-83 -1120 0
-86 -1122 0
-81 -1129 0
-84 -1130 0
-85 -1131 0
-86 -1134 0
-82 -1161 0
-84 -1163 0
-85 -1164 0
-86 -1166 0
-83 -1170 0
-86 -1172 0
-85 -1176 0
-86 -1178 0
-86 -1192 0
-83 -1202 0
-86 -1204 0
-85 -1214 0
-86 -1216 0
-83 -1227 0
-84 -1228 0
-85 -1229 0
-86 -1232 0
-83 -1242 0
-84 -1243 0
-86 -1246 0
-84 -1256 0
-85 -1257 0
-86 -1260 0
-83 -1263 0
-84 -1264 0
-85 -1265 0
-86 -1266 0
-81 -1280 0
-84 -1283 0
-86 -1286 0
-81 -1295 0
-83 -1297 0
-84 -1298 0
-85 -1299 0
-86 -1300 0
-81 -1308 0
-84 -1309 0
-85 -1310 0
-86 -1313 0
-82 -1320 0
-84 -1323 0
-86 -1325 0
-82 -1327 0
-83 -1329 0
-84 -1330 0
-85 -1331 0
-86 -1334 0
-82 -1343 0
-83 -1345 0
-84 -1346 0
-86 -1348 0
-83 -1352 0
-84 -1353 0
-86 -1355 0
-84 -1359 0
-85 -1360 0
-86 -1362 0
-83 -1371 0
-84 -1372 0
-86 -1375 0
-84 -1385 0
-85 -1386 0
-86 -1389 0
-83 -1398 0
-84 -1399 0
-85 -1400 0
-86 -1403 0
-85 -1407 0
-86 -1410 0
-83 -1414 0
-85 -1415 0
-86 -1416 0
-83 -1427 0
-85 -1428 0
-86 -1430 0
-83 -1438 0
-85 -1439 0
-86 -1442 0
-83 -1451 0
-84 -1452 0
-85 -1453 0
-86 -1456 0
-81 -1485 0
-82 -1486 0
-83 -1487 0
-85 -1488 0
-86 -1491 0
-81 -1509 0
-85 -1511 0
-86 -1513 0
-81 -1521 0
-83 -1522 0
-85 -1523 0
-86 -1525 0
-81 -1533 0
-85 -1535 0
-86 -1538 0
-81 -1547 0
-85 -1549 0
-86 -1551 0
-82 -1553 0
-85 -1556 0
-86 -1558 0
-82 -1560 0
-83 -1562 0
-85 -1563 0
-86 -1565 0
-82 -1577 0
-83 -1578 0
-85 -1579 0
-86 -1580 0
-82 -1587 0
-84 -1589 0
-85 -1590 0
-86 -1592 0
-81 -1600 0
-83 -1602 0
-84 -1603 0
-85 -1604 0
-86 -1606 0
-81 -1615 0
-83 -1616 0
-84 -1617 0
-86 -1620 0
-81 -1634 0
-83 -1636 0
-84 -1637 0
-86 -1639 0
-82 -1646 0
-83 -1649 0
-84 -1650 0
-85 -1651 0
-86 -1654 0
-82 -1656 0
-83 -1658 0
-84 -1659 0
-86 -1660 0
-82 -1669 0
-83 -1670 0
-84 -1671 0
-85 -1672 0
-86 -1674 0
-84 -1690 0
-85 -1691 0
-86 -1693 0
-83 -1697 0
-84 -1698 0
-86 -1700 0
-83 -1710 0
-84 -1711 0
-85 -1712 0
-86 -1715 0
-84 -1725 0
-85 -1726 0
-86 -1728 0
-83 -1739 0
-84 -1740 0
-86 -1742 0
-83 -1752 0
-84 -1753 0
-85 -1754 0
-86 -1755 0
-85 -1764 0
-86 -1767 0
-83 -1776 0
-86 -1779 0
-82 -1794 0
-83 -1796 0
-85 -1797 0
-86 -1799 0
-85 -1802 0
-86 -1805 0
-83 -1814 0
-86 -1817 0
-83 -1832 0
-84 -1833 0
-86 -1835 0
-83 -1837 0
-84 -1838 0
-85 -1839 0
-86 -1842 0
-81 -1852 0
-85 -1854 0
-86 -1857 0
-82 -1866 0
-85 -1867 0
-86 -1870 0
-83 -1873 0
-85 -1874 0
-86 -1877 0
-83 -1888 0
-85 -1889 0
-86 -1891 0
-84 -1901 0
-86 -1904 0
-83 -1906 0
-84 -1907 0
-85 -1908 0
-86 -1910 0
-83 -1921 0
-84 -1922 0
-86 -1924 0
-84 -1933 0
-86 -1936 0
-87 -95 0
-89 -97 0
-90 -99 0
-92 -100 0
-87 -153 0
-89 -154 0
-90 -157 0
-92 -158 0
-87 -160 0
-88 -161 0
-89 -163 0
-90 -166 0
-92 -167 0
-87 -169 0
-88 -170 0
-89 -172 0
-90 -175 0
-91 -176 0
-92 -177 0
-87 -187 0
-88 -188 0
-89 -189 0
-90 -190 0
-92 -191 0
-87 -257 0
-88 -258 0
-89 -259 0
-90 -262 0
-92 -263 0
-87 -297 0
-89 -299 0
-92 -302 0
-87 -348 0
-88 -349 0
-89 -351 0
-92 -353 0
-87 -355 0
-88 -356 0
-89 -357 0
-90 -361 0
-92 -362 0
-87 -403 0
-89 -405 0
-91 -406 0
-92 -407 0
-87 -409 0
-89 -411 0
-92 -414 0
-87 -424 0
-89 -426 0
-90 -429 0
-91 -430 0
-92 -431 0
-87 -459 0
-89 -461 0
-91 -465 0
-92 -466 0
-88 -468 0
-89 -470 0
-92 -472 0
-87 -474 0
-89 -475 0
-90 -477 0
-91 -478 0
-92 -479 0
-88 -482 0
-89 -484 0
-90 -486 0
-91 -487 0
-92 -488 0
-88 -490 0
-89 -492 0
-90 -494 0
-92 -495 0
-87 -503 0
-89 -505 0
-91 -508 0
-92 -509 0
-88 -552 0
-89 -554 0
-91 -556 0
-92 -557 0
-88 -559 0
-89 -560 0
-90 -562 0
-91 -563 0
-92 -564 0
-87 -593 0
-88 -594 0
-90 -597 0
-91 -598 0
-92 -599 0
-87 -614 0
-90 -617 0
-91 -618 0
-92 -619 0
-87 -627 0
-90 -630 0
-92 -631 0
-87 -654 0
-90 -659 0
-92 -660 0
-88 -661 0
-90 -665 0
-91 -666 0
-92 -667 0
-87 -669 0
-90 -672 0
-92 -673 0
-88 -675 0
-90 -679 0
-92 -680 0
-88 -682 0
-90 -684 0
-91 -685 0
-92 -686 0
-88 -696 0
-89 -697 0
-90 -700 0
-92 -701 0
-87 -708 0
-90 -713 0
-92 -714 0
-88 -729 0
-90 -733 0
-92 -734 0
-90 -740 0
-91 -741 0
-92 -742 0
-90 -747 0
-92 -748 0
-90 -772 0
-91 -773 0
-92 -774 0
-89 -776 0
-90 -778 0
-91 -779 0
-92 -780 0
-87 -788 0
-91 -791 0
-92 -792 0
-87 -839 0
-88 -840 0
-91 -842 0
-92 -843 0
-87 -845 0
-88 -846 0
-91 -848 0
-92 -849 0
-87 -893 0
-92 -897 0
-87 -900 0
-91 -903 0
-92 -904 0
-87 -917 0
-90 -920 0
-92 -921 0
-87 -947 0
-92 -950 0
-87 -952 0
-91 -956 0
-92 -957 0
-88 -960 0
-91 -965 0
-92 -966 0
-88 -969 0
-90 -971 0
-92 -972 0
-88 -975 0
-90 -977 0
-91 -978 0
-92 -979 0
-87 -988 0
-89 -989 0
-92 -993 0
-88 -1016 0
-89 -1017 0
-92 -1020 0
-88 -1022 0
-89 -1023 0
-91 -1026 0
-92 -1027 0
-87 -1036 0
-90 -1039 0
-92 -1040 0
-87 -1042 0
-90 -1047 0
-91 -1048 0
-92 -1049 0
-87 -1058 0
-92 -1061 0
-87 -1094 0
-90 -1097 0
-92 -1098 0
-88 -1100 0
-90 -1102 0
-91 -1103 0
-92 -1104 0
-88 -1107 0
-92 -1110 0
-88 -1112 0
-91 -1115 0
-92 -1116 0
-87 -1123 0
-89 -1124 0
-90 -1127 0
-92 -1128 0
-88 -1161 0
-89 -1162 0
-90 -1165 0
-92 -1166 0
-90 -1171 0
-92 -1172 0
-91 -1177 0
-92 -1178 0
-92 -1185 0
-90 -1209 0
-92 -1210 0
-91 -1221 0
-92 -1222 0
-89 -1226 0
-90 -1230 0
-91 -1231 0
-92 -1232 0
-89 -1235 0
-90 -1238 0
-92 -1239 0
-89 -1249 0
-91 -1252 0
-92 -1253 0
-89 -1268 0
-90 -1270 0
-91 -1271 0
-92 -1272 0
-87 -1273 0
-89 -1275 0
-91 -1278 0
-92 -1279 0
-87 -1288 0
-89 -1289 0
-90 -1291 0
-91 -1292 0
-92 -1293 0
-87 -1314 0
-89 -1315 0
-91 -1318 0
-92 -1319 0
-88 -1320 0
-89 -1322 0
-91 -1324 0
-92 -1325 0
-88 -1327 0
-89 -1328 0
-90 -1332 0
-91 -1333 0
-92 -1334 0
-88 -1336 0
-89 -1337 0
-90 -1339 0
-91 -1340 0
-92 -1341 0
-89 -1351 0
-91 -1354 0
-92 -1355 0
-89 -1358 0
-90 -1361 0
-92 -1362 0
-89 -1378 0
-91 -1381 0
-92 -1382 0
-89 -1392 0
-90 -1395 0
-92 -1396 0
-89 -1406 0
-90 -1408 0
-91 -1409 0
-92 -1410 0
-89 -1413 0
-92 -1416 0
-89 -1419 0
-91 -1422 0
-92 -1423 0
-89 -1444 0
-92 -1448 0
-87 -1478 0
-88 -1479 0
-89 -1480 0
-91 -1483 0
-92 -1484 0
-87 -1500 0
-89 -1502 0
-91 -1506 0
-92 -1507 0
-87 -1515 0
-89 -1516 0
-90 -1518 0
-92 -1519 0
-87 -1540 0
-89 -1541 0
-92 -1545 0
-87 -1547 0
-89 -1548 0
-91 -1550 0
-92 -1551 0
-88 -1553 0
-89 -1555 0
-91 -1557 0
-92 -1558 0
-88 -1560 0
-89 -1561 0
-90 -1564 0
-92 -1565 0
-88 -1568 0
-89 -1569 0
-90 -1572 0
-91 -1573 0
-92 -1574 0
-88 -1581 0
-89 -1582 0
-91 -1585 0
-92 -1586 0
-87 -1593 0
-89 -1595 0
-90 -1597 0
-91 -1598 0
-92 -1599 0
-87 -1608 0
-89 -1609 0
-92 -1613 0
-87 -1640 0
-89 -1641 0
-90 -1644 0
-92 -1645 0
-88 -1646 0
-89 -1648 0
-90 -1652 0
-91 -1653 0
-92 -1654 0
-88 -1656 0
-89 -1657 0
-92 -1660 0
-88 -1662 0
-89 -1663 0
-91 -1666 0
-92 -1667 0
-89 -1689 0
-90 -1692 0
-92 -1693 0
-89 -1696 0
-91 -1699 0
-92 -1700 0
-89 -1704 0
-92 -1706 0
-89 -1731 0
-90 -1734 0
-92 -1735 0
-89 -1745 0
-91 -1748 0
-92 -1749 0
-89 -1751 0
-92 -1755 0
-89 -1757 0
-90 -1760 0
-92 -1761 0
-89 -1769 0
-91 -1772 0
-92 -1773 0
-89 -1781 0
-90 -1785 0
-91 -1786 0
-92 -1787 0
-88 -1788 0
-90 -1791 0
-91 -1792 0
-92 -1793 0
-91 -1810 0
-92 -1811 0
-90 -1822 0
-92 -1823 0
-91 -1828 0
-92 -1829 0
-87 -1845 0
-90 -1848 0
-91 -1849 0
-92 -1850 0
-88 -1866 0
-90 -1868 0
-91 -1869 0
-92 -1870 0
-90 -1875 0
-91 -1876 0
-92 -1877 0
-90 -1896 0
-91 -1897 0
-92 -1898 0
-90 -1902 0
-91 -1903 0
-92 -1904 0
-90 -1909 0
-92 -1910 0
-90 -1915 0
-91 -1916 0
-92 -1917 0
-90 -1940 0
-91 -1941 0
-92 -1942 0
-89 -1943 0
-90 -1947 0
-91 -1948 0
-92 -1949 0
-89 -1952 0
-90 -1956 0
-91 -1957 0
-92 -1958 0
-100 -296 0
-95 -339 0
-96 -341 0
-97 -342 0
-98 -343 0
-99 -345 0
-100 -347 0
-95 -364 0
-98 -366 0
-100 -368 0
-96 -371 0
-98 -372 0
-100 -374 0
-95 -382 0
-98 -384 0
-99 -386 0
-100 -388 0
-96 -390 0
-99 -393 0
-100 -395 0
-97 -397 0
-98 -398 0
-100 -401 0
-96 -498 0
-98 -499 0
-100 -502 0
-96 -548 0
-99 -549 0
-100 -551 0
-97 -567 0
-98 -568 0
-100 -571 0
-95 -587 0
-96 -589 0
-97 -590 0
-98 -591 0
-100 -592 0
-95 -600 0
-97 -602 0
-98 -603 0
-99 -605 0
-100 -606 0
-96 -608 0
-97 -609 0
-98 -610 0
-99 -611 0
-100 -613 0
-96 -689 0
-97 -690 0
-98 -691 0
-99 -694 0
-100 -695 0
-98 -703 0
-99 -705 0
-100 -707 0
-95 -715 0
-96 -716 0
-97 -717 0
-98 -718 0
-100 -721 0
-96 -723 0
-97 -724 0
-98 -725 0
-100 -728 0
-96 -730 0
-98 -731 0
-99 -733 0
-100 -734 0
-96 -750 0
-97 -751 0
-98 -752 0
-100 -754 0
-96 -769 0
-98 -770 0
-99 -772 0
-100 -774 0
-96 -781 0
-98 -782 0
-100 -786 0
-94 -832 0
-95 -833 0
-97 -835 0
-99 -836 0
-100 -837 0
-95 -851 0
-97 -853 0
-99 -856 0
-100 -858 0
-94 -860 0
-97 -862 0
-100 -864 0
-95 -872 0
-97 -874 0
-98 -875 0
-99 -877 0
-100 -878 0
-94 -879 0
-97 -881 0
-98 -882 0
-99 -884 0
-100 -885 0
-98 -887 0
-99 -889 0
-100 -891 0
-94 -981 0
-97 -983 0
-100 -986 0
-98 -1030 0
-99 -1033 0
-100 -1034 0
-95 -1051 0
-96 -1052 0
-97 -1053 0
-99 -1054 0
-100 -1055 0
-94 -1063 0
-95 -1064 0
-97 -1065 0
-98 -1066 0
-99 -1068 0
-100 -1070 0
-95 -1072 0
-97 -1073 0
-99 -1076 0
-100 -1077 0
-94 -1079 0
-96 -1081 0
-97 -1082 0
-99 -1085 0
-100 -1086 0
-95 -1094 0
-98 -1095 0
-99 -1097 0
-100 -1098 0
-96 -1101 0
-99 -1102 0
-100 -1104 0
-94 -1106 0
-98 -1108 0
-100 -1110 0
-100 -1116 0
-95 -1129 0
-99 -1132 0
-100 -1134 0
-96 -1136 0
-98 -1137 0
-99 -1139 0
-100 -1140 0
-94 -1141 0
-99 -1144 0
-100 -1146 0
-98 -1149 0
-99 -1152 0
-100 -1153 0
-97 -1162 0
-99 -1165 0
-100 -1166 0
-94 -1187 0
-96 -1188 0
-97 -1189 0
-99 -1190 0
-100 -1192 0
-96 -1206 0
-99 -1209 0
-100 -1210 0
-94 -1218 0
-98 -1219 0
-100 -1222 0
-96 -1241 0
-98 -1242 0
-99 -1244 0
-100 -1246 0
-94 -1255 0
-99 -1258 0
-100 -1260 0
-97 -1268 0
-99 -1270 0
-100 -1272 0
-95 -1280 0
-96 -1281 0
-97 -1282 0
-99 -1284 0
-100 -1286 0
-94 -1294 0
-95 -1295 0
-97 -1296 0
-98 -1297 0
-100 -1300 0
-94 -1301 0
-96 -1303 0
-97 -1304 0
-100 -1307 0
-95 -1314 0
-97 -1315 0
-98 -1316 0
-100 -1319 0
-96 -1321 0
-97 -1322 0
-100 -1325 0
-94 -1326 0
-97 -1328 0
-98 -1329 0
-99 -1332 0
-100 -1334 0
-97 -1337 0
-99 -1339 0
-100 -1341 0
-96 -1377 0
-97 -1378 0
-100 -1382 0
-94 -1391 0
-97 -1392 0
-98 -1393 0
-99 -1395 0
-100 -1396 0
-96 -1405 0
-97 -1406 0
-99 -1408 0
-100 -1410 0
-94 -1411 0
-96 -1412 0
-97 -1413 0
-98 -1414 0
-100 -1416 0
-96 -1418 0
-97 -1419 0
-100 -1423 0
-96 -1431 0
-98 -1432 0
-100 -1436 0
-98 -1438 0
-99 -1440 0
-100 -1442 0
-94 -1469 0
-95 -1470 0
-97 -1472 0
-98 -1473 0
-99 -1476 0
-100 -1477 0
-95 -1485 0
-98 -1487 0
-99 -1489 0
-100 -1491 0
-94 -1492 0
-98 -1494 0
-100 -1498 0
-94 -1576 0
-98 -1578 0
-100 -1580 0
-97 -1588 0
-99 -1591 0
-100 -1592 0
-95 -1600 0
-96 -1601 0
-98 -1602 0
-99 -1605 0
-100 -1606 0
-94 -1614 0
-95 -1615 0
-98 -1616 0
-99 -1618 0
-100 -1620 0
-95 -1622 0
-98 -1623 0
-99 -1625 0
-100 -1626 0
-94 -1627 0
-96 -1629 0
-98 -1630 0
-99 -1632 0
-100 -1633 0
-95 -1640 0
-97 -1641 0
-98 -1642 0
-99 -1644 0
-100 -1645 0
-96 -1647 0
-97 -1648 0
-98 -1649 0
-99 -1652 0
-100 -1654 0
-94 -1655 0
-97 -1657 0
-98 -1658 0
-100 -1660 0
-97 -1663 0
-98 -1664 0
-100 -1667 0
-97 -1676 0
-99 -1679 0
-100 -1680 0
-94 -1708 0
-96 -1709 0
-98 -1710 0
-99 -1713 0
-100 -1715 0
-96 -1730 0
-97 -1731 0
-98 -1732 0
-99 -1734 0
-100 -1735 0
-94 -1744 0
-97 -1745 0
-98 -1746 0
-100 -1749 0
-97 -1751 0
-98 -1752 0
-100 -1755 0
-96 -1762 0
-97 -1763 0
-99 -1765 0
-100 -1767 0
-94 -1774 0
-97 -1775 0
-98 -1776 0
-99 -1777 0
-100 -1779 0
-97 -1781 0
-98 -1782 0
-99 -1785 0
-100 -1787 0
-98 -1789 0
-99 -1791 0
-100 -1793 0
-96 -1806 0
-98 -1807 0
-100 -1811 0
-94 -1818 0
-98 -1819 0
-99 -1822 0
-100 -1823 0
-96 -1824 0
-98 -1825 0
-100 -1829 0
-97 -1836 0
-98 -1837 0
-99 -1840 0
-100 -1842 0
-94 -1851 0
-95 -1852 0
-97 -1853 0
-99 -1855 0
-100 -1857 0
-94 -1858 0
-97 -1860 0
-99 -1862 0
-100 -1864 0
-94 -1865 0
-99 -1868 0
-100 -1870 0
-94 -1893 0
-99 -1896 0
-100 -1898 0
-94 -1899 0
-96 -1900 0
-99 -1902 0
-100 -1904 0
-94 -1905 0
-98 -1906 0
-99 -1909 0
-100 -1910 0
-94 -1912 0
-99 -1915 0
-100 -1917 0
-94 -1925 0
-97 -1926 0
-98 -1927 0
-99 -1928 0
-100 -1930 0
-97 -1932 0
-99 -1934 0
-100 -1936 0
-97 -1943 0
-98 -1944 0
-99 -1947 0
-100 -1949 0
-107 -290 0
-102 -332 0
-103 -334 0
-104 -335 0
-105 -336 0
-107 -337 0
-102 -355 0
-104 -359 0
-105 -360 0
-107 -362 0
-103 -371 0
-104 -373 0
-107 -374 0
-102 -375 0
-104 -378 0
-105 -379 0
-106 -380 0
-107 -381 0
-103 -390 0
-104 -391 0
-105 -392 0
-106 -394 0
-107 -395 0
-105 -399 0
-106 -400 0
-107 -401 0
-103 -491 0
-104 -493 0
-107 -495 0
-103 -539 0
-104 -542 0
-105 -543 0
-106 -544 0
-107 -545 0
-105 -561 0
-106 -563 0
-107 -564 0
-102 -578 0
-103 -580 0
-104 -582 0
-105 -583 0
-106 -585 0
-107 -586 0
-102 -593 0
-105 -596 0
-106 -598 0
-107 -599 0
-103 -608 0
-106 -612 0
-107 -613 0
-103 -683 0
-106 -685 0
-107 -686 0
-104 -698 0
-105 -699 0
-107 -701 0
-102 -708 0
-103 -709 0
-104 -711 0
-105 -712 0
-107 -714 0
-103 -723 0
-104 -726 0
-105 -727 0
-107 -728 0
-103 -730 0
-105 -732 0
-107 -734 0
-103 -744 0
-104 -745 0
-105 -746 0
-107 -748 0
-103 -762 0
-105 -765 0
-107 -767 0
-103 -775 0
-105 -777 0
-106 -779 0
-107 -780 0
-101 -822 0
-102 -823 0
-104 -827 0
-105 -828 0
-106 -829 0
-107 -830 0
-102 -845 0
-106 -848 0
-107 -849 0
-101 -860 0
-106 -863 0
-107 -864 0
-102 -865 0
-105 -868 0
-106 -870 0
-107 -871 0
-101 -879 0
-105 -883 0
-107 -885 0
-104 -888 0
-106 -890 0
-107 -891 0
-101 -974 0
-106 -978 0
-107 -979 0
-104 -1025 0
-106 -1026 0
-107 -1027 0
-102 -1042 0
-103 -1043 0
-104 -1045 0
-105 -1046 0
-106 -1048 0
-107 -1049 0
-101 -1057 0
-102 -1058 0
-104 -1059 0
-105 -1060 0
-107 -1061 0
-102 -1072 0
-104 -1074 0
-105 -1075 0
-107 -1077 0
-101 -1079 0
-103 -1081 0
-104 -1083 0
-105 -1084 0
-107 -1086 0
-102 -1088 0
-105 -1090 0
-106 -1091 0
-107 -1092 0
-103 -1101 0
-106 -1103 0
-107 -1104 0
-101 -1106 0
-105 -1109 0
-107 -1110 0
-107 -1122 0
-102 -1123 0
-105 -1126 0
-107 -1128 0
-103 -1136 0
-105 -1138 0
-107 -1140 0
-101 -1141 0
-105 -1143 0
-106 -1145 0
-107 -1146 0
-105 -1157 0
-106 -1159 0
-107 -1160 0
-104 -1163 0
-105 -1164 0
-107 -1166 0
-101 -1180 0
-103 -1181 0
-104 -1183 0
-105 -1184 0
-107 -1185 0
-103 -1200 0
-106 -1203 0
-107 -1204 0
-101 -1212 0
-105 -1214 0
-107 -1216 0
-103 -1234 0
-105 -1237 0
-107 -1239 0
-101 -1248 0
-105 -1251 0
-106 -1252 0
-107 -1253 0
-104 -1264 0
-105 -1265 0
-107 -1266 0
-102 -1273 0
-103 -1274 0
-105 -1277 0
-106 -1278 0
-107 -1279 0
-101 -1287 0
-102 -1288 0
-105 -1290 0
-106 -1292 0
-107 -1293 0
-101 -1301 0
-103 -1303 0
-105 -1305 0
-106 -1306 0
-107 -1307 0
-102 -1308 0
-104 -1309 0
-105 -1310 0
-106 -1312 0
-107 -1313 0
-103 -1321 0
-104 -1323 0
-106 -1324 0
-107 -1325 0
-101 -1326 0
-104 -1330 0
-105 -1331 0
-106 -1333 0
-107 -1334 0
-104 -1346 0
-106 -1347 0
-107 -1348 0
-103 -1370 0
-104 -1372 0
-106 -1374 0
-107 -1375 0
-101 -1384 0
-104 -1385 0
-105 -1386 0
-106 -1388 0
-107 -1389 0
-104 -1399 0
-105 -1400 0
-106 -1402 0
-107 -1403 0
-103 -1405 0
-105 -1407 0
-106 -1409 0
-107 -1410 0
-101 -1411 0
-103 -1412 0
-105 -1415 0
-107 -1416 0
-103 -1425 0
-105 -1428 0
-107 -1430 0
-103 -1431 0
-104 -1433 0
-105 -1434 0
-106 -1435 0
-107 -1436 0
-104 -1446 0
-105 -1447 0
-107 -1448 0
-104 -1452 0
-105 -1453 0
-106 -1455 0
-107 -1456 0
-101 -1463 0
-102 -1464 0
-104 -1466 0
-106 -1467 0
-107 -1468 0
-102 -1478 0
-104 -1481 0
-105 -1482 0
-106 -1483 0
-107 -1484 0
-101 -1492 0
-104 -1495 0
-105 -1496 0
-106 -1497 0
-107 -1498 0
-101 -1567 0
-104 -1570 0
-105 -1571 0
-106 -1573 0
-107 -1574 0
-105 -1584 0
-106 -1585 0
-107 -1586 0
-102 -1593 0
-103 -1594 0
-104 -1596 0
-106 -1598 0
-107 -1599 0
-101 -1607 0
-102 -1608 0
-104 -1611 0
-105 -1612 0
-107 -1613 0
-102 -1622 0
-104 -1624 0
-107 -1626 0
-101 -1627 0
-103 -1629 0
-104 -1631 0
-107 -1633 0
-102 -1634 0
-104 -1637 0
-106 -1638 0
-107 -1639 0
-103 -1647 0
-104 -1650 0
-105 -1651 0
-106 -1653 0
-107 -1654 0
-101 -1655 0
-104 -1659 0
-107 -1660 0
-104 -1671 0
-105 -1672 0
-107 -1674 0
-104 -1683 0
-106 -1685 0
-107 -1686 0
-101 -1702 0
-103 -1703 0
-104 -1705 0
-107 -1706 0
-103 -1723 0
-104 -1725 0
-105 -1726 0
-106 -1727 0
-107 -1728 0
-101 -1737 0
-104 -1740 0
-107 -1742 0
-104 -1753 0
-105 -1754 0
-107 -1755 0
-103 -1756 0
-104 -1759 0
-107 -1761 0
-101 -1768 0
-104 -1770 0
-105 -1771 0
-106 -1772 0
-107 -1773 0
-105 -1797 0
-106 -1798 0
-107 -1799 0
-103 -1800 0
-105 -1802 0
-106 -1804 0
-107 -1805 0
-101 -1812 0
-106 -1816 0
-107 -1817 0
-103 -1830 0
-104 -1833 0
-107 -1835 0
-101 -1844 0
-102 -1845 0
-104 -1847 0
-106 -1849 0
-107 -1850 0
-101 -1858 0
-104 -1861 0
-106 -1863 0
-107 -1864 0
-101 -1865 0
-105 -1867 0
-106 -1869 0
-107 -1870 0
-101 -1886 0
-105 -1889 0
-106 -1890 0
-107 -1891 0
-101 -1899 0
-103 -1900 0
-104 -1901 0
-106 -1903 0
-107 -1904 0
-101 -1905 0
-104 -1907 0
-105 -1908 0
-107 -1910 0
-101 -1919 0
-104 -1922 0
-107 -1924 0
-101 -1925 0
-106 -1929 0
-107 -1930 0
-105 -1939 0
-106 -1941 0
-107 -1942 0
-104 -1954 0
-105 -1955 0
-106 -1957 0
-107 -1958 0
-113 -284 0
-109 -323 0
-110 -325 0
-111 -326 0
-112 -328 0
-113 -330 0
-109 -348 0
-110 -350 0
-111 -352 0
-113 -353 0
-108 -354 0
-109 -355 0
-111 -358 0
-112 -360 0
-113 -362 0
-108 -363 0
-109 -364 0
-111 -366 0
-113 -368 0
-108 -369 0
-110 -371 0
-111 -372 0
-113 -374 0
-109 -375 0
-112 -379 0
-113 -381 0
-109 -382 0
-111 -384 0
-112 -385 0
-113 -388 0
-110 -390 0
-112 -392 0
-113 -395 0
-108 -480 0
-110 -483 0
-111 -485 0
-113 -488 0
-110 -532 0
-112 -534 0
-113 -536 0
-110 -553 0
-113 -557 0
-108 -558 0
-112 -561 0
-113 -564 0
-108 -565 0
-111 -568 0
-113 -571 0
-109 -593 0
-111 -595 0
-112 -596 0
-113 -599 0
-109 -600 0
-111 -603 0
-113 -606 0
-110 -608 0
-111 -610 0
-113 -613 0
-110 -676 0
-111 -677 0
-113 -680 0
-112 -699 0
-113 -701 0
-111 -703 0
-113 -707 0
-109 -708 0
-110 -709 0
-111 -710 0
-112 -712 0
-113 -714 0
-109 -715 0
-110 -716 0
-111 -718 0
-112 -719 0
-113 -721 0
-110 -723 0
-111 -725 0
-112 -727 0
-113 -728 0
-110 -737 0
-111 -738 0
-112 -739 0
-113 -742 0
-110 -755 0
-111 -757 0
-113 -760 0
-108 -761 0
-110 -762 0
-111 -764 0
-112 -765 0
-113 -767 0
-108 -768 0
-110 -769 0
-111 -770 0
-113 -774 0
-110 -775 0
-112 -777 0
-113 -780 0
-110 -781 0
-111 -782 0
-112 -784 0
-113 -786 0
-109 -816 0
-112 -819 0
-113 -820 0
-109 -839 0
-113 -843 0
-108 -859 0
-113 -864 0
-111 -882 0
-112 -883 0
-113 -885 0
-111 -887 0
-113 -891 0
-108 -967 0
-113 -972 0
-111 -1010 0
-112 -1012 0
-113 -1014 0
-111 -1018 0
-113 -1020 0
-109 -1036 0
-110 -1037 0
-112 -1038 0
-113 -1040 0
-108 -1056 0
-109 -1058 0
-112 -1060 0
-113 -1061 0
-108 -1062 0
-109 -1064 0
-111 -1066 0
-112 -1067 0
-113 -1070 0
-108 -1078 0
-110 -1081 0
-112 -1084 0
-113 -1086 0
-108 -1087 0
-109 -1088 0
-112 -1090 0
-113 -1092 0
-108 -1093 0
-109 -1094 0
-111 -1095 0
-113 -1098 0
-108 -1099 0
-110 -1101 0
-113 -1104 0
-108 -1111 0
-112 -1114 0
-113 -1116 0
-108 -1117 0
-111 -1120 0
-113 -1122 0
-109 -1123 0
-111 -1125 0
-112 -1126 0
-113 -1128 0
-109 -1129 0
-112 -1131 0
-113 -1134 0
-110 -1136 0
-111 -1137 0
-112 -1138 0
-113 -1140 0
-108 -1147 0
-111 -1149 0
-112 -1151 0
-113 -1153 0
-108 -1154 0
-112 -1157 0
-113 -1160 0
-108 -1173 0
-110 -1175 0
-112 -1176 0
-113 -1178 0
-108 -1193 0
-110 -1195 0
-113 -1198 0
-108 -1211 0
-112 -1214 0
-113 -1216 0
-108 -1217 0
-111 -1219 0
-113 -1222 0
-110 -1225 0
-111 -1227 0
-112 -1229 0
-113 -1232 0
-108 -1247 0
-111 -1250 0
-112 -1251 0
-113 -1253 0
-108 -1254 0
-112 -1257 0
-113 -1260 0
-108 -1261 0
-111 -1263 0
-112 -1265 0
-113 -1266 0
-108 -1267 0
-113 -1272 0
-109 -1288 0
-112 -1290 0
-113 -1293 0
-109 -1295 0
-111 -1297 0
-112 -1299 0
-113 -1300 0
-110 -1303 0
-112 -1305 0
-113 -1307 0
-109 -1308 0
-112 -1310 0
-113 -1313 0
-109 -1314 0
-111 -1316 0
-113 -1319 0
-110 -1321 0
-113 -1325 0
-108 -1335 0
-112 -1338 0
-113 -1341 0
-108 -1342 0
-111 -1345 0
-113 -1348 0
-110 -1357 0
-112 -1360 0
-113 -1362 0
-110 -1364 0
-113 -1368 0
-108 -1383 0
-112 -1386 0
-113 -1389 0
-108 -1390 0
-111 -1393 0
-113 -1396 0
-111 -1398 0
-112 -1400 0
-113 -1403 0
-110 -1405 0
-112 -1407 0
-113 -1410 0
-108 -1417 0
-110 -1418 0
-112 -1421 0
-113 -1423 0
-108 -1424 0
-110 -1425 0
-111 -1427 0
-112 -1428 0
-113 -1430 0
-111 -1494 0
-112 -1496 0
-113 -1498 0
-111 -1562 0
-112 -1563 0
-113 -1565 0
-109 -1608 0
-111 -1610 0
-112 -1612 0
-113 -1613 0
-109 -1615 0
-111 -1616 0
-113 -1620 0
-110 -1629 0
-111 -1630 0
-113 -1633 0
-109 -1634 0
-111 -1636 0
-113 -1639 0
-109 -1640 0
-111 -1642 0
-112 -1643 0
-113 -1645 0
-110 -1647 0
-111 -1649 0
-112 -1651 0
-113 -1654 0
-108 -1661 0
-111 -1664 0
-113 -1667 0
-108 -1668 0
-111 -1670 0
-112 -1672 0
-113 -1674 0
-112 -1678 0
-113 -1680 0
-111 -1682 0
-113 -1686 0
-110 -1695 0
-111 -1697 0
-113 -1700 0
-110 -1717 0
-111 -1719 0
-112 -1720 0
-113 -1721 0
-108 -1736 0
-111 -1739 0
-113 -1742 0
-108 -1743 0
-111 -1746 0
-112 -1747 0
-113 -1749 0
-112 -1771 0
-113 -1773 0
-111 -1776 0
-113 -1779 0
-111 -1782 0
-112 -1784 0
-113 -1787 0
-111 -1789 0
-113 -1793 0
-111 -1796 0
-112 -1797 0
-113 -1799 0
-111 -1814 0
-113 -1817 0
-111 -1819 0
-112 -1821 0
-113 -1823 0
-110 -1824 0
-111 -1825 0
-112 -1827 0
-113 -1829 0
-110 -1830 0
-111 -1832 0
-113 -1835 0
-113 -1864 0
-112 -1867 0
-113 -1870 0
-112 -1882 0
-113 -1884 0
-110 -1900 0
-113 -1904 0
-108 -1911 0
-112 -1914 0
-113 -1917 0
-108 -1918 0
-111 -1921 0
-113 -1924 0
-108 -1931 0
-113 -1936 0
-108 -1937 0
-111 -1938 0
-112 -1939 0
-113 -1942 0
-111 -1944 0
-112 -1946 0
-113 -1949 0
-111 -1953 0
-112 -1955 0
-113 -1958 0
-115 -316 0
-118 -317 0
-119 -319 0
-120 -321 0
-115 -355 0
-116 -356 0
-118 -358 0
-119 -360 0
-120 -362 0
-115 -364 0
-116 -365 0
-118 -366 0
-120 -368 0
-115 -375 0
-116 -376 0
-119 -379 0
-120 -381 0
-115 -382 0
-116 -383 0
-118 -384 0
-119 -385 0
-120 -388 0
-116 -396 0
-118 -398 0
-119 -399 0
-120 -401 0
-115 -474 0
-118 -476 0
-120 -479 0
-115 -525 0
-119 -527 0
-120 -529 0
-116 -559 0
-119 -561 0
-120 -564 0
-116 -566 0
-118 -568 0
-120 -571 0
-115 -572 0
-118 -574 0
-119 -575 0
-120 -577 0
-115 -593 0
-116 -594 0
-118 -595 0
-119 -596 0
-120 -599 0
-115 -600 0
-116 -601 0
-118 -603 0
-120 -606 0
-115 -669 0
-118 -670 0
-120 -673 0
-116 -696 0
-119 -699 0
-120 -701 0
-116 -702 0
-118 -703 0
-120 -707 0
-115 -708 0
-117 -709 0
-118 -710 0
-119 -712 0
-120 -714 0
-115 -715 0
-117 -716 0
-118 -718 0
-119 -719 0
-120 -721 0
-116 -729 0
-117 -730 0
-118 -731 0
-119 -732 0
-120 -734 0
-117 -762 0
-118 -764 0
-119 -765 0
-120 -767 0
-117 -769 0
-118 -770 0
-120 -774 0
-117 -775 0
-119 -777 0
-120 -780 0
-117 -781 0
-118 -782 0
-119 -784 0
-120 -786 0
-114 -1057 0
-115 -1058 0
-119 -1060 0
-120 -1061 0
-114 -1063 0
-115 -1064 0
-118 -1066 0
-119 -1067 0
-120 -1070 0
-115 -1072 0
-119 -1075 0
-120 -1077 0
-115 -1088 0
-119 -1090 0
-120 -1092 0
-115 -1094 0
-118 -1095 0
-120 -1098 0
-114 -1106 0
-116 -1107 0
-118 -1108 0
-119 -1109 0
-120 -1110 0
-116 -1112 0
-119 -1114 0
-120 -1116 0
-116 -1118 0
-118 -1120 0
-120 -1122 0
-115 -1123 0
-118 -1125 0
-119 -1126 0
-120 -1128 0
-115 -1129 0
-119 -1131 0
-120 -1134 0
-114 -1141 0
-116 -1142 0
-119 -1143 0
-120 -1146 0
-116 -1148 0
-118 -1149 0
-119 -1151 0
-120 -1153 0
-116 -1155 0
-119 -1157 0
-120 -1160 0
-116 -1161 0
-119 -1164 0
-120 -1166 0
-114 -1212 0
-119 -1214 0
-120 -1216 0
-114 -1218 0
-118 -1219 0
-120 -1222 0
-114 -1248 0
-118 -1250 0
-119 -1251 0
-120 -1253 0
-114 -1255 0
-119 -1257 0
-120 -1260 0
-118 -1263 0
-119 -1265 0
-120 -1266 0
-120 -1272 0
-114 -1287 0
-115 -1288 0
-119 -1290 0
-120 -1293 0
-114 -1294 0
-115 -1295 0
-118 -1297 0
-119 -1299 0
-120 -1300 0
-115 -1308 0
-119 -1310 0
-120 -1313 0
-115 -1314 0
-118 -1316 0
-120 -1319 0
-114 -1326 0
-116 -1327 0
-118 -1329 0
-119 -1331 0
-120 -1334 0
-116 -1336 0
-119 -1338 0
-120 -1341 0
-116 -1343 0
-118 -1345 0
-120 -1348 0
-114 -1384 0
-119 -1386 0
-120 -1389 0
-114 -1391 0
-118 -1393 0
-120 -1396 0
-118 -1398 0
-119 -1400 0
-120 -1403 0
-114 -1411 0
-117 -1412 0
-118 -1414 0
-119 -1415 0
-120 -1416 0
-117 -1418 0
-119 -1421 0
-120 -1423 0
-117 -1425 0
-118 -1427 0
-119 -1428 0
-120 -1430 0
-117 -1431 0
-118 -1432 0
-119 -1434 0
-120 -1436 0
-114 -1607 0
-115 -1608 0
-118 -1610 0
-119 -1612 0
-120 -1613 0
-114 -1614 0
-115 -1615 0
-118 -1616 0
-120 -1620 0
-115 -1622 0
-118 -1623 0
-120 -1626 0
-115 -1634 0
-118 -1636 0
-120 -1639 0
-115 -1640 0
-118 -1642 0
-119 -1643 0
-120 -1645 0
-114 -1655 0
-116 -1656 0
-118 -1658 0
-120 -1660 0
-116 -1662 0
-118 -1664 0
-120 -1667 0
-116 -1669 0
-118 -1670 0
-119 -1672 0
-120 -1674 0
-116 -1675 0
-119 -1678 0
-120 -1680 0
-116 -1681 0
-118 -1682 0
-120 -1686 0
-114 -1737 0
-118 -1739 0
-120 -1742 0
-114 -1744 0
-118 -1746 0
-119 -1747 0
-120 -1749 0
-118 -1752 0
-119 -1754 0
-120 -1755 0
-114 -1768 0
-119 -1771 0
-120 -1773 0
-114 -1774 0
-118 -1776 0
-120 -1779 0
-118 -1782 0
-119 -1784 0
-120 -1787 0
-116 -1788 0
-118 -1789 0
-120 -1793 0
-116 -1794 0
-118 -1796 0
-119 -1797 0
-120 -1799 0
-114 -1812 0
-118 -1814 0
-120 -1817 0
-114 -1818 0
-118 -1819 0
-119 -1821 0
-120 -1823 0
-117 -1824 0
-118 -1825 0
-119 -1827 0
-120 -1829 0
-117 -1830 0
-118 -1832 0
-120 -1835 0
-114 -1905 0
-118 -1906 0
-119 -1908 0
-120 -1910 0
-114 -1912 0
-119 -1914 0
-120 -1917 0
-114 -1919 0
-118 -1921 0
-120 -1924 0
-114 -1925 0
-118 -1927 0
-120 -1930 0
-120 -1936 0
-118 -1938 0
-119 -1939 0
-120 -1942 0
-118 -1944 0
-119 -1946 0
-120 -1949 0
-118 -1953 0
-119 -1955 0
-120 -1958 0
-126 -277 0
-123 -309 0
-124 -313 0
-126 -314 0
-123 -348 0
-126 -353 0
-121 -369 0
-126 -374 0
-124 -393 0
-125 -394 0
-126 -395 0
-125 -400 0
-126 -401 0
-121 -467 0
-126 -472 0
-124 -521 0
-125 -522 0
-126 -523 0
-125 -556 0
-126 -557 0
-124 -611 0
-125 -612 0
-126 -613 0
-124 -665 0
-125 -666 0
-126 -667 0
-126 -728 0
-124 -733 0
-126 -734 0
-124 -759 0
-126 -760 0
-122 -806 0
-123 -807 0
-124 -812 0
-125 -813 0
-126 -814 0
-122 -838 0
-123 -839 0
-125 -842 0
-126 -843 0
-121 -844 0
-123 -845 0
-125 -848 0
-126 -849 0
-121 -850 0
-123 -851 0
-124 -856 0
-125 -857 0
-126 -858 0
-121 -859 0
-122 -860 0
-125 -863 0
-126 -864 0
-123 -865 0
-124 -869 0
-125 -870 0
-126 -871 0
-123 -872 0
-124 -877 0
-126 -878 0
-122 -879 0
-124 -884 0
-126 -885 0
-121 -958 0
-122 -959 0
-125 -965 0
-126 -966 0
-122 -1001 0
-124 -1006 0
-126 -1007 0
-122 -1015 0
-126 -1020 0
-121 -1021 0
-125 -1026 0
-126 -1027 0
-121 -1028 0
-124 -1033 0
-126 -1034 0
-122 -1035 0
-123 -1036 0
-124 -1039 0
-126 -1040 0
-121 -1041 0
-123 -1042 0
-124 -1047 0
-125 -1048 0
-126 -1049 0
-121 -1050 0
-123 -1051 0
-124 -1054 0
-126 -1055 0
-121 -1078 0
-122 -1079 0
-124 -1085 0
-126 -1086 0
-121 -1087 0
-123 -1088 0
-125 -1091 0
-126 -1092 0
-121 -1093 0
-123 -1094 0
-124 -1097 0
-126 -1098 0
-121 -1105 0
-122 -1106 0
-126 -1110 0
-121 -1111 0
-125 -1115 0
-126 -1116 0
-121 -1117 0
-124 -1121 0
-126 -1122 0
-123 -1123 0
-124 -1127 0
-126 -1128 0
-123 -1129 0
-124 -1132 0
-125 -1133 0
-126 -1134 0
-122 -1141 0
-124 -1144 0
-125 -1145 0
-126 -1146 0
-121 -1147 0
-124 -1152 0
-126 -1153 0
-121 -1154 0
-124 -1158 0
-125 -1159 0
-126 -1160 0
-121 -1167 0
-122 -1168 0
-124 -1171 0
-126 -1172 0
-121 -1193 0
-122 -1194 0
-126 -1198 0
-121 -1199 0
-125 -1203 0
-126 -1204 0
-121 -1205 0
-124 -1209 0
-126 -1210 0
-122 -1224 0
-124 -1230 0
-125 -1231 0
-126 -1232 0
-121 -1233 0
-124 -1238 0
-126 -1239 0
-121 -1240 0
-124 -1244 0
-125 -1245 0
-126 -1246 0
-121 -1261 0
-126 -1266 0
-121 -1267 0
-124 -1270 0
-125 -1271 0
-126 -1272 0
-123 -1273 0
-125 -1278 0
-126 -1279 0
-123 -1280 0
-124 -1284 0
-125 -1285 0
-126 -1286 0
-122 -1301 0
-125 -1306 0
-126 -1307 0
-123 -1308 0
-124 -1311 0
-125 -1312 0
-126 -1313 0
-123 -1314 0
-125 -1318 0
-126 -1319 0
-122 -1326 0
-124 -1332 0
-125 -1333 0
-126 -1334 0
-121 -1335 0
-124 -1339 0
-125 -1340 0
-126 -1341 0
-121 -1342 0
-125 -1347 0
-126 -1348 0
-122 -1349 0
-125 -1354 0
-126 -1355 0
-122 -1363 0
-124 -1366 0
-125 -1367 0
-126 -1368 0
-121 -1369 0
-124 -1373 0
-125 -1374 0
-126 -1375 0
-121 -1376 0
-125 -1381 0
-126 -1382 0
-124 -1401 0
-125 -1402 0
-126 -1403 0
-122 -1411 0
-126 -1416 0
-121 -1417 0
-125 -1422 0
-126 -1423 0
-121 -1424 0
-124 -1429 0
-126 -1430 0
-121 -1437 0
-124 -1440 0
-125 -1441 0
-126 -1442 0
-121 -1443 0
-126 -1448 0
-124 -1454 0
-125 -1455 0
-126 -1456 0
-123 -1478 0
-125 -1483 0
-126 -1484 0
-123 -1485 0
-124 -1489 0
-125 -1490 0
-126 -1491 0
-122 -1492 0
-125 -1497 0
-126 -1498 0
-122 -1552 0
-125 -1557 0
-126 -1558 0
-125 -1585 0
-126 -1586 0
-124 -1591 0
-126 -1592 0
-123 -1593 0
-124 -1597 0
-125 -1598 0
-126 -1599 0
-123 -1600 0
-124 -1605 0
-126 -1606 0
-122 -1627 0
-124 -1632 0
-126 -1633 0
-123 -1634 0
-125 -1638 0
-126 -1639 0
-123 -1640 0
-124 -1644 0
-126 -1645 0
-122 -1655 0
-126 -1660 0
-121 -1661 0
-125 -1666 0
-126 -1667 0
-121 -1668 0
-124 -1673 0
-126 -1674 0
-124 -1679 0
-126 -1680 0
-124 -1684 0
-125 -1685 0
-126 -1686 0
-122 -1687 0
-124 -1692 0
-126 -1693 0
-122 -1716 0
-126 -1721 0
-121 -1722 0
-125 -1727 0
-126 -1728 0
-121 -1729 0
-124 -1734 0
-126 -1735 0
-124 -1760 0
-126 -1761 0
-124 -1765 0
-125 -1766 0
-126 -1767 0
-124 -1785 0
-125 -1786 0
-126 -1787 0
-124 -1791 0
-125 -1792 0
-126 -1793 0
-125 -1798 0
-126 -1799 0
-124 -1803 0
-125 -1804 0
-126 -1805 0
-125 -1810 0
-126 -1811 0
-125 -1828 0
-126 -1829 0
-124 -1834 0
-126 -1835 0
-124 -1840 0
-125 -1841 0
-126 -1842 0
-122 -1844 0
-123 -1845 0
-124 -1848 0
-125 -1849 0
-126 -1850 0
-122 -1851 0
-123 -1852 0
-124 -1855 0
-125 -1856 0
-126 -1857 0
-122 -1858 0
-124 -1862 0
-125 -1863 0
-126 -1864 0
-122 -1871 0
-124 -1875 0
-125 -1876 0
-126 -1877 0
-122 -1879 0
-125 -1883 0
-126 -1884 0
-121 -1885 0
-122 -1886 0
-125 -1890 0
-126 -1891 0
-121 -1892 0
-122 -1893 0
-124 -1896 0
-125 -1897 0
-126 -1898 0
-122 -1905 0
-124 -1909 0
-126 -1910 0
-121 -1911 0
-122 -1912 0
-124 -1915 0
-125 -1916 0
-126 -1917 0
-121 -1918 0
-122 -1919 0
-124 -1923 0
-126 -1924 0
-128 -800 0
-131 -803 0
-132 -804 0
-133 -805 0
-128 -845 0
-129 -846 0
-132 -848 0
-133 -849 0
-128 -851 0
-129 -852 0
-131 -856 0
-132 -857 0
-133 -858 0
-128 -865 0
-129 -866 0
-131 -869 0
-132 -870 0
-133 -871 0
-128 -872 0
-129 -873 0
-131 -877 0
-133 -878 0
-129 -886 0
-131 -889 0
-132 -890 0
-133 -891 0
-128 -952 0
-132 -956 0
-133 -957 0
-129 -1022 0
-132 -1026 0
-133 -1027 0
-129 -1029 0
-131 -1033 0
-133 -1034 0
-128 -1042 0
-130 -1043 0
-131 -1047 0
-132 -1048 0
-133 -1049 0
-128 -1051 0
-130 -1052 0
-131 -1054 0
-133 -1055 0
-128 -1072 0
-131 -1076 0
-133 -1077 0
-128 -1088 0
-132 -1091 0
-133 -1092 0
-128 -1094 0
-131 -1097 0
-133 -1098 0
-129 -1100 0
-130 -1101 0
-131 -1102 0
-132 -1103 0
-133 -1104 0
-129 -1112 0
-132 -1115 0
-133 -1116 0
-129 -1118 0
-131 -1121 0
-133 -1122 0
-128 -1123 0
-131 -1127 0
-133 -1128 0
-128 -1129 0
-131 -1132 0
-132 -1133 0
-133 -1134 0
-129 -1135 0
-130 -1136 0
-131 -1139 0
-133 -1140 0
-129 -1148 0
-131 -1152 0
-133 -1153 0
-129 -1155 0
-131 -1158 0
-132 -1159 0
-133 -1160 0
-129 -1161 0
-131 -1165 0
-133 -1166 0
-130 -1200 0
-132 -1203 0
-133 -1204 0
-130 -1206 0
-131 -1209 0
-133 -1210 0
-130 -1234 0
-131 -1238 0
-133 -1239 0
-130 -1241 0
-131 -1244 0
-132 -1245 0
-133 -1246 0
-133 -1266 0
-131 -1270 0
-132 -1271 0
-133 -1272 0
-128 -1273 0
-130 -1274 0
-132 -1278 0
-133 -1279 0
-128 -1280 0
-130 -1281 0
-131 -1284 0
-132 -1285 0
-133 -1286 0
-128 -1308 0
-131 -1311 0
-132 -1312 0
-133 -1313 0
-128 -1314 0
-132 -1318 0
-133 -1319 0
-129 -1320 0
-130 -1321 0
-132 -1324 0
-133 -1325 0
-129 -1336 0
-131 -1339 0
-132 -1340 0
-133 -1341 0
-129 -1343 0
-132 -1347 0
-133 -1348 0
-130 -1370 0
-131 -1373 0
-132 -1374 0
-133 -1375 0
-130 -1377 0
-132 -1381 0
-133 -1382 0
-131 -1401 0
-132 -1402 0
-133 -1403 0
-130 -1405 0
-131 -1408 0
-132 -1409 0
-133 -1410 0
-130 -1418 0
-132 -1422 0
-133 -1423 0
-130 -1425 0
-131 -1429 0
-133 -1430 0
-130 -1431 0
-132 -1435 0
-133 -1436 0
-131 -1440 0
-132 -1441 0
-133 -1442 0
-133 -1448 0
-131 -1454 0
-132 -1455 0
-133 -1456 0
-128 -1457 0
-131 -1460 0
-132 -1461 0
-133 -1462 0
-128 -1478 0
-129 -1479 0
-132 -1483 0
-133 -1484 0
-128 -1485 0
-129 -1486 0
-131 -1489 0
-132 -1490 0
-133 -1491 0
-128 -1547 0
-132 -1550 0
-133 -1551 0
-129 -1581 0
-132 -1585 0
-133 -1586 0
-129 -1587 0
-131 -1591 0
-133 -1592 0
-128 -1593 0
-130 -1594 0
-131 -1597 0
-132 -1598 0
-133 -1599 0
-128 -1600 0
-130 -1601 0
-131 -1605 0
-133 -1606 0
-128 -1622 0
-131 -1625 0
-133 -1626 0
-128 -1634 0
-132 -1638 0
-133 -1639 0
-128 -1640 0
-131 -1644 0
-133 -1645 0
-129 -1646 0
-130 -1647 0
-131 -1652 0
-132 -1653 0
-133 -1654 0
-129 -1662 0
-132 -1666 0
-133 -1667 0
-129 -1669 0
-131 -1673 0
-133 -1674 0
-129 -1675 0
-131 -1679 0
-133 -1680 0
-129 -1681 0
-131 -1684 0
-132 -1685 0
-133 -1686 0
-130 -1723 0
-132 -1727 0
-133 -1728 0
-130 -1730 0
-131 -1734 0
-133 -1735 0
-133 -1755 0
-130 -1756 0
-131 -1760 0
-133 -1761 0
-130 -1762 0
-131 -1765 0
-132 -1766 0
-133 -1767 0
-131 -1785 0
-132 -1786 0
-133 -1787 0
-129 -1788 0
-131 -1791 0
-132 -1792 0
-133 -1793 0
-129 -1794 0
-132 -1798 0
-133 -1799 0
-130 -1800 0
-131 -1803 0
-132 -1804 0
-133 -1805 0
-130 -1806 0
-132 -1810 0
-133 -1811 0
-130 -1824 0
-132 -1828 0
-133 -1829 0
-130 -1830 0
-131 -1834 0
-133 -1835 0
-131 -1840 0
-132 -1841 0
-133 -1842 0
-127 -1844 0
-128 -1845 0
-131 -1848 0
-132 -1849 0
-133 -1850 0
-127 -1851 0
-128 -1852 0
-131 -1855 0
-132 -1856 0
-133 -1857 0
-127 -1865 0
-129 -1866 0
-131 -1868 0
-132 -1869 0
-133 -1870 0
-127 -1886 0
-132 -1890 0
-133 -1891 0
-127 -1893 0
-131 -1896 0
-132 -1897 0
-133 -1898 0
-127 -1899 0
-130 -1900 0
-131 -1902 0
-132 -1903 0
-133 -1904 0
-127 -1912 0
-131 -1915 0
-132 -1916 0
-133 -1917 0
-127 -1919 0
-131 -1923 0
-133 -1924 0
-127 -1925 0
-131 -1928 0
-132 -1929 0
-133 -1930 0
-136 -264 0
-137 -265 0
-140 -267 0
-142 -270 0
-136 -303 0
-138 -304 0
-139 -305 0
-141 -306 0
-142 -308 0
-136 -348 0
-137 -349 0
-138 -350 0
-139 -352 0
-142 -353 0
-134 -363 0
-136 -364 0
-137 -365 0
-139 -366 0
-142 -368 0
-136 -382 0
-137 -383 0
-139 -384 0
-141 -386 0
-142 -388 0
-137 -396 0
-139 -398 0
-142 -401 0
-134 -458 0
-136 -459 0
-138 -460 0
-139 -462 0
-140 -463 0
-142 -466 0
-136 -510 0
-138 -511 0
-140 -513 0
-141 -514 0
-142 -516 0
-137 -552 0
-138 -553 0
-140 -555 0
-142 -557 0
-134 -565 0
-137 -566 0
-139 -568 0
-140 -569 0
-142 -571 0
-136 -600 0
-137 -601 0
-139 -603 0
-140 -604 0
-141 -605 0
-142 -606 0
-136 -654 0
-138 -655 0
-139 -656 0
-140 -657 0
-141 -659 0
-142 -660 0
-137 -702 0
-139 -703 0
-140 -704 0
-141 -705 0
-142 -707 0
-136 -715 0
-138 -716 0
-139 -718 0
-142 -721 0
-137 -729 0
-138 -730 0
-139 -731 0
-141 -733 0
-142 -734 0
-138 -755 0
-139 -757 0
-140 -758 0
-141 -759 0
-142 -760 0
-134 -768 0
-138 -769 0
-139 -770 0
-140 -771 0
-141 -772 0
-142 -774 0
-138 -781 0
-139 -782 0
-140 -783 0
-142 -786 0
-135 -793 0
-136 -794 0
-140 -796 0
-141 -797 0
-142 -798 0
-135 -838 0
-136 -839 0
-137 -840 0
-140 -841 0
-142 -843 0
-134 -850 0
-136 -851 0
-137 -852 0
-140 -854 0
-141 -856 0
-142 -858 0
-136 -872 0
-137 -873 0
-139 -875 0
-140 -876 0
-141 -877 0
-142 -878 0
-137 -886 0
-139 -887 0
-140 -888 0
-141 -889 0
-142 -891 0
-134 -945 0
-135 -946 0
-136 -947 0
-140 -948 0
-142 -950 0
-135 -994 0
-136 -995 0
-139 -996 0
-140 -997 0
-141 -998 0
-142 -1000 0
-135 -1015 0
-137 -1016 0
-139 -1018 0
-140 -1019 0
-142 -1020 0
-134 -1028 0
-137 -1029 0
-139 -1030 0
-140 -1031 0
-141 -1033 0
-142 -1034 0
-135 -1035 0
-136 -1036 0
-138 -1037 0
-141 -1039 0
-142 -1040 0
-134 -1050 0
-136 -1051 0
-138 -1052 0
-141 -1054 0
-142 -1055 0
-134 -1062 0
-135 -1063 0
-136 -1064 0
-139 -1066 0
-141 -1068 0
-142 -1070 0
-134 -1087 0
-136 -1088 0
-142 -1092 0
-134 -1099 0
-137 -1100 0
-138 -1101 0
-141 -1102 0
-142 -1104 0
-134 -1105 0
-135 -1106 0
-137 -1107 0
-139 -1108 0
-142 -1110 0
-134 -1117 0
-137 -1118 0
-139 -1120 0
-141 -1121 0
-142 -1122 0
-136 -1123 0
-139 -1125 0
-141 -1127 0
-142 -1128 0
-137 -1135 0
-138 -1136 0
-139 -1137 0
-141 -1139 0
-142 -1140 0
-135 -1141 0
-137 -1142 0
-141 -1144 0
-142 -1146 0
-134 -1154 0
-137 -1155 0
-141 -1158 0
-142 -1160 0
-134 -1193 0
-135 -1194 0
-138 -1195 0
-140 -1197 0
-142 -1198 0
-134 -1205 0
-138 -1206 0
-140 -1207 0
-141 -1209 0
-142 -1210 0
-134 -1217 0
-135 -1218 0
-139 -1219 0
-140 -1220 0
-142 -1222 0
-135 -1224 0
-138 -1225 0
-139 -1227 0
-140 -1228 0
-141 -1230 0
-142 -1232 0
-134 -1240 0
-138 -1241 0
-139 -1242 0
-140 -1243 0
-141 -1244 0
-142 -1246 0
-134 -1254 0
-135 -1255 0
-140 -1256 0
-141 -1258 0
-142 -1260 0
-134 -1261 0
-139 -1263 0
-140 -1264 0
-142 -1266 0
-136 -1280 0
-138 -1281 0
-140 -1283 0
-141 -1284 0
-142 -1286 0
-135 -1294 0
-136 -1295 0
-139 -1297 0
-140 -1298 0
-142 -1300 0
-136 -1308 0
-140 -1309 0
-141 -1311 0
-142 -1313 0
-137 -1320 0
-138 -1321 0
-140 -1323 0
-142 -1325 0
-135 -1326 0
-137 -1327 0
-139 -1329 0
-140 -1330 0
-141 -1332 0
-142 -1334 0
-134 -1342 0
-137 -1343 0
-139 -1345 0
-140 -1346 0
-142 -1348 0
-135 -1363 0
-138 -1364 0
-140 -1365 0
-141 -1366 0
-142 -1368 0
-134 -1376 0
-138 -1377 0
-140 -1379 0
-142 -1382 0
-134 -1390 0
-135 -1391 0
-139 -1393 0
-140 -1394 0
-141 -1395 0
-142 -1396 0
-139 -1398 0
-140 -1399 0
-141 -1401 0
-142 -1403 0
-138 -1405 0
-141 -1408 0
-142 -1410 0
-135 -1411 0
-138 -1412 0
-139 -1414 0
-142 -1416 0
-134 -1424 0
-138 -1425 0
-139 -1427 0
-141 -1429 0
-142 -1430 0
-134 -1437 0
-139 -1438 0
-141 -1440 0
-142 -1442 0
-136 -1485 0
-137 -1486 0
-139 -1487 0
-141 -1489 0
-142 -1491 0
-135 -1539 0
-136 -1540 0
-139 -1542 0
-140 -1543 0
-142 -1545 0
-137 -1587 0
-140 -1589 0
-141 -1591 0
-142 -1592 0
-136 -1600 0
-138 -1601 0
-139 -1602 0
-140 -1603 0
-141 -1605 0
-142 -1606 0
-135 -1614 0
-136 -1615 0
-139 -1616 0
-140 -1617 0
-141 -1618 0
-142 -1620 0
-136 -1634 0
-139 -1636 0
-140 -1637 0
-142 -1639 0
-137 -1646 0
-138 -1647 0
-139 -1649 0
-140 -1650 0
-141 -1652 0
-142 -1654 0
-135 -1655 0
-137 -1656 0
-139 -1658 0
-140 -1659 0
-142 -1660 0
-134 -1668 0
-137 -1669 0
-139 -1670 0
-140 -1671 0
-141 -1673 0
-142 -1674 0
-137 -1681 0
-139 -1682 0
-140 -1683 0
-141 -1684 0
-142 -1686 0
-135 -1716 0
-138 -1717 0
-139 -1719 0
-142 -1721 0
-134 -1729 0
-138 -1730 0
-139 -1732 0
-141 -1734 0
-142 -1735 0
-134 -1743 0
-135 -1744 0
-139 -1746 0
-142 -1749 0
-138 -1762 0
-141 -1765 0
-142 -1767 0
-135 -1774 0
-139 -1776 0
-141 -1777 0
-142 -1779 0
-137 -1794 0
-139 -1796 0
-142 -1799 0
-138 -1806 0
-139 -1807 0
-140 -1808 0
-142 -1811 0
-135 -1818 0
-139 -1819 0
-140 -1820 0
-141 -1822 0
-142 -1823 0
-138 -1830 0
-139 -1832 0
-140 -1833 0
-141 -1834 0
-142 -1835 0
-139 -1837 0
-140 -1838 0
-141 -1840 0
-142 -1842 0
-135 -1851 0
-136 -1852 0
-141 -1855 0
-142 -1857 0
-135 -1865 0
-137 -1866 0
-141 -1868 0
-142 -1870 0
-135 -1879 0
-140 -1881 0
-142 -1884 0
-134 -1892 0
-135 -1893 0
-140 -1894 0
-141 -1896 0
-142 -1898 0
-135 -1899 0
-138 -1900 0
-140 -1901 0
-141 -1902 0
-142 -1904 0
-135 -1905 0
-139 -1906 0
-140 -1907 0
-141 -1909 0
-142 -1910 0
-134 -1918 0
-135 -1919 0
-139 -1921 0
-140 -1922 0
-141 -1923 0
-142 -1924 0
-134 -1931 0
-140 -1933 0
-141 -1934 0
-142 -1936 0
-139 -1944 0
-140 -1945 0
-141 -1947 0
-142 -1949 0
-145 -257 0
-146 -258 0
-148 -259 0
-151 -263 0
-145 -297 0
-147 -298 0
-148 -299 0
-149 -301 0
-151 -302 0
-145 -348 0
-146 -349 0
-147 -350 0
-148 -351 0
-151 -353 0
-143 -354 0
-145 -355 0
-146 -356 0
-148 -357 0
-149 -360 0
-151 -362 0
-145 -375 0
-146 -376 0
-148 -377 0
-149 -379 0
-150 -380 0
-151 -381 0
-146 -396 0
-148 -397 0
-149 -399 0
-150 -400 0
-151 -401 0
-143 -452 0
-145 -453 0
-147 -454 0
-148 -455 0
-151 -457 0
-145 -503 0
-147 -504 0
-148 -505 0
-149 -507 0
-150 -508 0
-151 -509 0
-146 -552 0
-147 -553 0
-148 -554 0
-150 -556 0
-151 -557 0
-143 -558 0
-146 -559 0
-148 -560 0
-149 -561 0
-150 -563 0
-151 -564 0
-145 -593 0
-146 -594 0
-149 -596 0
-150 -598 0
-151 -599 0
-145 -647 0
-147 -648 0
-148 -649 0
-150 -652 0
-151 -653 0
-146 -696 0
-148 -697 0
-149 -699 0
-151 -701 0
-145 -708 0
-147 -709 0
-149 -712 0
-151 -714 0
-146 -729 0
-147 -730 0
-149 -732 0
-151 -734 0
-147 -755 0
-148 -756 0
-151 -760 0
-143 -761 0
-147 -762 0
-148 -763 0
-149 -765 0
-151 -767 0
-147 -775 0
-148 -776 0
-149 -777 0
-150 -779 0
-151 -780 0
-144 -787 0
-145 -788 0
-149 -790 0
-150 -791 0
-151 -792 0
-144 -838 0
-145 -839 0
-146 -840 0
-150 -842 0
-151 -843 0
-143 -844 0
-145 -845 0
-146 -846 0
-150 -848 0
-151 -849 0
-145 -865 0
-146 -866 0
-149 -868 0
-150 -870 0
-151 -871 0
-146 -886 0
-150 -890 0
-151 -891 0
-143 -936 0
-144 -937 0
-145 -938 0
-148 -939 0
-150 -943 0
-151 -944 0
-144 -987 0
-145 -988 0
-148 -989 0
-149 -992 0
-151 -993 0
-144 -1015 0
-146 -1016 0
-148 -1017 0
-151 -1020 0
-143 -1021 0
-146 -1022 0
-148 -1023 0
-150 -1026 0
-151 -1027 0
-144 -1035 0
-145 -1036 0
-147 -1037 0
-149 -1038 0
-151 -1040 0
-143 -1041 0
-145 -1042 0
-147 -1043 0
-149 -1046 0
-150 -1048 0
-151 -1049 0
-143 -1056 0
-144 -1057 0
-145 -1058 0
-149 -1060 0
-151 -1061 0
-143 -1093 0
-145 -1094 0
-151 -1098 0
-143 -1099 0
-146 -1100 0
-147 -1101 0
-150 -1103 0
-151 -1104 0
-143 -1105 0
-144 -1106 0
-146 -1107 0
-149 -1109 0
-151 -1110 0
-143 -1111 0
-146 -1112 0
-149 -1114 0
-150 -1115 0
-151 -1116 0
-145 -1129 0
-149 -1131 0
-150 -1133 0
-151 -1134 0
-146 -1135 0
-147 -1136 0
-149 -1138 0
-151 -1140 0
-144 -1141 0
-146 -1142 0
-149 -1143 0
-150 -1145 0
-151 -1146 0
-143 -1147 0
-146 -1148 0
-149 -1151 0
-151 -1153 0
-143 -1193 0
-144 -1194 0
-147 -1195 0
-148 -1196 0
-151 -1198 0
-143 -1199 0
-147 -1200 0
-148 -1201 0
-150 -1203 0
-151 -1204 0
-143 -1211 0
-144 -1212 0
-148 -1213 0
-149 -1214 0
-151 -1216 0
-144 -1224 0
-147 -1225 0
-148 -1226 0
-149 -1229 0
-150 -1231 0
-151 -1232 0
-143 -1233 0
-147 -1234 0
-148 -1235 0
-149 -1237 0
-151 -1239 0
-143 -1247 0
-144 -1248 0
-148 -1249 0
-149 -1251 0
-150 -1252 0
-151 -1253 0
-143 -1267 0
-148 -1268 0
-150 -1271 0
-151 -1272 0
-145 -1273 0
-147 -1274 0
-148 -1275 0
-149 -1277 0
-150 -1278 0
-151 -1279 0
-144 -1287 0
-145 -1288 0
-148 -1289 0
-149 -1290 0
-150 -1292 0
-151 -1293 0
-145 -1314 0
-148 -1315 0
-150 -1318 0
-151 -1319 0
-146 -1320 0
-147 -1321 0
-148 -1322 0
-150 -1324 0
-151 -1325 0
-144 -1326 0
-146 -1327 0
-148 -1328 0
-149 -1331 0
-150 -1333 0
-151 -1334 0
-143 -1335 0
-146 -1336 0
-148 -1337 0
-149 -1338 0
-150 -1340 0
-151 -1341 0
-144 -1363 0
-147 -1364 0
-150 -1367 0
-151 -1368 0
-143 -1369 0
-147 -1370 0
-150 -1374 0
-151 -1375 0
-143 -1383 0
-144 -1384 0
-149 -1386 0
-150 -1388 0
-151 -1389 0
-147 -1405 0
-148 -1406 0
-149 -1407 0
-150 -1409 0
-151 -1410 0
-144 -1411 0
-147 -1412 0
-148 -1413 0
-149 -1415 0
-151 -1416 0
-143 -1417 0
-147 -1418 0
-148 -1419 0
-149 -1421 0
-150 -1422 0
-151 -1423 0
-143 -1443 0
-148 -1444 0
-149 -1447 0
-151 -1448 0
-148 -1450 0
-149 -1453 0
-150 -1455 0
-151 -1456 0
-145 -1478 0
-146 -1479 0
-148 -1480 0
-149 -1482 0
-150 -1483 0
-151 -1484 0
-144 -1532 0
-145 -1533 0
-148 -1534 0
-149 -1535 0
-150 -1537 0
-151 -1538 0
-146 -1581 0
-148 -1582 0
-149 -1584 0
-150 -1585 0
-151 -1586 0
-145 -1593 0
-147 -1594 0
-148 -1595 0
-150 -1598 0
-151 -1599 0
-144 -1607 0
-145 -1608 0
-148 -1609 0
-149 -1612 0
-151 -1613 0
-145 -1640 0
-148 -1641 0
-149 -1643 0
-151 -1645 0
-146 -1646 0
-147 -1647 0
-148 -1648 0
-149 -1651 0
-150 -1653 0
-151 -1654 0
-144 -1655 0
-146 -1656 0
-148 -1657 0
-151 -1660 0
-143 -1661 0
-146 -1662 0
-148 -1663 0
-150 -1666 0
-151 -1667 0
-146 -1675 0
-148 -1676 0
-149 -1678 0
-151 -1680 0
-144 -1716 0
-147 -1717 0
-148 -1718 0
-149 -1720 0
-151 -1721 0
-143 -1722 0
-147 -1723 0
-148 -1724 0
-149 -1726 0
-150 -1727 0
-151 -1728 0
-143 -1736 0
-144 -1737 0
-148 -1738 0
-151 -1742 0
-147 -1756 0
-148 -1757 0
-151 -1761 0
-144 -1768 0
-148 -1769 0
-149 -1771 0
-150 -1772 0
-151 -1773 0
-148 -1781 0
-149 -1784 0
-150 -1786 0
-151 -1787 0
-146 -1788 0
-150 -1792 0
-151 -1793 0
-147 -1800 0
-148 -1801 0
-149 -1802 0
-150 -1804 0
-151 -1805 0
-144 -1812 0
-148 -1813 0
-150 -1816 0
-151 -1817 0
-147 -1824 0
-149 -1827 0
-150 -1828 0
-151 -1829 0
-144 -1844 0
-145 -1845 0
-150 -1849 0
-151 -1850 0
-144 -1865 0
-146 -1866 0
-149 -1867 0
-150 -1869 0
-151 -1870 0
-144 -1879 0
-148 -1880 0
-149 -1882 0
-150 -1883 0
-151 -1884 0
-143 -1885 0
-144 -1886 0
-148 -1887 0
-149 -1889 0
-150 -1890 0
-151 -1891 0
-144 -1899 0
-147 -1900 0
-150 -1903 0
-151 -1904 0
-144 -1905 0
-149 -1908 0
-151 -1910 0
-143 -1911 0
-144 -1912 0
-149 -1914 0
-150 -1916 0
-151 -1917 0
-143 -1937 0
-149 -1939 0
-150 -1941 0
-151 -1942 0
-148 -1952 0
-149 -1955 0
-150 -1957 0
-151 -1958 0
-158 -256 0
-153 -309 0
-155 -312 0
-157 -313 0
-158 -314 0
-153 -323 0
-155 -327 0
-156 -328 0
-158 -330 0
-152 -331 0
-153 -332 0
-155 -335 0
-156 -336 0
-158 -337 0
-152 -338 0
-153 -339 0
-154 -342 0
-155 -344 0
-157 -345 0
-158 -347 0
-152 -369 0
-155 -373 0
-158 -374 0
-153 -375 0
-154 -377 0
-155 -378 0
-156 -379 0
-158 -381 0
-153 -382 0
-156 -385 0
-157 -386 0
-158 -388 0
-154 -397 0
-156 -399 0
-158 -401 0
-152 -445 0
-155 -449 0
-158 -451 0
-154 -519 0
-157 -521 0
-158 -523 0
-154 -533 0
-156 -534 0
-158 -536 0
-152 -537 0
-154 -540 0
-155 -542 0
-156 -543 0
-158 -545 0
-152 -546 0
-157 -549 0
-158 -551 0
-153 -578 0
-154 -581 0
-155 -582 0
-156 -583 0
-157 -584 0
-158 -586 0
-153 -587 0
-154 -590 0
-158 -592 0
-154 -609 0
-157 -611 0
-158 -613 0
-154 -644 0
-157 -645 0
-158 -646 0
-153 -708 0
-155 -711 0
-156 -712 0
-157 -713 0
-158 -714 0
-153 -715 0
-154 -717 0
-156 -719 0
-158 -721 0
-156 -732 0
-157 -733 0
-158 -734 0
-156 -739 0
-157 -740 0
-158 -742 0
-152 -743 0
-155 -745 0
-156 -746 0
-157 -747 0
-158 -748 0
-152 -749 0
-154 -751 0
-158 -754 0
-154 -776 0
-156 -777 0
-157 -778 0
-158 -780 0
-155 -783 0
-156 -784 0
-158 -786 0
-153 -807 0
-154 -810 0
-157 -812 0
-158 -814 0
-153 -816 0
-154 -818 0
-156 -819 0
-158 -820 0
-152 -821 0
-153 -823 0
-154 -825 0
-155 -827 0
-156 -828 0
-158 -830 0
-152 -831 0
-153 -833 0
-154 -835 0
-157 -836 0
-158 -837 0
-152 -859 0
-154 -862 0
-158 -864 0
-153 -865 0
-156 -868 0
-157 -869 0
-158 -871 0
-153 -872 0
-154 -874 0
-155 -876 0
-157 -877 0
-158 -878 0
-155 -888 0
-157 -889 0
-158 -891 0
-152 -929 0
-154 -933 0
-158 -935 0
-155 -1005 0
-157 -1006 0
-158 -1007 0
-155 -1011 0
-156 -1012 0
-158 -1014 0
-153 -1036 0
-156 -1038 0
-157 -1039 0
-158 -1040 0
-152 -1041 0
-153 -1042 0
-155 -1045 0
-156 -1046 0
-157 -1047 0
-158 -1049 0
-152 -1050 0
-153 -1051 0
-154 -1053 0
-157 -1054 0
-158 -1055 0
-152 -1056 0
-153 -1058 0
-155 -1059 0
-156 -1060 0
-158 -1061 0
-152 -1062 0
-153 -1064 0
-154 -1065 0
-156 -1067 0
-157 -1068 0
-158 -1070 0
-152 -1071 0
-153 -1072 0
-154 -1073 0
-155 -1074 0
-156 -1075 0
-157 -1076 0
-158 -1077 0
-152 -1099 0
-157 -1102 0
-158 -1104 0
-152 -1105 0
-156 -1109 0
-158 -1110 0
-152 -1111 0
-155 -1113 0
-156 -1114 0
-158 -1116 0
-152 -1117 0
-154 -1119 0
-157 -1121 0
-158 -1122 0
-153 -1123 0
-154 -1124 0
-156 -1126 0
-157 -1127 0
-158 -1128 0
-153 -1129 0
-155 -1130 0
-156 -1131 0
-157 -1132 0
-158 -1134 0
-154 -1162 0
-155 -1163 0
-156 -1164 0
-157 -1165 0
-158 -1166 0
-152 -1167 0
-157 -1171 0
-158 -1172 0
-152 -1173 0
-156 -1176 0
-158 -1178 0
-152 -1179 0
-155 -1183 0
-156 -1184 0
-158 -1185 0
-152 -1186 0
-154 -1189 0
-157 -1190 0
-158 -1192 0
-154 -1226 0
-155 -1228 0
-156 -1229 0
-157 -1230 0
-158 -1232 0
-152 -1233 0
-154 -1235 0
-156 -1237 0
-157 -1238 0
-158 -1239 0
-152 -1240 0
-155 -1243 0
-157 -1244 0
-158 -1246 0
-152 -1247 0
-154 -1249 0
-156 -1251 0
-158 -1253 0
-152 -1254 0
-155 -1256 0
-156 -1257 0
-157 -1258 0
-158 -1260 0
-153 -1273 0
-154 -1275 0
-156 -1277 0
-158 -1279 0
-153 -1280 0
-154 -1282 0
-155 -1283 0
-157 -1284 0
-158 -1286 0
-153 -1288 0
-154 -1289 0
-156 -1290 0
-157 -1291 0
-158 -1293 0
-153 -1295 0
-154 -1296 0
-155 -1298 0
-156 -1299 0
-158 -1300 0
-154 -1322 0
-155 -1323 0
-158 -1325 0
-154 -1328 0
-155 -1330 0
-156 -1331 0
-157 -1332 0
-158 -1334 0
-152 -1335 0
-154 -1337 0
-156 -1338 0
-157 -1339 0
-158 -1341 0
-152 -1342 0
-154 -1344 0
-155 -1346 0
-158 -1348 0
-154 -1351 0
-155 -1353 0
-158 -1355 0
-154 -1358 0
-155 -1359 0
-156 -1360 0
-157 -1361 0
-158 -1362 0
-155 -1433 0
-156 -1434 0
-158 -1436 0
-152 -1437 0
-156 -1439 0
-157 -1440 0
-158 -1442 0
-152 -1443 0
-154 -1444 0
-155 -1446 0
-156 -1447 0
-158 -1448 0
-153 -1464 0
-155 -1466 0
-158 -1468 0
-153 -1470 0
-154 -1472 0
-155 -1474 0
-156 -1475 0
-157 -1476 0
-158 -1477 0
-155 -1495 0
-156 -1496 0
-158 -1498 0
-155 -1529 0
-156 -1530 0
-158 -1531 0
-153 -1593 0
-154 -1595 0
-155 -1596 0
-157 -1597 0
-158 -1599 0
-153 -1600 0
-155 -1603 0
-156 -1604 0
-157 -1605 0
-158 -1606 0
-153 -1608 0
-154 -1609 0
-155 -1611 0
-156 -1612 0
-158 -1613 0
-153 -1615 0
-155 -1617 0
-157 -1618 0
-158 -1620 0
-152 -1621 0
-153 -1622 0
-155 -1624 0
-157 -1625 0
-158 -1626 0
-154 -1648 0
-155 -1650 0
-156 -1651 0
-157 -1652 0
-158 -1654 0
-154 -1657 0
-155 -1659 0
-158 -1660 0
-152 -1661 0
-154 -1663 0
-155 -1665 0
-158 -1667 0
-152 -1668 0
-155 -1671 0
-156 -1672 0
-157 -1673 0
-158 -1674 0
-154 -1689 0
-155 -1690 0
-156 -1691 0
-157 -1692 0
-158 -1693 0
-154 -1696 0
-155 -1698 0
-158 -1700 0
-152 -1701 0
-154 -1704 0
-155 -1705 0
-158 -1706 0
-152 -1707 0
-155 -1711 0
-156 -1712 0
-157 -1713 0
-158 -1715 0
-154 -1757 0
-155 -1759 0
-157 -1760 0
-158 -1761 0
-154 -1763 0
-156 -1764 0
-157 -1765 0
-158 -1767 0
-154 -1769 0
-155 -1770 0
-156 -1771 0
-158 -1773 0
-154 -1775 0
-157 -1777 0
-158 -1779 0
-155 -1790 0
-157 -1791 0
-158 -1793 0
-154 -1795 0
-156 -1797 0
-158 -1799 0
-154 -1836 0
-155 -1838 0
-156 -1839 0
-157 -1840 0
-158 -1842 0
-153 -1845 0
-155 -1847 0
-157 -1848 0
-158 -1850 0
-153 -1852 0
-154 -1853 0
-156 -1854 0
-157 -1855 0
-158 -1857 0
-156 -1867 0
-157 -1868 0
-158 -1870 0
-156 -1874 0
-157 -1875 0
-158 -1877 0
-154 -1926 0
-157 -1928 0
-158 -1930 0
-152 -1931 0
-154 -1932 0
-155 -1933 0
-157 -1934 0
-158 -1936 0
-152 -1937 0
-156 -1939 0
-157 -1940 0
-158 -1942 0
-154 -1952 0
-155 -1954 0
-156 -1955 0
-157 -1956 0
-158 -1958 0
-160 -316 0
-164 -318 0
-165 -319 0
-167 -321 0
-160 -332 0
-161 -333 0
-162 -334 0
-164 -335 0
-165 -336 0
-167 -337 0
-160 -339 0
-161 -340 0
-162 -341 0
-163 -342 0
-164 -344 0
-166 -345 0
-167 -347 0
-160 -375 0
-161 -376 0
-163 -377 0
-164 -378 0
-165 -379 0
-167 -381 0
-160 -382 0
-161 -383 0
-165 -385 0
-166 -386 0
-167 -388 0
-161 -389 0
-162 -390 0
-164 -391 0
-165 -392 0
-166 -393 0
-167 -395 0
-160 -440 0
-162 -441 0
-164 -442 0
-167 -444 0
-160 -525 0
-163 -526 0
-165 -527 0
-167 -529 0
-161 -538 0
-162 -539 0
-163 -540 0
-164 -542 0
-165 -543 0
-167 -545 0
-161 -547 0
-162 -548 0
-166 -549 0
-167 -551 0
-160 -572 0
-163 -573 0
-165 -575 0
-166 -576 0
-167 -577 0
-160 -578 0
-161 -579 0
-162 -580 0
-163 -581 0
-164 -582 0
-165 -583 0
-166 -584 0
-167 -586 0
-160 -587 0
-161 -588 0
-162 -589 0
-163 -590 0
-167 -592 0
-160 -708 0
-162 -709 0
-164 -711 0
-165 -712 0
-166 -713 0
-167 -714 0
-160 -715 0
-162 -716 0
-163 -717 0
-165 -719 0
-167 -721 0
-161 -722 0
-162 -723 0
-163 -724 0
-164 -726 0
-165 -727 0
-167 -728 0
-162 -744 0
-164 -745 0
-165 -746 0
-166 -747 0
-167 -748 0
-162 -750 0
-163 -751 0
-167 -754 0
-162 -775 0
-163 -776 0
-165 -777 0
-166 -778 0
-167 -780 0
-162 -781 0
-164 -783 0
-165 -784 0
-167 -786 0
-160 -800 0
-163 -801 0
-166 -803 0
-167 -805 0
-159 -822 0
-160 -823 0
-161 -824 0
-163 -825 0
-164 -827 0
-165 -828 0
-167 -830 0
-159 -832 0
-160 -833 0
-161 -834 0
-163 -835 0
-166 -836 0
-167 -837 0
-160 -865 0
-161 -866 0
-165 -868 0
-166 -869 0
-167 -871 0
-160 -872 0
-161 -873 0
-163 -874 0
-164 -876 0
-166 -877 0
-167 -878 0
-159 -879 0
-161 -880 0
-163 -881 0
-165 -883 0
-166 -884 0
-167 -885 0
-160 -1042 0
-162 -1043 0
-164 -1045 0
-165 -1046 0
-166 -1047 0
-167 -1049 0
-160 -1051 0
-162 -1052 0
-163 -1053 0
-166 -1054 0
-167 -1055 0
-159 -1057 0
-160 -1058 0
-164 -1059 0
-165 -1060 0
-167 -1061 0
-159 -1063 0
-160 -1064 0
-163 -1065 0
-165 -1067 0
-166 -1068 0
-167 -1070 0
-159 -1079 0
-161 -1080 0
-162 -1081 0
-163 -1082 0
-164 -1083 0
-165 -1084 0
-166 -1085 0
-167 -1086 0
-161 -1112 0
-164 -1113 0
-165 -1114 0
-167 -1116 0
-161 -1118 0
-163 -1119 0
-166 -1121 0
-167 -1122 0
-160 -1123 0
-163 -1124 0
-165 -1126 0
-166 -1127 0
-167 -1128 0
-160 -1129 0
-164 -1130 0
-165 -1131 0
-166 -1132 0
-167 -1134 0
-161 -1135 0
-162 -1136 0
-165 -1138 0
-166 -1139 0
-167 -1140 0
-159 -1141 0
-161 -1142 0
-165 -1143 0
-166 -1144 0
-167 -1146 0
-159 -1180 0
-162 -1181 0
-164 -1183 0
-165 -1184 0
-167 -1185 0
-159 -1187 0
-162 -1188 0
-163 -1189 0
-166 -1190 0
-167 -1192 0
-162 -1234 0
-163 -1235 0
-165 -1237 0
-166 -1238 0
-167 -1239 0
-162 -1241 0
-164 -1243 0
-166 -1244 0
-167 -1246 0
-159 -1248 0
-163 -1249 0
-165 -1251 0
-167 -1253 0
-159 -1255 0
-164 -1256 0
-165 -1257 0
-166 -1258 0
-167 -1260 0
-160 -1273 0
-162 -1274 0
-163 -1275 0
-165 -1277 0
-167 -1279 0
-160 -1280 0
-162 -1281 0
-163 -1282 0
-164 -1283 0
-166 -1284 0
-167 -1286 0
-159 -1287 0
-160 -1288 0
-163 -1289 0
-165 -1290 0
-166 -1291 0
-167 -1293 0
-159 -1294 0
-160 -1295 0
-163 -1296 0
-164 -1298 0
-165 -1299 0
-167 -1300 0
-159 -1301 0
-161 -1302 0
-162 -1303 0
-163 -1304 0
-165 -1305 0
-167 -1307 0
-161 -1336 0
-163 -1337 0
-165 -1338 0
-166 -1339 0
-167 -1341 0
-161 -1343 0
-163 -1344 0
-164 -1346 0
-167 -1348 0
-162 -1405 0
-163 -1406 0
-165 -1407 0
-166 -1408 0
-167 -1410 0
-159 -1411 0
-162 -1412 0
-163 -1413 0
-165 -1415 0
-167 -1416 0
-165 -1439 0
-166 -1440 0
-167 -1442 0
-163 -1444 0
-164 -1446 0
-165 -1447 0
-167 -1448 0
-160 -1457 0
-164 -1458 0
-165 -1459 0
-166 -1460 0
-167 -1462 0
-159 -1463 0
-160 -1464 0
-161 -1465 0
-164 -1466 0
-167 -1468 0
-159 -1469 0
-160 -1470 0
-161 -1471 0
-163 -1472 0
-164 -1474 0
-165 -1475 0
-166 -1476 0
-167 -1477 0
-160 -1593 0
-162 -1594 0
-163 -1595 0
-164 -1596 0
-166 -1597 0
-167 -1599 0
-160 -1600 0
-162 -1601 0
-164 -1603 0
-165 -1604 0
-166 -1605 0
-167 -1606 0
-159 -1607 0
-160 -1608 0
-163 -1609 0
-164 -1611 0
-165 -1612 0
-167 -1613 0
-159 -1614 0
-160 -1615 0
-164 -1617 0
-166 -1618 0
-167 -1620 0
-159 -1627 0
-161 -1628 0
-162 -1629 0
-164 -1631 0
-166 -1632 0
-167 -1633 0
-161 -1662 0
-163 -1663 0
-164 -1665 0
-167 -1667 0
-161 -1669 0
-164 -1671 0
-165 -1672 0
-166 -1673 0
-167 -1674 0
-159 -1702 0
-162 -1703 0
-163 -1704 0
-164 -1705 0
-167 -1706 0
-159 -1708 0
-162 -1709 0
-164 -1711 0
-165 -1712 0
-166 -1713 0
-167 -1715 0
-163 -1751 0
-164 -1753 0
-165 -1754 0
-167 -1755 0
-162 -1756 0
-163 -1757 0
-164 -1759 0
-166 -1760 0
-167 -1761 0
-162 -1762 0
-163 -1763 0
-165 -1764 0
-166 -1765 0
-167 -1767 0
-159 -1768 0
-163 -1769 0
-164 -1770 0
-165 -1771 0
-167 -1773 0
-159 -1774 0
-163 -1775 0
-166 -1777 0
-167 -1779 0
-161 -1788 0
-164 -1790 0
-166 -1791 0
-167 -1793 0
-161 -1794 0
-163 -1795 0
-165 -1797 0
-167 -1799 0
-163 -1836 0
-164 -1838 0
-165 -1839 0
-166 -1840 0
-167 -1842 0
-159 -1844 0
-160 -1845 0
-164 -1847 0
-166 -1848 0
-167 -1850 0
-159 -1851 0
-160 -1852 0
-163 -1853 0
-165 -1854 0
-166 -1855 0
-167 -1857 0
-159 -1858 0
-161 -1859 0
-163 -1860 0
-164 -1861 0
-166 -1862 0
-167 -1864 0
-159 -1899 0
-162 -1900 0
-164 -1901 0
-166 -1902 0
-167 -1904 0
-159 -1905 0
-164 -1907 0
-165 -1908 0
-166 -1909 0
-167 -1910 0
-163 -1932 0
-164 -1933 0
-166 -1934 0
-167 -1936 0
-165 -1939 0
-166 -1940 0
-167 -1942 0
-163 -1952 0
-164 -1954 0
-165 -1955 0
-166 -1956 0
-167 -1958 0
-169 -246 0
-170 -247 0
-176 -249 0
-177 -250 0
-169 -303 0
-171 -304 0
-173 -305 0
-175 -306 0
-176 -307 0
-177 -308 0
-168 -315 0
-169 -316 0
-173 -317 0
-174 -319 0
-176 -320 0
-177 -321 0
-169 -323 0
-170 -324 0
-171 -325 0
-173 -326 0
-174 -328 0
-176 -329 0
-177 -330 0
-168 -338 0
-169 -339 0
-170 -340 0
-171 -341 0
-172 -342 0
-173 -343 0
-175 -345 0
-176 -346 0
-177 -347 0
-168 -363 0
-169 -364 0
-170 -365 0
-173 -366 0
-176 -367 0
-177 -368 0
-169 -375 0
-170 -376 0
-172 -377 0
-174 -379 0
-176 -380 0
-177 -381 0
-170 -389 0
-171 -390 0
-174 -392 0
-175 -393 0
-176 -394 0
-177 -395 0
-170 -396 0
-172 -397 0
-173 -398 0
-174 -399 0
-176 -400 0
-177 -401 0
-168 -432 0
-169 -434 0
-171 -435 0
-173 -436 0
-176 -437 0
-177 -438 0
-169 -510 0
-171 -511 0
-172 -512 0
-175 -514 0
-176 -515 0
-177 -516 0
-168 -524 0
-169 -525 0
-172 -526 0
-174 -527 0
-176 -528 0
-177 -529 0
-170 -531 0
-171 -532 0
-172 -533 0
-174 -534 0
-176 -535 0
-177 -536 0
-168 -546 0
-170 -547 0
-171 -548 0
-175 -549 0
-176 -550 0
-177 -551 0
-168 -565 0
-170 -566 0
-172 -567 0
-173 -568 0
-176 -570 0
-177 -571 0
-169 -572 0
-172 -573 0
-173 -574 0
-174 -575 0
-175 -576 0
-177 -577 0
-169 -587 0
-170 -588 0
-171 -589 0
-172 -590 0
-173 -591 0
-177 -592 0
-169 -600 0
-170 -601 0
-172 -602 0
-173 -603 0
-175 -605 0
-177 -606 0
-169 -633 0
-171 -634 0
-172 -635 0
-173 -636 0
-175 -638 0
-176 -639 0
-177 -640 0
-170 -702 0
-173 -703 0
-175 -705 0
-176 -706 0
-177 -707 0
-169 -708 0
-171 -709 0
-173 -710 0
-174 -712 0
-175 -713 0
-177 -714 0
-170 -722 0
-171 -723 0
-172 -724 0
-173 -725 0
-174 -727 0
-177 -728 0
-170 -729 0
-171 -730 0
-173 -731 0
-174 -732 0
-175 -733 0
-177 -734 0
-171 -737 0
-173 -738 0
-174 -739 0
-175 -740 0
-176 -741 0
-177 -742 0
-168 -749 0
-171 -750 0
-172 -751 0
-173 -752 0
-176 -753 0
-177 -754 0
-168 -768 0
-171 -769 0
-173 -770 0
-175 -772 0
-176 -773 0
-177 -774 0
-171 -775 0
-172 -776 0
-174 -777 0
-175 -778 0
-176 -779 0
-177 -780 0
-169 -794 0
-172 -795 0
-175 -797 0
-177 -798 0
-169 -816 0
-170 -817 0
-172 -818 0
-174 -819 0
-177 -820 0
-168 -831 0
-169 -833 0
-170 -834 0
-172 -835 0
-175 -836 0
-177 -837 0
-169 -872 0
-170 -873 0
-172 -874 0
-173 -875 0
-175 -877 0
-177 -878 0
-170 -880 0
-172 -881 0
-173 -882 0
-174 -883 0
-175 -884 0
-177 -885 0
-168 -922 0
-169 -924 0
-172 -925 0
-176 -927 0
-177 -928 0
-169 -995 0
-173 -996 0
-175 -998 0
-176 -999 0
-177 -1000 0
-170 -1009 0
-173 -1010 0
-174 -1012 0
-176 -1013 0
-177 -1014 0
-169 -1036 0
-171 -1037 0
-174 -1038 0
-175 -1039 0
-177 -1040 0
-168 -1050 0
-169 -1051 0
-171 -1052 0
-172 -1053 0
-175 -1054 0
-177 -1055 0
-168 -1056 0
-169 -1058 0
-174 -1060 0
-177 -1061 0
-168 -1071 0
-169 -1072 0
-172 -1073 0
-174 -1075 0
-175 -1076 0
-177 -1077 0
-168 -1078 0
-170 -1080 0
-171 -1081 0
-172 -1082 0
-174 -1084 0
-175 -1085 0
-177 -1086 0
-168 -1093 0
-169 -1094 0
-173 -1095 0
-175 -1097 0
-177 -1098 0
-168 -1105 0
-170 -1107 0
-173 -1108 0
-174 -1109 0
-177 -1110 0
-168 -1117 0
-170 -1118 0
-172 -1119 0
-173 -1120 0
-175 -1121 0
-177 -1122 0
-169 -1123 0
-172 -1124 0
-173 -1125 0
-174 -1126 0
-175 -1127 0
-177 -1128 0
-170 -1135 0
-171 -1136 0
-173 -1137 0
-174 -1138 0
-175 -1139 0
-177 -1140 0
-168 -1147 0
-170 -1148 0
-173 -1149 0
-174 -1151 0
-175 -1152 0
-177 -1153 0
-170 -1161 0
-172 -1162 0
-174 -1164 0
-175 -1165 0
-177 -1166 0
-168 -1173 0
-171 -1175 0
-174 -1176 0
-176 -1177 0
-177 -1178 0
-168 -1186 0
-171 -1188 0
-172 -1189 0
-175 -1190 0
-176 -1191 0
-177 -1192 0
-168 -1217 0
-173 -1219 0
-176 -1221 0
-177 -1222 0
-171 -1225 0
-172 -1226 0
-173 -1227 0
-174 -1229 0
-175 -1230 0
-176 -1231 0
-177 -1232 0
-168 -1240 0
-171 -1241 0
-173 -1242 0
-175 -1244 0
-176 -1245 0
-177 -1246 0
-168 -1247 0
-172 -1249 0
-173 -1250 0
-174 -1251 0
-176 -1252 0
-177 -1253 0
-168 -1267 0
-172 -1268 0
-175 -1270 0
-176 -1271 0
-177 -1272 0
-169 -1280 0
-171 -1281 0
-172 -1282 0
-175 -1284 0
-176 -1285 0
-177 -1286 0
-169 -1288 0
-172 -1289 0
-174 -1290 0
-175 -1291 0
-176 -1292 0
-177 -1293 0
-170 -1302 0
-171 -1303 0
-172 -1304 0
-174 -1305 0
-176 -1306 0
-177 -1307 0
-169 -1314 0
-172 -1315 0
-173 -1316 0
-176 -1318 0
-177 -1319 0
-170 -1327 0
-172 -1328 0
-173 -1329 0
-174 -1331 0
-175 -1332 0
-176 -1333 0
-177 -1334 0
-168 -1342 0
-170 -1343 0
-172 -1344 0
-173 -1345 0
-176 -1347 0
-177 -1348 0
-171 -1357 0
-172 -1358 0
-174 -1360 0
-175 -1361 0
-177 -1362 0
-168 -1390 0
-172 -1392 0
-173 -1393 0
-175 -1395 0
-177 -1396 0
-171 -1405 0
-172 -1406 0
-174 -1407 0
-175 -1408 0
-176 -1409 0
-177 -1410 0
-168 -1417 0
-171 -1418 0
-172 -1419 0
-174 -1421 0
-176 -1422 0
-177 -1423 0
-171 -1431 0
-173 -1432 0
-174 -1434 0
-176 -1435 0
-177 -1436 0
-168 -1437 0
-173 -1438 0
-174 -1439 0
-175 -1440 0
-176 -1441 0
-177 -1442 0
-169 -1470 0
-170 -1471 0
-172 -1472 0
-173 -1473 0
-174 -1475 0
-175 -1476 0
-177 -1477 0
-169 -1521 0
-173 -1522 0
-174 -1523 0
-176 -1524 0
-177 -1525 0
-169 -1600 0
-171 -1601 0
-173 -1602 0
-174 -1604 0
-175 -1605 0
-177 -1606 0
-169 -1608 0
-172 -1609 0
-173 -1610 0
-174 -1612 0
-177 -1613 0
-168 -1621 0
-169 -1622 0
-173 -1623 0
-175 -1625 0
-177 -1626 0
-170 -1628 0
-171 -1629 0
-173 -1630 0
-175 -1632 0
-177 -1633 0
-169 -1640 0
-172 -1641 0
-173 -1642 0
-174 -1643 0
-175 -1644 0
-177 -1645 0
-170 -1656 0
-172 -1657 0
-173 -1658 0
-177 -1660 0
-168 -1668 0
-170 -1669 0
-173 -1670 0
-174 -1672 0
-175 -1673 0
-177 -1674 0
-170 -1675 0
-172 -1676 0
-174 -1678 0
-175 -1679 0
-177 -1680 0
-171 -1695 0
-172 -1696 0
-173 -1697 0
-176 -1699 0
-177 -1700 0
-168 -1707 0
-171 -1709 0
-173 -1710 0
-174 -1712 0
-175 -1713 0
-176 -1714 0
-177 -1715 0
-168 -1743 0
-172 -1745 0
-173 -1746 0
-174 -1747 0
-176 -1748 0
-177 -1749 0
-171 -1762 0
-172 -1763 0
-174 -1764 0
-175 -1765 0
-176 -1766 0
-177 -1767 0
-172 -1769 0
-174 -1771 0
-176 -1772 0
-177 -1773 0
-172 -1781 0
-173 -1782 0
-174 -1784 0
-175 -1785 0
-176 -1786 0
-177 -1787 0
-170 -1794 0
-172 -1795 0
-173 -1796 0
-174 -1797 0
-176 -1798 0
-177 -1799 0
-173 -1819 0
-174 -1821 0
-175 -1822 0
-177 -1823 0
-171 -1824 0
-173 -1825 0
-174 -1827 0
-176 -1828 0
-177 -1829 0
-172 -1836 0
-173 -1837 0
-174 -1839 0
-175 -1840 0
-176 -1841 0
-177 -1842 0
-169 -1852 0
-172 -1853 0
-174 -1854 0
-175 -1855 0
-176 -1856 0
-177 -1857 0
-170 -1859 0
-172 -1860 0
-175 -1862 0
-176 -1863 0
-177 -1864 0
-171 -1900 0
-175 -1902 0
-176 -1903 0
-177 -1904 0
-168 -1911 0
-174 -1914 0
-175 -1915 0
-176 -1916 0
-177 -1917 0
-172 -1926 0
-173 -1927 0
-175 -1928 0
-176 -1929 0
-177 -1930 0
-168 -1937 0
-173 -1938 0
-174 -1939 0
-175 -1940 0
-176 -1941 0
-177 -1942 0
-172 -1943 0
-173 -1944 0
-174 -1946 0
-175 -1947 0
-176 -1948 0
-177 -1949 0
-172 -1952 0
-173 -1953 0
-174 -1955 0
-175 -1956 0
-176 -1957 0
-177 -1958 0
-179 -237 0
-180 -238 0
-183 -241 0
-184 -244 0
-179 -297 0
-181 -298 0
-182 -300 0
-183 -301 0
-184 -302 0
-178 -315 0
-179 -316 0
-182 -318 0
-183 -319 0
-184 -321 0
-179 -323 0
-180 -324 0
-181 -325 0
-182 -327 0
-183 -328 0
-184 -330 0
-178 -331 0
-179 -332 0
-180 -333 0
-181 -334 0
-182 -335 0
-183 -336 0
-184 -337 0
-178 -354 0
-179 -355 0
-180 -356 0
-182 -359 0
-183 -360 0
-184 -362 0
-179 -382 0
-180 -383 0
-183 -385 0
-184 -388 0
-180 -389 0
-181 -390 0
-182 -391 0
-183 -392 0
-184 -395 0
-180 -396 0
-183 -399 0
-184 -401 0
-178 -422 0
-179 -424 0
-181 -425 0
-182 -427 0
-183 -428 0
-184 -431 0
-179 -503 0
-181 -504 0
-183 -507 0
-184 -509 0
-178 -524 0
-179 -525 0
-183 -527 0
-184 -529 0
-180 -531 0
-181 -532 0
-183 -534 0
-184 -536 0
-178 -537 0
-180 -538 0
-181 -539 0
-182 -542 0
-183 -543 0
-184 -545 0
-178 -558 0
-180 -559 0
-183 -561 0
-184 -564 0
-179 -572 0
-183 -575 0
-184 -577 0
-179 -578 0
-180 -579 0
-181 -580 0
-182 -582 0
-183 -583 0
-184 -586 0
-179 -593 0
-180 -594 0
-183 -596 0
-184 -599 0
-179 -627 0
-181 -628 0
-183 -629 0
-184 -631 0
-180 -696 0
-182 -698 0
-183 -699 0
-184 -701 0
-179 -715 0
-181 -716 0
-183 -719 0
-184 -721 0
-180 -722 0
-181 -723 0
-182 -726 0
-183 -727 0
-184 -728 0
-180 -729 0
-181 -730 0
-183 -732 0
-184 -734 0
-181 -737 0
-183 -739 0
-184 -742 0
-178 -743 0
-181 -744 0
-182 -745 0
-183 -746 0
-184 -748 0
-178 -761 0
-181 -762 0
-183 -765 0
-184 -767 0
-181 -781 0
-182 -783 0
-183 -784 0
-184 -786 0
-179 -788 0
-183 -790 0
-184 -792 0
-179 -816 0
-180 -817 0
-183 -819 0
-184 -820 0
-178 -821 0
-179 -823 0
-180 -824 0
-182 -827 0
-183 -828 0
-184 -830 0
-179 -865 0
-180 -866 0
-183 -868 0
-184 -871 0
-180 -880 0
-183 -883 0
-184 -885 0
-178 -915 0
-179 -917 0
-183 -919 0
-184 -921 0
-179 -988 0
-182 -991 0
-183 -992 0
-184 -993 0
-180 -1009 0
-182 -1011 0
-183 -1012 0
-184 -1014 0
-179 -1036 0
-181 -1037 0
-183 -1038 0
-184 -1040 0
-178 -1041 0
-179 -1042 0
-181 -1043 0
-182 -1045 0
-183 -1046 0
-184 -1049 0
-178 -1062 0
-179 -1064 0
-183 -1067 0
-184 -1070 0
-178 -1071 0
-179 -1072 0
-182 -1074 0
-183 -1075 0
-184 -1077 0
-178 -1078 0
-180 -1080 0
-181 -1081 0
-182 -1083 0
-183 -1084 0
-184 -1086 0
-178 -1087 0
-179 -1088 0
-183 -1090 0
-184 -1092 0
-178 -1105 0
-180 -1107 0
-183 -1109 0
-184 -1110 0
-178 -1111 0
-180 -1112 0
-182 -1113 0
-183 -1114 0
-184 -1116 0
-179 -1129 0
-182 -1130 0
-183 -1131 0
-184 -1134 0
-180 -1135 0
-181 -1136 0
-183 -1138 0
-184 -1140 0
-178 -1154 0
-180 -1155 0
-183 -1157 0
-184 -1160 0
-180 -1161 0
-182 -1163 0
-183 -1164 0
-184 -1166 0
-178 -1173 0
-181 -1175 0
-183 -1176 0
-184 -1178 0
-178 -1179 0
-181 -1181 0
-182 -1183 0
-183 -1184 0
-184 -1185 0
-178 -1211 0
-183 -1214 0
-184 -1216 0
-181 -1225 0
-182 -1228 0
-183 -1229 0
-184 -1232 0
-178 -1233 0
-181 -1234 0
-183 -1237 0
-184 -1239 0
-178 -1254 0
-182 -1256 0
-183 -1257 0
-184 -1260 0
-178 -1261 0
-182 -1264 0
-183 -1265 0
-184 -1266 0
-179 -1273 0
-181 -1274 0
-183 -1277 0
-184 -1279 0
-179 -1295 0
-182 -1298 0
-183 -1299 0
-184 -1300 0
-180 -1302 0
-181 -1303 0
-183 -1305 0
-184 -1307 0
-179 -1308 0
-182 -1309 0
-183 -1310 0
-184 -1313 0
-180 -1327 0
-182 -1330 0
-183 -1331 0
-184 -1334 0
-178 -1335 0
-180 -1336 0
-183 -1338 0
-184 -1341 0
-181 -1357 0
-182 -1359 0
-183 -1360 0
-184 -1362 0
-178 -1383 0
-182 -1385 0
-183 -1386 0
-184 -1389 0
-182 -1399 0
-183 -1400 0
-184 -1403 0
-181 -1405 0
-183 -1407 0
-184 -1410 0
-178 -1424 0
-181 -1425 0
-183 -1428 0
-184 -1430 0
-181 -1431 0
-182 -1433 0
-183 -1434 0
-184 -1436 0
-178 -1443 0
-182 -1446 0
-183 -1447 0
-184 -1448 0
-179 -1464 0
-180 -1465 0
-182 -1466 0
-184 -1468 0
-179 -1515 0
-182 -1517 0
-184 -1519 0
-179 -1593 0
-181 -1594 0
-182 -1596 0
-184 -1599 0
-179 -1615 0
-182 -1617 0
-184 -1620 0
-178 -1621 0
-179 -1622 0
-182 -1624 0
-184 -1626 0
-180 -1628 0
-181 -1629 0
-182 -1631 0
-184 -1633 0
-179 -1634 0
-182 -1637 0
-184 -1639 0
-180 -1656 0
-182 -1659 0
-184 -1660 0
-178 -1661 0
-180 -1662 0
-182 -1665 0
-184 -1667 0
-180 -1681 0
-182 -1683 0
-184 -1686 0
-181 -1695 0
-182 -1698 0
-184 -1700 0
-178 -1701 0
-181 -1703 0
-182 -1705 0
-184 -1706 0
-178 -1736 0
-182 -1740 0
-184 -1742 0
-181 -1756 0
-182 -1759 0
-184 -1761 0
-184 -1779 0
-180 -1788 0
-182 -1790 0
-184 -1793 0
-184 -1817 0
-181 -1830 0
-182 -1833 0
-184 -1835 0
-179 -1845 0
-182 -1847 0
-184 -1850 0
-180 -1859 0
-182 -1861 0
-184 -1864 0
-181 -1900 0
-182 -1901 0
-184 -1904 0
-178 -1918 0
-182 -1922 0
-184 -1924 0
-184 -1930 0
-178 -1931 0
-182 -1933 0
-184 -1936 0
-187 -227 0
-188 -228 0
-190 -233 0
-191 -235 0
-187 -303 0
-190 -306 0
-191 -308 0
-187 -309 0
-188 -310 0
-190 -313 0
-191 -314 0
-185 -338 0
-187 -339 0
-188 -340 0
-189 -342 0
-190 -345 0
-191 -347 0
-187 -382 0
-188 -383 0
-190 -386 0
-191 -388 0
-188 -389 0
-190 -393 0
-191 -395 0
-185 -415 0
-187 -416 0
-190 -419 0
-191 -421 0
-187 -510 0
-189 -512 0
-190 -514 0
-191 -516 0
-188 -517 0
-189 -519 0
-190 -521 0
-191 -523 0
-185 -546 0
-188 -547 0
-190 -549 0
-191 -551 0
-187 -587 0
-188 -588 0
-189 -590 0
-191 -592 0
-187 -620 0
-189 -622 0
-191 -625 0
-187 -715 0
-189 -717 0
-191 -721 0
-188 -722 0
-189 -724 0
-191 -728 0
-185 -749 0
-189 -751 0
-191 -754 0
-191 -786 0
-186 -793 0
-187 -794 0
-189 -795 0
-190 -797 0
-191 -798 0
-185 -799 0
-187 -800 0
-189 -801 0
-190 -803 0
-191 -805 0
-186 -806 0
-187 -807 0
-188 -808 0
-189 -810 0
-190 -812 0
-191 -814 0
-185 -831 0
-186 -832 0
-187 -833 0
-188 -834 0
-189 -835 0
-190 -836 0
-191 -837 0
-185 -850 0
-187 -851 0
-188 -852 0
-189 -853 0
-190 -856 0
-191 -858 0
-187 -865 0
-188 -866 0
-190 -869 0
-191 -871 0
-186 -879 0
-188 -880 0
-189 -881 0
-190 -884 0
-191 -885 0
-188 -886 0
-190 -889 0
-191 -891 0
-185 -905 0
-186 -906 0
-187 -907 0
-189 -909 0
-190 -913 0
-191 -914 0
-186 -994 0
-187 -995 0
-190 -998 0
-191 -1000 0
-186 -1001 0
-188 -1002 0
-190 -1006 0
-191 -1007 0
-185 -1028 0
-188 -1029 0
-190 -1033 0
-191 -1034 0
-186 -1035 0
-187 -1036 0
-190 -1039 0
-191 -1040 0
-185 -1041 0
-187 -1042 0
-190 -1047 0
-191 -1049 0
-185 -1062 0
-186 -1063 0
-187 -1064 0
-189 -1065 0
-190 -1068 0
-191 -1070 0
-185 -1071 0
-187 -1072 0
-189 -1073 0
-190 -1076 0
-191 -1077 0
-185 -1078 0
-186 -1079 0
-188 -1080 0
-189 -1082 0
-190 -1085 0
-191 -1086 0
-185 -1093 0
-187 -1094 0
-190 -1097 0
-191 -1098 0
-185 -1099 0
-188 -1100 0
-190 -1102 0
-191 -1104 0
-185 -1117 0
-188 -1118 0
-189 -1119 0
-190 -1121 0
-191 -1122 0
-187 -1123 0
-189 -1124 0
-190 -1127 0
-191 -1128 0
-186 -1141 0
-188 -1142 0
-190 -1144 0
-191 -1146 0
-185 -1147 0
-188 -1148 0
-190 -1152 0
-191 -1153 0
-188 -1161 0
-189 -1162 0
-190 -1165 0
-191 -1166 0
-185 -1167 0
-186 -1168 0
-190 -1171 0
-191 -1172 0
-185 -1186 0
-186 -1187 0
-189 -1189 0
-190 -1190 0
-191 -1192 0
-185 -1205 0
-190 -1209 0
-191 -1210 0
-186 -1224 0
-189 -1226 0
-190 -1230 0
-191 -1232 0
-185 -1233 0
-189 -1235 0
-190 -1238 0
-191 -1239 0
-185 -1254 0
-186 -1255 0
-190 -1258 0
-191 -1260 0
-185 -1267 0
-189 -1268 0
-190 -1270 0
-191 -1272 0
-187 -1273 0
-189 -1275 0
-191 -1279 0
-186 -1294 0
-187 -1295 0
-189 -1296 0
-191 -1300 0
-186 -1301 0
-188 -1302 0
-189 -1304 0
-191 -1307 0
-187 -1314 0
-189 -1315 0
-191 -1319 0
-188 -1320 0
-189 -1322 0
-191 -1325 0
-185 -1342 0
-188 -1343 0
-189 -1344 0
-191 -1348 0
-186 -1349 0
-189 -1351 0
-191 -1355 0
-185 -1376 0
-189 -1378 0
-191 -1382 0
-186 -1411 0
-189 -1413 0
-191 -1416 0
-185 -1417 0
-189 -1419 0
-191 -1423 0
-191 -1436 0
-185 -1443 0
-189 -1444 0
-191 -1448 0
-187 -1457 0
-190 -1460 0
-191 -1462 0
-186 -1469 0
-187 -1470 0
-188 -1471 0
-189 -1472 0
-190 -1476 0
-191 -1477 0
-187 -1485 0
-188 -1486 0
-190 -1489 0
-191 -1491 0
-186 -1508 0
-187 -1509 0
-190 -1512 0
-191 -1513 0
-188 -1587 0
-189 -1588 0
-190 -1591 0
-191 -1592 0
-187 -1593 0
-189 -1595 0
-190 -1597 0
-191 -1599 0
-186 -1614 0
-187 -1615 0
-190 -1618 0
-191 -1620 0
-185 -1621 0
-187 -1622 0
-190 -1625 0
-191 -1626 0
-186 -1627 0
-188 -1628 0
-190 -1632 0
-191 -1633 0
-187 -1640 0
-189 -1641 0
-190 -1644 0
-191 -1645 0
-188 -1646 0
-189 -1648 0
-190 -1652 0
-191 -1654 0
-185 -1668 0
-188 -1669 0
-190 -1673 0
-191 -1674 0
-188 -1675 0
-189 -1676 0
-190 -1679 0
-191 -1680 0
-186 -1687 0
-189 -1689 0
-190 -1692 0
-191 -1693 0
-185 -1707 0
-186 -1708 0
-190 -1713 0
-191 -1715 0
-185 -1729 0
-189 -1731 0
-190 -1734 0
-191 -1735 0
-189 -1757 0
-190 -1760 0
-191 -1761 0
-186 -1774 0
-189 -1775 0
-190 -1777 0
-191 -1779 0
-189 -1781 0
-190 -1785 0
-191 -1787 0
-188 -1794 0
-189 -1795 0
-191 -1799 0
-191 -1811 0
-191 -1829 0
-186 -1844 0
-187 -1845 0
-190 -1848 0
-191 -1850 0
-186 -1858 0
-188 -1859 0
-189 -1860 0
-190 -1862 0
-191 -1864 0
-186 -1865 0
-188 -1866 0
-190 -1868 0
-191 -1870 0
-186 -1871 0
-190 -1875 0
-191 -1877 0
-185 -1892 0
-186 -1893 0
-190 -1896 0
-191 -1898 0
-186 -1905 0
-190 -1909 0
-191 -1910 0
-185 -1911 0
-186 -1912 0
-190 -1915 0
-191 -1917 0
-186 -1925 0
-189 -1926 0
-190 -1928 0
-191 -1930 0
-185 -1931 0
-189 -1932 0
-190 -1934 0
-191 -1936 0
-194 -221 0
-195 -222 0
-196 -225 0
-201 -226 0
-194 -297 0
-197 -300 0
-198 -301 0
-201 -302 0
-194 -309 0
-195 -310 0
-197 -312 0
-199 -313 0
-201 -314 0
-192 -331 0
-194 -332 0
-195 -333 0
-197 -335 0
-198 -336 0
-201 -337 0
-194 -375 0
-195 -376 0
-197 -378 0
-198 -379 0
-200 -380 0
-201 -381 0
-195 -389 0
-197 -391 0
-198 -392 0
-199 -393 0
-200 -394 0
-201 -395 0
-192 -408 0
-194 -409 0
-196 -412 0
-197 -413 0
-201 -414 0
-194 -503 0
-196 -506 0
-198 -507 0
-200 -508 0
-201 -509 0
-195 -517 0
-196 -520 0
-199 -521 0
-200 -522 0
-201 -523 0
-192 -537 0
-195 -538 0
-196 -541 0
-197 -542 0
-198 -543 0
-200 -544 0
-201 -545 0
-194 -578 0
-195 -579 0
-197 -582 0
-198 -583 0
-199 -584 0
-200 -585 0
-201 -586 0
-194 -614 0
-196 -616 0
-199 -617 0
-200 -618 0
-201 -619 0
-194 -708 0
-196 -710 0
-197 -711 0
-198 -712 0
-199 -713 0
-201 -714 0
-195 -722 0
-196 -725 0
-197 -726 0
-198 -727 0
-201 -728 0
-192 -743 0
-197 -745 0
-198 -746 0
-199 -747 0
-201 -748 0
-198 -777 0
-199 -778 0
-200 -779 0
-201 -780 0
-193 -787 0
-194 -788 0
-196 -789 0
-198 -790 0
-200 -791 0
-201 -792 0
-192 -799 0
-194 -800 0
-196 -802 0
-199 -803 0
-200 -804 0
-201 -805 0
-193 -806 0
-194 -807 0
-195 -808 0
-196 -811 0
-199 -812 0
-200 -813 0
-201 -814 0
-192 -821 0
-193 -822 0
-194 -823 0
-195 -824 0
-196 -826 0
-197 -827 0
-198 -828 0
-200 -829 0
-201 -830 0
-192 -844 0
-194 -845 0
-195 -846 0
-196 -847 0
-200 -848 0
-201 -849 0
-194 -872 0
-195 -873 0
-196 -875 0
-197 -876 0
-199 -877 0
-201 -878 0
-193 -879 0
-195 -880 0
-196 -882 0
-198 -883 0
-199 -884 0
-201 -885 0
-195 -886 0
-196 -887 0
-197 -888 0
-199 -889 0
-200 -890 0
-201 -891 0
-192 -898 0
-193 -899 0
-194 -900 0
-196 -902 0
-200 -903 0
-201 -904 0
-193 -987 0
-194 -988 0
-196 -990 0
-197 -991 0
-198 -992 0
-201 -993 0
-193 -1001 0
-195 -1002 0
-196 -1004 0
-197 -1005 0
-199 -1006 0
-201 -1007 0
-192 -1021 0
-195 -1022 0
-196 -1024 0
-197 -1025 0
-200 -1026 0
-201 -1027 0
-193 -1035 0
-194 -1036 0
-198 -1038 0
-199 -1039 0
-201 -1040 0
-192 -1050 0
-194 -1051 0
-199 -1054 0
-201 -1055 0
-192 -1056 0
-193 -1057 0
-194 -1058 0
-197 -1059 0
-198 -1060 0
-201 -1061 0
-192 -1071 0
-194 -1072 0
-197 -1074 0
-198 -1075 0
-199 -1076 0
-201 -1077 0
-192 -1078 0
-193 -1079 0
-195 -1080 0
-197 -1083 0
-198 -1084 0
-199 -1085 0
-201 -1086 0
-192 -1087 0
-194 -1088 0
-198 -1090 0
-200 -1091 0
-201 -1092 0
-192 -1099 0
-195 -1100 0
-199 -1102 0
-200 -1103 0
-201 -1104 0
-192 -1111 0
-195 -1112 0
-197 -1113 0
-198 -1114 0
-200 -1115 0
-201 -1116 0
-194 -1129 0
-197 -1130 0
-198 -1131 0
-199 -1132 0
-200 -1133 0
-201 -1134 0
-193 -1141 0
-195 -1142 0
-198 -1143 0
-199 -1144 0
-200 -1145 0
-201 -1146 0
-192 -1154 0
-195 -1155 0
-198 -1157 0
-199 -1158 0
-200 -1159 0
-201 -1160 0
-195 -1161 0
-197 -1163 0
-198 -1164 0
-199 -1165 0
-201 -1166 0
-192 -1167 0
-193 -1168 0
-196 -1170 0
-199 -1171 0
-201 -1172 0
-192 -1179 0
-193 -1180 0
-196 -1182 0
-197 -1183 0
-198 -1184 0
-201 -1185 0
-192 -1199 0
-196 -1202 0
-200 -1203 0
-201 -1204 0
-193 -1224 0
-196 -1227 0
-197 -1228 0
-198 -1229 0
-199 -1230 0
-200 -1231 0
-201 -1232 0
-192 -1240 0
-196 -1242 0
-197 -1243 0
-199 -1244 0
-200 -1245 0
-201 -1246 0
-192 -1247 0
-193 -1248 0
-196 -1250 0
-198 -1251 0
-200 -1252 0
-201 -1253 0
-192 -1261 0
-196 -1263 0
-197 -1264 0
-198 -1265 0
-201 -1266 0
-194 -1280 0
-197 -1283 0
-199 -1284 0
-200 -1285 0
-201 -1286 0
-193 -1287 0
-194 -1288 0
-198 -1290 0
-199 -1291 0
-200 -1292 0
-201 -1293 0
-193 -1301 0
-195 -1302 0
-198 -1305 0
-200 -1306 0
-201 -1307 0
-194 -1308 0
-197 -1309 0
-198 -1310 0
-199 -1311 0
-200 -1312 0
-201 -1313 0
-195 -1320 0
-197 -1323 0
-200 -1324 0
-201 -1325 0
-192 -1335 0
-195 -1336 0
-198 -1338 0
-199 -1339 0
-200 -1340 0
-201 -1341 0
-193 -1349 0
-196 -1352 0
-197 -1353 0
-200 -1354 0
-201 -1355 0
-192 -1369 0
-196 -1371 0
-197 -1372 0
-199 -1373 0
-200 -1374 0
-201 -1375 0
-196 -1398 0
-197 -1399 0
-198 -1400 0
-199 -1401 0
-200 -1402 0
-201 -1403 0
-193 -1411 0
-196 -1414 0
-198 -1415 0
-201 -1416 0
-192 -1424 0
-196 -1427 0
-198 -1428 0
-199 -1429 0
-201 -1430 0
-196 -1432 0
-197 -1433 0
-198 -1434 0
-200 -1435 0
-201 -1436 0
-192 -1437 0
-196 -1438 0
-198 -1439 0
-199 -1440 0
-200 -1441 0
-201 -1442 0
-196 -1451 0
-197 -1452 0
-198 -1453 0
-199 -1454 0
-200 -1455 0
-201 -1456 0
-194 -1457 0
-197 -1458 0
-198 -1459 0
-199 -1460 0
-200 -1461 0
-201 -1462 0
-193 -1463 0
-194 -1464 0
-195 -1465 0
-197 -1466 0
-200 -1467 0
-201 -1468 0
-194 -1478 0
-195 -1479 0
-197 -1481 0
-198 -1482 0
-200 -1483 0
-201 -1484 0
-193 -1499 0
-194 -1500 0
-196 -1503 0
-197 -1504 0
-198 -1505 0
-200 -1506 0
-201 -1507 0
-195 -1581 0
-196 -1583 0
-198 -1584 0
-200 -1585 0
-201 -1586 0
-194 -1600 0
-196 -1602 0
-197 -1603 0
-198 -1604 0
-199 -1605 0
-201 -1606 0
-193 -1607 0
-194 -1608 0
-196 -1610 0
-197 -1611 0
-198 -1612 0
-201 -1613 0
-192 -1621 0
-194 -1622 0
-196 -1623 0
-197 -1624 0
-199 -1625 0
-201 -1626 0
-193 -1627 0
-195 -1628 0
-196 -1630 0
-197 -1631 0
-199 -1632 0
-201 -1633 0
-194 -1634 0
-196 -1636 0
-197 -1637 0
-200 -1638 0
-201 -1639 0
-195 -1646 0
-196 -1649 0
-197 -1650 0
-198 -1651 0
-199 -1652 0
-200 -1653 0
-201 -1654 0
-192 -1661 0
-195 -1662 0
-196 -1664 0
-197 -1665 0
-200 -1666 0
-201 -1667 0
-195 -1681 0
-196 -1682 0
-197 -1683 0
-199 -1684 0
-200 -1685 0
-201 -1686 0
-193 -1687 0
-197 -1690 0
-198 -1691 0
-199 -1692 0
-201 -1693 0
-192 -1701 0
-193 -1702 0
-197 -1705 0
-201 -1706 0
-192 -1722 0
-197 -1725 0
-198 -1726 0
-200 -1727 0
-201 -1728 0
-198 -1764 0
-199 -1765 0
-200 -1766 0
-201 -1767 0
-193 -1768 0
-197 -1770 0
-198 -1771 0
-200 -1772 0
-201 -1773 0
-195 -1788 0
-196 -1789 0
-197 -1790 0
-199 -1791 0
-200 -1792 0
-201 -1793 0
-198 -1802 0
-199 -1803 0
-200 -1804 0
-201 -1805 0
-196 -1832 0
-197 -1833 0
-199 -1834 0
-201 -1835 0
-196 -1837 0
-197 -1838 0
-198 -1839 0
-199 -1840 0
-200 -1841 0
-201 -1842 0
-193 -1851 0
-194 -1852 0
-198 -1854 0
-199 -1855 0
-200 -1856 0
-201 -1857 0
-193 -1858 0
-195 -1859 0
-197 -1861 0
-199 -1862 0
-200 -1863 0
-201 -1864 0
-193 -1865 0
-195 -1866 0
-198 -1867 0
-199 -1868 0
-200 -1869 0
-201 -1870 0
-193 -1871 0
-196 -1873 0
-198 -1874 0
-199 -1875 0
-200 -1876 0
-201 -1877 0
-192 -1885 0
-193 -1886 0
-196 -1888 0
-198 -1889 0
-200 -1890 0
-201 -1891 0
-193 -1905 0
-196 -1906 0
-197 -1907 0
-198 -1908 0
-199 -1909 0
-201 -1910 0
-192 -1918 0
-193 -1919 0
-196 -1921 0
-197 -1922 0
-199 -1923 0
-201 -1924 0
-193 -1925 0
-196 -1927 0
-199 -1928 0
-200 -1929 0
-201 -1930 0
-192 -1937 0
-196 -1938 0
-198 -1939 0
-199 -1940 0
-200 -1941 0
-201 -1942 0
-196 -1953 0
-197 -1954 0
-198 -1955 0
-199 -1956 0
-200 -1957 0
-201 -1958 0
-203 -297 0
-205 -301 0
-207 -302 0
-203 -303 0
-206 -306 0
-207 -308 0
-203 -309 0
-204 -310 0
-206 -313 0
-207 -314 0
-203 -323 0
-204 -324 0
-205 -328 0
-207 -330 0
-203 -348 0
-204 -349 0
-207 -353 0
-203 -375 0
-204 -376 0
-205 -379 0
-207 -381 0
-203 -382 0
-204 -383 0
-205 -385 0
-206 -386 0
-207 -388 0
-204 -389 0
-205 -392 0
-206 -393 0
-207 -395 0
-204 -396 0
-205 -399 0
-207 -401 0
-203 -403 0
-207 -407 0
-203 -503 0
-205 -507 0
-207 -509 0
-203 -510 0
-206 -514 0
-207 -516 0
-204 -517 0
-206 -521 0
-207 -523 0
-204 -531 0
-205 -534 0
-207 -536 0
-204 -552 0
-207 -557 0
-203 -708 0
-205 -712 0
-206 -713 0
-207 -714 0
-203 -715 0
-205 -719 0
-207 -721 0
-204 -722 0
-205 -727 0
-207 -728 0
-204 -729 0
-205 -732 0
-206 -733 0
-207 -734 0
-205 -739 0
-206 -740 0
-207 -742 0
-206 -759 0
-207 -760 0
-205 -777 0
-206 -778 0
-207 -780 0
-205 -784 0
-207 -786 0
-203 -788 0
-205 -790 0
-207 -792 0
-203 -794 0
-206 -797 0
-207 -798 0
-203 -807 0
-204 -808 0
-206 -812 0
-207 -814 0
-203 -816 0
-204 -817 0
-205 -819 0
-207 -820 0
-203 -839 0
-204 -840 0
-207 -843 0
-203 -865 0
-204 -866 0
-205 -868 0
-206 -869 0
-207 -871 0
-203 -872 0
-204 -873 0
-206 -877 0
-207 -878 0
-204 -880 0
-205 -883 0
-206 -884 0
-207 -885 0
-204 -886 0
-206 -889 0
-207 -891 0
-203 -893 0
-207 -897 0
-203 -988 0
-205 -992 0
-207 -993 0
-203 -995 0
-206 -998 0
-207 -1000 0
-204 -1002 0
-206 -1006 0
-207 -1007 0
-204 -1009 0
-205 -1012 0
-207 -1014 0
-204 -1016 0
-207 -1020 0
-202 -1041 0
-203 -1042 0
-205 -1046 0
-206 -1047 0
-207 -1049 0
-202 -1050 0
-203 -1051 0
-206 -1054 0
-207 -1055 0
-202 -1056 0
-203 -1058 0
-205 -1060 0
-207 -1061 0
-202 -1062 0
-203 -1064 0
-205 -1067 0
-206 -1068 0
-207 -1070 0
-202 -1078 0
-204 -1080 0
-205 -1084 0
-206 -1085 0
-207 -1086 0
-202 -1087 0
-203 -1088 0
-205 -1090 0
-207 -1092 0
-202 -1093 0
-203 -1094 0
-206 -1097 0
-207 -1098 0
-202 -1099 0
-204 -1100 0
-206 -1102 0
-207 -1104 0
-202 -1105 0
-204 -1107 0
-205 -1109 0
-207 -1110 0
-202 -1147 0
-204 -1148 0
-205 -1151 0
-206 -1152 0
-207 -1153 0
-202 -1154 0
-204 -1155 0
-205 -1157 0
-206 -1158 0
-207 -1160 0
-202 -1167 0
-206 -1171 0
-207 -1172 0
-202 -1173 0
-205 -1176 0
-207 -1178 0
-202 -1193 0
-207 -1198 0
-202 -1233 0
-205 -1237 0
-206 -1238 0
-207 -1239 0
-202 -1240 0
-206 -1244 0
-207 -1246 0
-202 -1247 0
-205 -1251 0
-207 -1253 0
-202 -1254 0
-205 -1257 0
-206 -1258 0
-207 -1260 0
-202 -1261 0
-205 -1265 0
-207 -1266 0
-202 -1267 0
-206 -1270 0
-207 -1272 0
-203 -1273 0
-205 -1277 0
-207 -1279 0
-203 -1280 0
-206 -1284 0
-207 -1286 0
-203 -1288 0
-205 -1290 0
-206 -1291 0
-207 -1293 0
-203 -1295 0
-205 -1299 0
-207 -1300 0
-204 -1302 0
-205 -1305 0
-207 -1307 0
-203 -1308 0
-205 -1310 0
-206 -1311 0
-207 -1313 0
-203 -1314 0
-207 -1319 0
-204 -1320 0
-207 -1325 0
-204 -1327 0
-205 -1331 0
-206 -1332 0
-207 -1334 0
-207 -1355 0
-205 -1360 0
-206 -1361 0
-207 -1362 0
-206 -1366 0
-207 -1368 0
-205 -1400 0
-206 -1401 0
-207 -1403 0
-202 -1417 0
-205 -1421 0
-207 -1423 0
-202 -1424 0
-205 -1428 0
-206 -1429 0
-207 -1430 0
-202 -1437 0
-205 -1439 0
-206 -1440 0
-207 -1442 0
-202 -1443 0
-205 -1447 0
-207 -1448 0
-203 -1593 0
-206 -1597 0
-207 -1599 0
-203 -1600 0
-205 -1604 0
-206 -1605 0
-207 -1606 0
-203 -1608 0
-205 -1612 0
-207 -1613 0
-203 -1615 0
-206 -1618 0
-207 -1620 0
-204 -1628 0
-206 -1632 0
-207 -1633 0
-203 -1634 0
-207 -1639 0
-203 -1640 0
-205 -1643 0
-206 -1644 0
-207 -1645 0
-204 -1646 0
-205 -1651 0
-206 -1652 0
-207 -1654 0
-204 -1656 0
-207 -1660 0
-204 -1675 0
-205 -1678 0
-206 -1679 0
-207 -1680 0
-204 -1681 0
-206 -1684 0
-207 -1686 0
-205 -1691 0
-206 -1692 0
-207 -1693 0
-207 -1700 0
-205 -1720 0
-207 -1721 0
-206 -1760 0
-207 -1761 0
-205 -1764 0
-206 -1765 0
-207 -1767 0
-205 -1771 0
-207 -1773 0
-206 -1777 0
-207 -1779 0
-205 -1784 0
-206 -1785 0
-207 -1787 0
-205 -1827 0
-207 -1829 0
-206 -1834 0
-207 -1835 0
-205 -1839 0
-206 -1840 0
-207 -1842 0
-203 -1845 0
-206 -1848 0
-207 -1850 0
-203 -1852 0
-205 -1854 0
-206 -1855 0
-207 -1857 0
-204 -1859 0
-206 -1862 0
-207 -1864 0
-204 -1866 0
-205 -1867 0
-206 -1868 0
-207 -1870 0
-205 -1874 0
-206 -1875 0
-207 -1877 0
-205 -1882 0
-207 -1884 0
-202 -1911 0
-205 -1914 0
-206 -1915 0
-207 -1917 0
-202 -1918 0
-206 -1923 0
-207 -1924 0
-202 -1931 0
-206 -1934 0
-207 -1936 0
-202 -1937 0
-205 -1939 0
-206 -1940 0
-207 -1942 0
-205 -1955 0
-206 -1956 0
-207 -1958 0
-214 -220 0
-211 -298 0
-212 -301 0
-214 -302 0
-211 -304 0
-213 -306 0
-214 -308 0
-208 -315 0
-212 -319 0
-214 -321 0
-210 -376 0
-212 -379 0
-214 -381 0
-210 -383 0
-212 -385 0
-213 -386 0
-214 -388 0
-211 -504 0
-212 -507 0
-214 -509 0
-211 -511 0
-213 -514 0
-214 -516 0
-208 -524 0
-212 -527 0
-214 -529 0
-212 -575 0
-213 -576 0
-214 -577 0
-211 -709 0
-212 -712 0
-213 -713 0
-214 -714 0
-211 -716 0
-212 -719 0
-214 -721 0
-211 -775 0
-212 -777 0
-213 -778 0
-214 -780 0
-211 -781 0
-212 -784 0
-214 -786 0
-209 -787 0
-212 -790 0
-214 -792 0
-209 -793 0
-213 -797 0
-214 -798 0
-208 -799 0
-213 -803 0
-214 -805 0
-210 -866 0
-212 -868 0
-213 -869 0
-214 -871 0
-210 -873 0
-213 -877 0
-214 -878 0
-209 -987 0
-212 -992 0
-214 -993 0
-209 -994 0
-213 -998 0
-214 -1000 0
-209 -1035 0
-211 -1037 0
-212 -1038 0
-213 -1039 0
-214 -1040 0
-208 -1041 0
-211 -1043 0
-212 -1046 0
-213 -1047 0
-214 -1049 0
-208 -1050 0
-211 -1052 0
-213 -1054 0
-214 -1055 0
-208 -1056 0
-209 -1057 0
-212 -1060 0
-214 -1061 0
-208 -1062 0
-209 -1063 0
-212 -1067 0
-213 -1068 0
-214 -1070 0
-208 -1071 0
-212 -1075 0
-213 -1076 0
-214 -1077 0
-208 -1087 0
-212 -1090 0
-214 -1092 0
-208 -1093 0
-213 -1097 0
-214 -1098 0
-210 -1135 0
-211 -1136 0
-212 -1138 0
-213 -1139 0
-214 -1140 0
-209 -1141 0
-210 -1142 0
-212 -1143 0
-213 -1144 0
-214 -1146 0
-208 -1147 0
-210 -1148 0
-212 -1151 0
-213 -1152 0
-214 -1153 0
-208 -1154 0
-210 -1155 0
-212 -1157 0
-213 -1158 0
-214 -1160 0
-210 -1161 0
-212 -1164 0
-213 -1165 0
-214 -1166 0
-209 -1224 0
-211 -1225 0
-212 -1229 0
-213 -1230 0
-214 -1232 0
-208 -1233 0
-211 -1234 0
-212 -1237 0
-213 -1238 0
-214 -1239 0
-208 -1240 0
-211 -1241 0
-213 -1244 0
-214 -1246 0
-208 -1247 0
-209 -1248 0
-212 -1251 0
-214 -1253 0
-208 -1254 0
-209 -1255 0
-212 -1257 0
-213 -1258 0
-214 -1260 0
-208 -1261 0
-212 -1265 0
-214 -1266 0
-208 -1267 0
-213 -1270 0
-214 -1272 0
-211 -1274 0
-212 -1277 0
-214 -1279 0
-211 -1281 0
-213 -1284 0
-214 -1286 0
-209 -1287 0
-212 -1290 0
-213 -1291 0
-214 -1293 0
-209 -1294 0
-212 -1299 0
-214 -1300 0
-212 -1310 0
-213 -1311 0
-214 -1313 0
-214 -1319 0
-212 -1400 0
-213 -1401 0
-214 -1403 0
-211 -1405 0
-212 -1407 0
-213 -1408 0
-214 -1410 0
-209 -1411 0
-211 -1412 0
-212 -1415 0
-214 -1416 0
-208 -1417 0
-211 -1418 0
-212 -1421 0
-214 -1423 0
-208 -1424 0
-211 -1425 0
-212 -1428 0
-213 -1429 0
-214 -1430 0
-211 -1431 0
-212 -1434 0
-214 -1436 0
-208 -1437 0
-212 -1439 0
-213 -1440 0
-214 -1442 0
-208 -1443 0
-212 -1447 0
-214 -1448 0
-212 -1459 0
-213 -1460 0
-214 -1462 0
-211 -1594 0
-213 -1597 0
-214 -1599 0
-211 -1601 0
-212 -1604 0
-213 -1605 0
-214 -1606 0
-209 -1607 0
-212 -1612 0
-214 -1613 0
-209 -1614 0
-213 -1618 0
-214 -1620 0
-208 -1621 0
-213 -1625 0
-214 -1626 0
-214 -1639 0
-212 -1643 0
-213 -1644 0
-214 -1645 0
-210 -1675 0
-212 -1678 0
-213 -1679 0
-214 -1680 0
-210 -1681 0
-213 -1684 0
-214 -1686 0
-211 -1756 0
-213 -1760 0
-214 -1761 0
-211 -1762 0
-212 -1764 0
-213 -1765 0
-214 -1767 0
-209 -1768 0
-212 -1771 0
-214 -1773 0
-209 -1774 0
-213 -1777 0
-214 -1779 0
-212 -1784 0
-213 -1785 0
-214 -1787 0
-211 -1824 0
-212 -1827 0
-214 -1829 0
-211 -1830 0
-213 -1834 0
-214 -1835 0
-212 -1839 0
-213 -1840 0
-214 -1842 0
-209 -1844 0
-213 -1848 0
-214 -1850 0
-209 -1851 0
-212 -1854 0
-213 -1855 0
-214 -1857 0
-209 -1899 0
-211 -1900 0
-213 -1902 0
-214 -1904 0
-209 -1905 0
-212 -1908 0
-213 -1909 0
-214 -1910 0
-208 -1911 0
-209 -1912 0
-212 -1914 0
-213 -1915 0
-214 -1917 0
-208 -1918 0
-209 -1919 0
-213 -1923 0
-214 -1924 0
-209 -1925 0
-213 -1928 0
-214 -1930 0
-208 -1931 0
-213 -1934 0
-214 -1936 0
-208 -1937 0
-212 -1939 0
-213 -1940 0
-214 -1942 0
-212 -1955 0
-213 -1956 0
-214 -1958 0
-215 -309 0
-218 -312 0
-220 -314 0
-215 -323 0
-217 -326 0
-218 -327 0
-219 -329 0
-220 -330 0
-215 -332 0
-218 -335 0
-220 -337 0
-215 -339 0
-216 -342 0
-217 -343 0
-218 -344 0
-219 -346 0
-220 -347 0
-215 -348 0
-216 -351 0
-217 -352 0
-220 -353 0
-215 -355 0
-216 -357 0
-217 -358 0
-218 -359 0
-220 -362 0
-215 -364 0
-217 -366 0
-219 -367 0
-220 -368 0
-218 -391 0
-219 -394 0
-220 -395 0
-216 -397 0
-217 -398 0
-219 -400 0
-220 -401 0
-218 -449 0
-219 -450 0
-220 -451 0
-216 -470 0
-220 -472 0
-216 -484 0
-217 -485 0
-219 -487 0
-220 -488 0
-216 -492 0
-218 -493 0
-220 -495 0
-217 -499 0
-219 -501 0
-220 -502 0
-215 -578 0
-216 -581 0
-218 -582 0
-219 -585 0
-220 -586 0
-215 -587 0
-216 -590 0
-217 -591 0
-220 -592 0
-215 -593 0
-217 -595 0
-219 -598 0
-220 -599 0
-215 -600 0
-216 -602 0
-217 -603 0
-218 -604 0
-220 -606 0
-216 -644 0
-220 -646 0
-218 -663 0
-219 -666 0
-220 -667 0
-217 -677 0
-218 -678 0
-220 -680 0
-219 -685 0
-220 -686 0
-216 -690 0
-217 -691 0
-218 -692 0
-220 -695 0
-215 -708 0
-217 -710 0
-218 -711 0
-220 -714 0
-215 -715 0
-216 -717 0
-217 -718 0
-219 -720 0
-220 -721 0
-217 -738 0
-219 -741 0
-220 -742 0
-218 -745 0
-220 -748 0
-216 -751 0
-217 -752 0
-219 -753 0
-220 -754 0
-216 -756 0
-217 -757 0
-218 -758 0
-220 -760 0
-216 -763 0
-217 -764 0
-220 -767 0
-217 -770 0
-218 -771 0
-219 -773 0
-220 -774 0
-215 -807 0
-216 -810 0
-217 -811 0
-219 -813 0
-220 -814 0
-215 -816 0
-216 -818 0
-220 -820 0
-215 -823 0
-216 -825 0
-217 -826 0
-218 -827 0
-219 -829 0
-220 -830 0
-215 -833 0
-216 -835 0
-220 -837 0
-215 -839 0
-218 -841 0
-219 -842 0
-220 -843 0
-215 -845 0
-217 -847 0
-219 -848 0
-220 -849 0
-215 -851 0
-216 -853 0
-218 -854 0
-219 -857 0
-220 -858 0
-216 -881 0
-217 -882 0
-220 -885 0
-217 -887 0
-218 -888 0
-219 -890 0
-220 -891 0
-216 -933 0
-217 -934 0
-220 -935 0
-217 -962 0
-218 -963 0
-219 -965 0
-220 -966 0
-218 -970 0
-220 -972 0
-217 -976 0
-219 -978 0
-220 -979 0
-216 -983 0
-218 -984 0
-220 -986 0
-215 -1036 0
-220 -1040 0
-215 -1042 0
-217 -1044 0
-218 -1045 0
-219 -1048 0
-220 -1049 0
-215 -1051 0
-216 -1053 0
-220 -1055 0
-215 -1058 0
-218 -1059 0
-220 -1061 0
-215 -1064 0
-216 -1065 0
-217 -1066 0
-219 -1069 0
-220 -1070 0
-215 -1072 0
-216 -1073 0
-218 -1074 0
-220 -1077 0
-215 -1088 0
-216 -1089 0
-219 -1091 0
-220 -1092 0
-215 -1094 0
-217 -1095 0
-218 -1096 0
-220 -1098 0
-217 -1137 0
-220 -1140 0
-219 -1145 0
-220 -1146 0
-217 -1149 0
-218 -1150 0
-220 -1153 0
-216 -1156 0
-219 -1159 0
-220 -1160 0
-216 -1162 0
-218 -1163 0
-220 -1166 0
-217 -1170 0
-220 -1172 0
-219 -1177 0
-220 -1178 0
-217 -1182 0
-218 -1183 0
-220 -1185 0
-216 -1189 0
-219 -1191 0
-220 -1192 0
-216 -1196 0
-218 -1197 0
-220 -1198 0
-216 -1201 0
-217 -1202 0
-219 -1203 0
-220 -1204 0
-218 -1207 0
-220 -1210 0
-216 -1213 0
-220 -1216 0
-217 -1219 0
-218 -1220 0
-219 -1221 0
-220 -1222 0
-215 -1273 0
-216 -1275 0
-217 -1276 0
-219 -1278 0
-220 -1279 0
-215 -1280 0
-216 -1282 0
-218 -1283 0
-219 -1285 0
-220 -1286 0
-215 -1288 0
-216 -1289 0
-219 -1292 0
-220 -1293 0
-215 -1295 0
-216 -1296 0
-217 -1297 0
-218 -1298 0
-220 -1300 0
-215 -1308 0
-218 -1309 0
-219 -1312 0
-220 -1313 0
-215 -1314 0
-216 -1315 0
-217 -1316 0
-218 -1317 0
-219 -1318 0
-220 -1319 0
-216 -1351 0
-217 -1352 0
-218 -1353 0
-219 -1354 0
-220 -1355 0
-216 -1358 0
-218 -1359 0
-220 -1362 0
-218 -1365 0
-219 -1367 0
-220 -1368 0
-217 -1371 0
-218 -1372 0
-219 -1374 0
-220 -1375 0
-216 -1378 0
-218 -1379 0
-219 -1381 0
-220 -1382 0
-218 -1385 0
-219 -1388 0
-220 -1389 0
-216 -1392 0
-217 -1393 0
-218 -1394 0
-220 -1396 0
-216 -1450 0
-217 -1451 0
-218 -1452 0
-219 -1455 0
-220 -1456 0
-215 -1464 0
-218 -1466 0
-219 -1467 0
-220 -1468 0
-215 -1470 0
-216 -1472 0
-217 -1473 0
-218 -1474 0
-220 -1477 0
-215 -1478 0
-216 -1480 0
-218 -1481 0
-219 -1483 0
-220 -1484 0
-215 -1485 0
-217 -1487 0
-219 -1490 0
-220 -1491 0
-218 -1529 0
-220 -1531 0
-216 -1555 0
-219 -1557 0
-220 -1558 0
-216 -1561 0
-217 -1562 0
-220 -1565 0
-216 -1569 0
-218 -1570 0
-219 -1573 0
-220 -1574 0
-217 -1578 0
-220 -1580 0
-215 -1593 0
-216 -1595 0
-218 -1596 0
-219 -1598 0
-220 -1599 0
-215 -1600 0
-217 -1602 0
-218 -1603 0
-220 -1606 0
-215 -1608 0
-216 -1609 0
-217 -1610 0
-218 -1611 0
-220 -1613 0
-215 -1615 0
-217 -1616 0
-218 -1617 0
-219 -1619 0
-220 -1620 0
-215 -1622 0
-217 -1623 0
-218 -1624 0
-220 -1626 0
-215 -1634 0
-216 -1635 0
-217 -1636 0
-218 -1637 0
-219 -1638 0
-220 -1639 0
-215 -1640 0
-216 -1641 0
-217 -1642 0
-220 -1645 0
-216 -1676 0
-218 -1677 0
-220 -1680 0
-217 -1682 0
-218 -1683 0
-219 -1685 0
-220 -1686 0
-216 -1689 0
-218 -1690 0
-220 -1693 0
-216 -1696 0
-217 -1697 0
-218 -1698 0
-219 -1699 0
-220 -1700 0
-216 -1704 0
-218 -1705 0
-220 -1706 0
-217 -1710 0
-218 -1711 0
-219 -1714 0
-220 -1715 0
-216 -1718 0
-217 -1719 0
-220 -1721 0
-216 -1724 0
-218 -1725 0
-219 -1727 0
-220 -1728 0
-216 -1731 0
-217 -1732 0
-220 -1735 0
-216 -1738 0
-217 -1739 0
-218 -1740 0
-220 -1742 0
-216 -1745 0
-217 -1746 0
-219 -1748 0
-220 -1749 0
-216 -1751 0
-217 -1752 0
-218 -1753 0
-220 -1755 0
-216 -1801 0
-219 -1804 0
-220 -1805 0
-217 -1807 0
-218 -1808 0
-219 -1810 0
-220 -1811 0
-216 -1813 0
-217 -1814 0
-219 -1816 0
-220 -1817 0
-217 -1819 0
-218 -1820 0
-220 -1823 0
-215 -1845 0
-217 -1846 0
-218 -1847 0
-219 -1849 0
-220 -1850 0
-215 -1852 0
-216 -1853 0
-219 -1856 0
-220 -1857 0
-217 -1873 0
-219 -1876 0
-220 -1877 0
-216 -1880 0
-218 -1881 0
-219 -1883 0
-220 -1884 0
-216 -1887 0
-217 -1888 0
-219 -1890 0
-220 -1891 0
-218 -1894 0
-219 -1897 0
-220 -1898 0
-216 -1943 0
-217 -1944 0
-218 -1945 0
-219 -1948 0
-220 -1949 0
-221 -303 0
-223 -304 0
-225 -305 0
-226 -308 0
-221 -316 0
-225 -317 0
-226 -321 0
-221 -323 0
-222 -324 0
-223 -325 0
-225 -326 0
-226 -330 0
-221 -339 0
-222 -340 0
-223 -341 0
-224 -342 0
-225 -343 0
-226 -347 0
-221 -348 0
-222 -349 0
-223 -350 0
-224 -351 0
-225 -352 0
-226 -353 0
-221 -355 0
-222 -356 0
-224 -357 0
-225 -358 0
-226 -362 0
-222 -370 0
-223 -371 0
-225 -372 0
-226 -374 0
-221 -382 0
-222 -383 0
-225 -384 0
-226 -388 0
-222 -396 0
-224 -397 0
-225 -398 0
-226 -401 0
-221 -434 0
-223 -435 0
-225 -436 0
-226 -438 0
-221 -459 0
-223 -460 0
-224 -461 0
-225 -462 0
-226 -466 0
-221 -474 0
-224 -475 0
-225 -476 0
-226 -479 0
-222 -482 0
-223 -483 0
-224 -484 0
-225 -485 0
-226 -488 0
-222 -497 0
-223 -498 0
-225 -499 0
-226 -502 0
-222 -566 0
-224 -567 0
-225 -568 0
-226 -571 0
-221 -572 0
-224 -573 0
-225 -574 0
-226 -577 0
-221 -587 0
-222 -588 0
-223 -589 0
-224 -590 0
-225 -591 0
-226 -592 0
-221 -593 0
-222 -594 0
-225 -595 0
-226 -599 0
-222 -607 0
-223 -608 0
-224 -609 0
-225 -610 0
-226 -613 0
-221 -633 0
-223 -634 0
-224 -635 0
-225 -636 0
-226 -640 0
-221 -654 0
-223 -655 0
-225 -656 0
-226 -660 0
-221 -669 0
-225 -670 0
-226 -673 0
-222 -675 0
-223 -676 0
-225 -677 0
-226 -680 0
-222 -688 0
-223 -689 0
-224 -690 0
-225 -691 0
-226 -695 0
-222 -702 0
-225 -703 0
-226 -707 0
-221 -708 0
-223 -709 0
-225 -710 0
-226 -714 0
-222 -722 0
-223 -723 0
-224 -724 0
-225 -725 0
-226 -728 0
-223 -737 0
-225 -738 0
-226 -742 0
-223 -750 0
-224 -751 0
-225 -752 0
-226 -754 0
-223 -755 0
-224 -756 0
-225 -757 0
-226 -760 0
-223 -762 0
-224 -763 0
-225 -764 0
-226 -767 0
-223 -781 0
-225 -782 0
-226 -786 0
-221 -794 0
-224 -795 0
-226 -798 0
-221 -816 0
-222 -817 0
-224 -818 0
-226 -820 0
-221 -833 0
-222 -834 0
-224 -835 0
-226 -837 0
-221 -839 0
-222 -840 0
-226 -843 0
-221 -851 0
-222 -852 0
-224 -853 0
-226 -858 0
-222 -861 0
-224 -862 0
-226 -864 0
-221 -924 0
-224 -925 0
-226 -928 0
-221 -947 0
-226 -950 0
-222 -969 0
-226 -972 0
-222 -982 0
-224 -983 0
-226 -986 0
-221 -1036 0
-223 -1037 0
-226 -1040 0
-221 -1051 0
-223 -1052 0
-224 -1053 0
-226 -1055 0
-221 -1058 0
-226 -1061 0
-221 -1072 0
-224 -1073 0
-226 -1077 0
-222 -1080 0
-223 -1081 0
-224 -1082 0
-226 -1086 0
-221 -1088 0
-224 -1089 0
-226 -1092 0
-222 -1100 0
-223 -1101 0
-226 -1104 0
-222 -1112 0
-226 -1116 0
-221 -1129 0
-226 -1134 0
-222 -1142 0
-226 -1146 0
-222 -1155 0
-224 -1156 0
-226 -1160 0
-222 -1161 0
-224 -1162 0
-226 -1166 0
-223 -1175 0
-226 -1178 0
-223 -1188 0
-224 -1189 0
-226 -1192 0
-223 -1195 0
-224 -1196 0
-226 -1198 0
-223 -1206 0
-226 -1210 0
-224 -1213 0
-226 -1216 0
-226 -1260 0
-224 -1268 0
-226 -1272 0
-221 -1280 0
-223 -1281 0
-224 -1282 0
-226 -1286 0
-221 -1288 0
-224 -1289 0
-226 -1293 0
-222 -1302 0
-223 -1303 0
-224 -1304 0
-226 -1307 0
-221 -1308 0
-226 -1313 0
-222 -1320 0
-223 -1321 0
-224 -1322 0
-226 -1325 0
-222 -1336 0
-224 -1337 0
-226 -1341 0
-223 -1357 0
-224 -1358 0
-226 -1362 0
-223 -1364 0
-226 -1368 0
-223 -1377 0
-224 -1378 0
-226 -1382 0
-226 -1389 0
-223 -1405 0
-224 -1406 0
-226 -1410 0
-223 -1418 0
-224 -1419 0
-226 -1423 0
-221 -1470 0
-222 -1471 0
-224 -1472 0
-225 -1473 0
-226 -1477 0
-221 -1485 0
-222 -1486 0
-225 -1487 0
-226 -1491 0
-222 -1493 0
-225 -1494 0
-226 -1498 0
-221 -1521 0
-225 -1522 0
-226 -1525 0
-221 -1540 0
-224 -1541 0
-225 -1542 0
-226 -1545 0
-222 -1560 0
-224 -1561 0
-225 -1562 0
-226 -1565 0
-222 -1577 0
-225 -1578 0
-226 -1580 0
-221 -1600 0
-223 -1601 0
-225 -1602 0
-226 -1606 0
-221 -1608 0
-224 -1609 0
-225 -1610 0
-226 -1613 0
-221 -1622 0
-225 -1623 0
-226 -1626 0
-222 -1628 0
-223 -1629 0
-225 -1630 0
-226 -1633 0
-221 -1634 0
-224 -1635 0
-225 -1636 0
-226 -1639 0
-222 -1646 0
-223 -1647 0
-224 -1648 0
-225 -1649 0
-226 -1654 0
-222 -1662 0
-224 -1663 0
-225 -1664 0
-226 -1667 0
-222 -1681 0
-225 -1682 0
-226 -1686 0
-223 -1695 0
-224 -1696 0
-225 -1697 0
-226 -1700 0
-223 -1709 0
-225 -1710 0
-226 -1715 0
-223 -1717 0
-224 -1718 0
-225 -1719 0
-226 -1721 0
-223 -1730 0
-224 -1731 0
-225 -1732 0
-226 -1735 0
-224 -1738 0
-225 -1739 0
-226 -1742 0
-224 -1751 0
-225 -1752 0
-226 -1755 0
-224 -1775 0
-225 -1776 0
-226 -1779 0
-224 -1781 0
-225 -1782 0
-226 -1787 0
-222 -1788 0
-225 -1789 0
-226 -1793 0
-223 -1806 0
-225 -1807 0
-226 -1811 0
-224 -1813 0
-225 -1814 0
-226 -1817 0
-223 -1824 0
-225 -1825 0
-226 -1829 0
-221 -1852 0
-224 -1853 0
-226 -1857 0
-222 -1859 0
-224 -1860 0
-226 -1864 0
-222 -1866 0
-226 -1870 0
-224 -1880 0
-226 -1884 0
-226 -1898 0
-223 -1900 0
-226 -1904 0
-226 -1917 0
-224 -1932 0
-226 -1936 0
-227 -297 0
-229 -298 0
-231 -300 0
-232 -301 0
-235 -302 0
-227 -316 0
-230 -317 0
-231 -318 0
-232 -319 0
-234 -320 0
-235 -321 0
-227 -323 0
-228 -324 0
-229 -325 0
-230 -326 0
-231 -327 0
-232 -328 0
-234 -329 0
-235 -330 0
-227 -332 0
-228 -333 0
-229 -334 0
-231 -335 0
-232 -336 0
-235 -337 0
-227 -348 0
-228 -349 0
-229 -350 0
-230 -352 0
-235 -353 0
-227 -364 0
-228 -365 0
-230 -366 0
-234 -367 0
-235 -368 0
-228 -370 0
-229 -371 0
-230 -372 0
-231 -373 0
-235 -374 0
-227 -375 0
-228 -376 0
-231 -378 0
-232 -379 0
-234 -380 0
-235 -381 0
-228 -396 0
-230 -398 0
-232 -399 0
-234 -400 0
-235 -401 0
-227 -424 0
-229 -425 0
-231 -427 0
-232 -428 0
-233 -429 0
-234 -430 0
-235 -431 0
-227 -453 0
-229 -454 0
-233 -456 0
-235 -457 0
-227 -474 0
-230 -476 0
-233 -477 0
-234 -478 0
-235 -479 0
-228 -482 0
-229 -483 0
-230 -485 0
-233 -486 0
-234 -487 0
-235 -488 0
-228 -490 0
-229 -491 0
-231 -493 0
-233 -494 0
-235 -495 0
-228 -559 0
-232 -561 0
-233 -562 0
-234 -563 0
-235 -564 0
-227 -572 0
-230 -574 0
-232 -575 0
-233 -576 0
-235 -577 0
-227 -578 0
-228 -579 0
-229 -580 0
-231 -582 0
-232 -583 0
-233 -584 0
-234 -585 0
-235 -586 0
-227 -600 0
-228 -601 0
-230 -603 0
-231 -604 0
-233 -605 0
-235 -606 0
-228 -607 0
-229 -608 0
-230 -610 0
-233 -611 0
-234 -612 0
-235 -613 0
-227 -627 0
-229 -628 0
-232 -629 0
-233 -630 0
-235 -631 0
-227 -647 0
-229 -648 0
-231 -650 0
-233 -651 0
-234 -652 0
-235 -653 0
-227 -669 0
-230 -670 0
-231 -671 0
-233 -672 0
-235 -673 0
-228 -675 0
-229 -676 0
-230 -677 0
-231 -678 0
-233 -679 0
-235 -680 0
-228 -682 0
-229 -683 0
-233 -684 0
-234 -685 0
-235 -686 0
-228 -696 0
-231 -698 0
-232 -699 0
-233 -700 0
-235 -701 0
-227 -715 0
-229 -716 0
-230 -718 0
-232 -719 0
-234 -720 0
-235 -721 0
-228 -722 0
-229 -723 0
-230 -725 0
-231 -726 0
-232 -727 0
-235 -728 0
-229 -737 0
-230 -738 0
-232 -739 0
-233 -740 0
-234 -741 0
-235 -742 0
-229 -744 0
-231 -745 0
-232 -746 0
-233 -747 0
-235 -748 0
-229 -755 0
-230 -757 0
-231 -758 0
-233 -759 0
-235 -760 0
-229 -769 0
-230 -770 0
-231 -771 0
-233 -772 0
-234 -773 0
-235 -774 0
-229 -775 0
-232 -777 0
-233 -778 0
-234 -779 0
-235 -780 0
-227 -788 0
-230 -789 0
-232 -790 0
-234 -791 0
-235 -792 0
-227 -816 0
-228 -817 0
-232 -819 0
-235 -820 0
-227 -823 0
-228 -824 0
-230 -826 0
-231 -827 0
-232 -828 0
-234 -829 0
-235 -830 0
-227 -839 0
-228 -840 0
-231 -841 0
-234 -842 0
-235 -843 0
-227 -845 0
-228 -846 0
-230 -847 0
-234 -848 0
-235 -849 0
-228 -861 0
-234 -863 0
-235 -864 0
-227 -917 0
-230 -918 0
-232 -919 0
-233 -920 0
-235 -921 0
-227 -938 0
-230 -940 0
-231 -941 0
-233 -942 0
-234 -943 0
-235 -944 0
-228 -969 0
-231 -970 0
-233 -971 0
-235 -972 0
-228 -975 0
-230 -976 0
-233 -977 0
-234 -978 0
-235 -979 0
-227 -1036 0
-229 -1037 0
-232 -1038 0
-233 -1039 0
-235 -1040 0
-227 -1042 0
-229 -1043 0
-230 -1044 0
-231 -1045 0
-232 -1046 0
-233 -1047 0
-234 -1048 0
-235 -1049 0
-227 -1064 0
-230 -1066 0
-232 -1067 0
-233 -1068 0
-234 -1069 0
-235 -1070 0
-227 -1072 0
-231 -1074 0
-232 -1075 0
-233 -1076 0
-235 -1077 0
-228 -1080 0
-229 -1081 0
-231 -1083 0
-232 -1084 0
-233 -1085 0
-235 -1086 0
-227 -1094 0
-230 -1095 0
-231 -1096 0
-233 -1097 0
-235 -1098 0
-228 -1100 0
-229 -1101 0
-233 -1102 0
-234 -1103 0
-235 -1104 0
-228 -1118 0
-230 -1120 0
-233 -1121 0
-235 -1122 0
-227 -1123 0
-230 -1125 0
-232 -1126 0
-233 -1127 0
-235 -1128 0
-228 -1142 0
-232 -1143 0
-233 -1144 0
-234 -1145 0
-235 -1146 0
-228 -1148 0
-230 -1149 0
-231 -1150 0
-232 -1151 0
-233 -1152 0
-235 -1153 0
-228 -1161 0
-231 -1163 0
-232 -1164 0
-233 -1165 0
-235 -1166 0
-229 -1175 0
-232 -1176 0
-234 -1177 0
-235 -1178 0
-229 -1181 0
-230 -1182 0
-231 -1183 0
-232 -1184 0
-235 -1185 0
-229 -1195 0
-231 -1197 0
-235 -1198 0
-229 -1200 0
-230 -1202 0
-234 -1203 0
-235 -1204 0
-230 -1219 0
-231 -1220 0
-234 -1221 0
-235 -1222 0
-230 -1250 0
-232 -1251 0
-234 -1252 0
-235 -1253 0
-230 -1263 0
-231 -1264 0
-232 -1265 0
-235 -1266 0
-227 -1273 0
-229 -1274 0
-230 -1276 0
-232 -1277 0
-234 -1278 0
-235 -1279 0
-227 -1295 0
-230 -1297 0
-231 -1298 0
-232 -1299 0
-235 -1300 0
-228 -1302 0
-229 -1303 0
-232 -1305 0
-234 -1306 0
-235 -1307 0
-227 -1314 0
-230 -1316 0
-231 -1317 0
-234 -1318 0
-235 -1319 0
-228 -1320 0
-229 -1321 0
-231 -1323 0
-234 -1324 0
-235 -1325 0
-228 -1343 0
-230 -1345 0
-231 -1346 0
-234 -1347 0
-235 -1348 0
-229 -1357 0
-231 -1359 0
-232 -1360 0
-233 -1361 0
-235 -1362 0
-229 -1364 0
-231 -1365 0
-233 -1366 0
-234 -1367 0
-235 -1368 0
-229 -1370 0
-230 -1371 0
-231 -1372 0
-233 -1373 0
-234 -1374 0
-235 -1375 0
-230 -1393 0
-231 -1394 0
-233 -1395 0
-235 -1396 0
-230 -1398 0
-231 -1399 0
-232 -1400 0
-233 -1401 0
-234 -1402 0
-235 -1403 0
-229 -1405 0
-232 -1407 0
-233 -1408 0
-234 -1409 0
-235 -1410 0
-229 -1425 0
-230 -1427 0
-232 -1428 0
-233 -1429 0
-235 -1430 0
-230 -1451 0
-231 -1452 0
-232 -1453 0
-233 -1454 0
-234 -1455 0
-235 -1456 0
-227 -1464 0
-228 -1465 0
-231 -1466 0
-234 -1467 0
-235 -1468 0
-227 -1478 0
-228 -1479 0
-231 -1481 0
-232 -1482 0
-234 -1483 0
-235 -1484 0
-228 -1493 0
-230 -1494 0
-231 -1495 0
-232 -1496 0
-234 -1497 0
-235 -1498 0
-227 -1515 0
-231 -1517 0
-233 -1518 0
-235 -1519 0
-227 -1533 0
-232 -1535 0
-233 -1536 0
-234 -1537 0
-235 -1538 0
-228 -1560 0
-230 -1562 0
-232 -1563 0
-233 -1564 0
-235 -1565 0
-228 -1568 0
-231 -1570 0
-232 -1571 0
-233 -1572 0
-234 -1573 0
-235 -1574 0
-227 -1593 0
-229 -1594 0
-231 -1596 0
-233 -1597 0
-234 -1598 0
-235 -1599 0
-227 -1615 0
-230 -1616 0
-231 -1617 0
-233 -1618 0
-234 -1619 0
-235 -1620 0
-227 -1622 0
-230 -1623 0
-231 -1624 0
-233 -1625 0
-235 -1626 0
-228 -1628 0
-229 -1629 0
-230 -1630 0
-231 -1631 0
-233 -1632 0
-235 -1633 0
-227 -1640 0
-230 -1642 0
-232 -1643 0
-233 -1644 0
-235 -1645 0
-228 -1646 0
-229 -1647 0
-230 -1649 0
-231 -1650 0
-232 -1651 0
-233 -1652 0
-234 -1653 0
-235 -1654 0
-228 -1669 0
-230 -1670 0
-231 -1671 0
-232 -1672 0
-233 -1673 0
-235 -1674 0
-228 -1675 0
-231 -1677 0
-232 -1678 0
-233 -1679 0
-235 -1680 0
-229 -1695 0
-230 -1697 0
-231 -1698 0
-234 -1699 0
-235 -1700 0
-229 -1703 0
-231 -1705 0
-235 -1706 0
-229 -1717 0
-230 -1719 0
-232 -1720 0
-235 -1721 0
-229 -1723 0
-231 -1725 0
-232 -1726 0
-234 -1727 0
-235 -1728 0
-230 -1746 0
-232 -1747 0
-234 -1748 0
-235 -1749 0
-230 -1752 0
-231 -1753 0
-232 -1754 0
-235 -1755 0
-231 -1770 0
-232 -1771 0
-234 -1772 0
-235 -1773 0
-228 -1794 0
-230 -1796 0
-232 -1797 0
-234 -1798 0
-235 -1799 0
-229 -1800 0
-232 -1802 0
-233 -1803 0
-234 -1804 0
-235 -1805 0
-230 -1819 0
-231 -1820 0
-232 -1821 0
-233 -1822 0
-235 -1823 0
-229 -1830 0
-230 -1832 0
-231 -1833 0
-233 -1834 0
-235 -1835 0
-227 -1845 0
-230 -1846 0
-231 -1847 0
-233 -1848 0
-234 -1849 0
-235 -1850 0
-228 -1859 0
-231 -1861 0
-233 -1862 0
-234 -1863 0
-235 -1864 0
-228 -1866 0
-232 -1867 0
-233 -1868 0
-234 -1869 0
-235 -1870 0
-231 -1881 0
-232 -1882 0
-234 -1883 0
-235 -1884 0
-230 -1888 0
-232 -1889 0
-234 -1890 0
-235 -1891 0
-229 -1900 0
-231 -1901 0
-233 -1902 0
-234 -1903 0
-235 -1904 0
-230 -1921 0
-231 -1922 0
-233 -1923 0
-235 -1924 0
-230 -1938 0
-232 -1939 0
-233 -1940 0
-234 -1941 0
-235 -1942 0
-230 -1944 0
-231 -1945 0
-232 -1946 0
-233 -1947 0
-234 -1948 0
-235 -1949 0
-230 -1953 0
-231 -1954 0
-232 -1955 0
-233 -1956 0
-234 -1957 0
-235 -1958 0
-237 -303 0
-240 -305 0
-242 -306 0
-243 -307 0
-244 -308 0
-237 -309 0
-238 -310 0
-242 -313 0
-244 -314 0
-237 -339 0
-238 -340 0
-239 -342 0
-240 -343 0
-242 -345 0
-243 -346 0
-244 -347 0
-237 -348 0
-238 -349 0
-239 -351 0
-240 -352 0
-244 -353 0
-237 -364 0
-238 -365 0
-240 -366 0
-243 -367 0
-244 -368 0
-238 -370 0
-240 -372 0
-244 -374 0
-237 -416 0
-241 -418 0
-242 -419 0
-243 -420 0
-244 -421 0
-237 -459 0
-239 -461 0
-240 -462 0
-241 -464 0
-243 -465 0
-244 -466 0
-238 -468 0
-239 -470 0
-241 -471 0
-244 -472 0
-238 -497 0
-240 -499 0
-241 -500 0
-243 -501 0
-244 -502 0
-237 -587 0
-238 -588 0
-239 -590 0
-240 -591 0
-244 -592 0
-237 -600 0
-238 -601 0
-239 -602 0
-240 -603 0
-242 -605 0
-244 -606 0
-238 -607 0
-239 -609 0
-240 -610 0
-242 -611 0
-243 -612 0
-244 -613 0
-237 -620 0
-239 -622 0
-241 -624 0
-244 -625 0
-237 -654 0
-240 -656 0
-241 -658 0
-242 -659 0
-244 -660 0
-238 -661 0
-241 -664 0
-242 -665 0
-243 -666 0
-244 -667 0
-238 -688 0
-239 -690 0
-240 -691 0
-241 -693 0
-242 -694 0
-244 -695 0
-237 -715 0
-239 -717 0
-240 -718 0
-241 -719 0
-243 -720 0
-244 -721 0
-238 -722 0
-239 -724 0
-240 -725 0
-241 -727 0
-244 -728 0
-238 -729 0
-240 -731 0
-241 -732 0
-242 -733 0
-244 -734 0
-239 -751 0
-240 -752 0
-243 -753 0
-244 -754 0
-239 -756 0
-240 -757 0
-242 -759 0
-244 -760 0
-240 -770 0
-242 -772 0
-243 -773 0
-244 -774 0
-236 -793 0
-237 -794 0
-239 -795 0
-242 -797 0
-244 -798 0
-237 -800 0
-239 -801 0
-240 -802 0
-242 -803 0
-243 -804 0
-244 -805 0
-236 -806 0
-237 -807 0
-238 -808 0
-239 -810 0
-240 -811 0
-242 -812 0
-243 -813 0
-244 -814 0
-236 -832 0
-237 -833 0
-238 -834 0
-239 -835 0
-242 -836 0
-244 -837 0
-236 -838 0
-237 -839 0
-238 -840 0
-243 -842 0
-244 -843 0
-237 -845 0
-238 -846 0
-240 -847 0
-243 -848 0
-244 -849 0
-236 -860 0
-238 -861 0
-239 -862 0
-243 -863 0
-244 -864 0
-237 -872 0
-238 -873 0
-239 -874 0
-240 -875 0
-242 -877 0
-244 -878 0
-238 -886 0
-240 -887 0
-242 -889 0
-243 -890 0
-244 -891 0
-236 -906 0
-237 -907 0
-239 -909 0
-240 -910 0
-241 -912 0
-242 -913 0
-244 -914 0
-236 -946 0
-237 -947 0
-241 -949 0
-244 -950 0
-237 -952 0
-240 -953 0
-241 -955 0
-243 -956 0
-244 -957 0
-236 -959 0
-238 -960 0
-240 -962 0
-241 -964 0
-243 -965 0
-244 -966 0
-236 -981 0
-238 -982 0
-239 -983 0
-241 -985 0
-244 -986 0
-238 -1029 0
-240 -1030 0
-241 -1032 0
-242 -1033 0
-244 -1034 0
-236 -1035 0
-237 -1036 0
-241 -1038 0
-242 -1039 0
-244 -1040 0
-237 -1042 0
-240 -1044 0
-241 -1046 0
-242 -1047 0
-243 -1048 0
-244 -1049 0
-236 -1063 0
-237 -1064 0
-239 -1065 0
-240 -1066 0
-241 -1067 0
-242 -1068 0
-243 -1069 0
-244 -1070 0
-237 -1072 0
-239 -1073 0
-241 -1075 0
-242 -1076 0
-244 -1077 0
-236 -1079 0
-238 -1080 0
-239 -1082 0
-241 -1084 0
-242 -1085 0
-244 -1086 0
-237 -1088 0
-239 -1089 0
-241 -1090 0
-243 -1091 0
-244 -1092 0
-236 -1106 0
-238 -1107 0
-240 -1108 0
-241 -1109 0
-244 -1110 0
-238 -1112 0
-241 -1114 0
-243 -1115 0
-244 -1116 0
-237 -1129 0
-241 -1131 0
-242 -1132 0
-243 -1133 0
-244 -1134 0
-238 -1135 0
-240 -1137 0
-241 -1138 0
-242 -1139 0
-244 -1140 0
-238 -1155 0
-239 -1156 0
-241 -1157 0
-242 -1158 0
-243 -1159 0
-244 -1160 0
-238 -1161 0
-239 -1162 0
-241 -1164 0
-242 -1165 0
-244 -1166 0
-236 -1168 0
-240 -1170 0
-242 -1171 0
-244 -1172 0
-236 -1187 0
-239 -1189 0
-242 -1190 0
-243 -1191 0
-244 -1192 0
-236 -1194 0
-239 -1196 0
-244 -1198 0
-239 -1201 0
-240 -1202 0
-243 -1203 0
-244 -1204 0
-236 -1218 0
-240 -1219 0
-243 -1221 0
-244 -1222 0
-240 -1242 0
-242 -1244 0
-243 -1245 0
-244 -1246 0
-239 -1268 0
-242 -1270 0
-243 -1271 0
-244 -1272 0
-237 -1273 0
-239 -1275 0
-240 -1276 0
-241 -1277 0
-243 -1278 0
-244 -1279 0
-236 -1294 0
-237 -1295 0
-239 -1296 0
-240 -1297 0
-241 -1299 0
-244 -1300 0
-236 -1301 0
-238 -1302 0
-239 -1304 0
-241 -1305 0
-243 -1306 0
-244 -1307 0
-237 -1308 0
-241 -1310 0
-242 -1311 0
-243 -1312 0
-244 -1313 0
-236 -1326 0
-238 -1327 0
-239 -1328 0
-240 -1329 0
-241 -1331 0
-242 -1332 0
-243 -1333 0
-244 -1334 0
-238 -1336 0
-239 -1337 0
-241 -1338 0
-242 -1339 0
-243 -1340 0
-244 -1341 0
-236 -1349 0
-239 -1351 0
-240 -1352 0
-243 -1354 0
-244 -1355 0
-236 -1363 0
-242 -1366 0
-243 -1367 0
-244 -1368 0
-240 -1371 0
-242 -1373 0
-243 -1374 0
-244 -1375 0
-236 -1391 0
-239 -1392 0
-240 -1393 0
-242 -1395 0
-244 -1396 0
-236 -1411 0
-239 -1413 0
-240 -1414 0
-241 -1415 0
-244 -1416 0
-239 -1419 0
-241 -1421 0
-243 -1422 0
-244 -1423 0
-240 -1438 0
-241 -1439 0
-242 -1440 0
-243 -1441 0
-244 -1442 0
-239 -1450 0
-240 -1451 0
-241 -1453 0
-242 -1454 0
-243 -1455 0
-244 -1456 0
-237 -1457 0
-241 -1459 0
-242 -1460 0
-243 -1461 0
-244 -1462 0
-236 -1469 0
-237 -1470 0
-238 -1471 0
-239 -1472 0
-240 -1473 0
-241 -1475 0
-242 -1476 0
-244 -1477 0
-237 -1478 0
-238 -1479 0
-239 -1480 0
-241 -1482 0
-243 -1483 0
-244 -1484 0
-236 -1492 0
-238 -1493 0
-240 -1494 0
-241 -1496 0
-243 -1497 0
-244 -1498 0
-236 -1508 0
-237 -1509 0
-241 -1511 0
-242 -1512 0
-244 -1513 0
-236 -1539 0
-237 -1540 0
-239 -1541 0
-240 -1542 0
-241 -1544 0
-244 -1545 0
-237 -1547 0
-239 -1548 0
-241 -1549 0
-243 -1550 0
-244 -1551 0
-236 -1552 0
-238 -1553 0
-239 -1555 0
-241 -1556 0
-243 -1557 0
-244 -1558 0
-236 -1576 0
-238 -1577 0
-240 -1578 0
-241 -1579 0
-244 -1580 0
-238 -1587 0
-239 -1588 0
-241 -1590 0
-242 -1591 0
-244 -1592 0
-237 -1593 0
-239 -1595 0
-242 -1597 0
-243 -1598 0
-244 -1599 0
-236 -1614 0
-237 -1615 0
-240 -1616 0
-242 -1618 0
-243 -1619 0
-244 -1620 0
-237 -1622 0
-240 -1623 0
-242 -1625 0
-244 -1626 0
-236 -1627 0
-238 -1628 0
-240 -1630 0
-242 -1632 0
-244 -1633 0
-237 -1634 0
-239 -1635 0
-240 -1636 0
-243 -1638 0
-244 -1639 0
-236 -1655 0
-238 -1656 0
-239 -1657 0
-240 -1658 0
-244 -1660 0
-238 -1662 0
-239 -1663 0
-240 -1664 0
-243 -1666 0
-244 -1667 0
-238 -1681 0
-240 -1682 0
-242 -1684 0
-243 -1685 0
-244 -1686 0
-236 -1687 0
-239 -1689 0
-241 -1691 0
-242 -1692 0
-244 -1693 0
-236 -1708 0
-240 -1710 0
-241 -1712 0
-242 -1713 0
-243 -1714 0
-244 -1715 0
-236 -1716 0
-239 -1718 0
-240 -1719 0
-241 -1720 0
-244 -1721 0
-239 -1724 0
-241 -1726 0
-243 -1727 0
-244 -1728 0
-236 -1744 0
-239 -1745 0
-240 -1746 0
-241 -1747 0
-243 -1748 0
-244 -1749 0
-239 -1751 0
-240 -1752 0
-241 -1754 0
-244 -1755 0
-239 -1763 0
-241 -1764 0
-242 -1765 0
-243 -1766 0
-244 -1767 0
-239 -1781 0
-240 -1782 0
-241 -1784 0
-242 -1785 0
-243 -1786 0
-244 -1787 0
-238 -1788 0
-240 -1789 0
-242 -1791 0
-243 -1792 0
-244 -1793 0
-239 -1801 0
-241 -1802 0
-242 -1803 0
-243 -1804 0
-244 -1805 0
-236 -1818 0
-240 -1819 0
-241 -1821 0
-242 -1822 0
-244 -1823 0
-240 -1825 0
-241 -1827 0
-243 -1828 0
-244 -1829 0
-239 -1836 0
-240 -1837 0
-241 -1839 0
-242 -1840 0
-243 -1841 0
-244 -1842 0
-236 -1844 0
-237 -1845 0
-240 -1846 0
-242 -1848 0
-243 -1849 0
-244 -1850 0
-236 -1858 0
-238 -1859 0
-239 -1860 0
-242 -1862 0
-243 -1863 0
-244 -1864 0
-236 -1871 0
-240 -1873 0
-241 -1874 0
-242 -1875 0
-243 -1876 0
-244 -1877 0
-236 -1879 0
-239 -1880 0
-241 -1882 0
-243 -1883 0
-244 -1884 0
-236 -1886 0
-239 -1887 0
-240 -1888 0
-241 -1889 0
-243 -1890 0
-244 -1891 0
-236 -1905 0
-240 -1906 0
-241 -1908 0
-242 -1909 0
-244 -1910 0
-236 -1912 0
-241 -1914 0
-242 -1915 0
-243 -1916 0
-244 -1917 0
-239 -1943 0
-240 -1944 0
-241 -1946 0
-242 -1947 0
-243 -1948 0
-244 -1949 0
-246 -297 0
-248 -300 0
-250 -302 0
-246 -309 0
-247 -310 0
-248 -312 0
-250 -314 0
-246 -332 0
-247 -333 0
-248 -335 0
-250 -337 0
-246 -348 0
-247 -349 0
-250 -353 0
-246 -355 0
-247 -356 0
-248 -359 0
-250 -362 0
-247 -370 0
-248 -373 0
-250 -374 0
-246 -409 0
-248 -413 0
-250 -414 0
-246 -453 0
-250 -457 0
-247 -468 0
-250 -472 0
-247 -490 0
-248 -493 0
-250 -495 0
-246 -578 0
-247 -579 0
-248 -582 0
-249 -585 0
-250 -586 0
-246 -593 0
-247 -594 0
-249 -598 0
-250 -599 0
-247 -607 0
-249 -612 0
-250 -613 0
-246 -614 0
-249 -618 0
-250 -619 0
-246 -647 0
-248 -650 0
-249 -652 0
-250 -653 0
-247 -661 0
-248 -663 0
-249 -666 0
-250 -667 0
-247 -682 0
-249 -685 0
-250 -686 0
-246 -708 0
-248 -711 0
-250 -714 0
-247 -722 0
-248 -726 0
-250 -728 0
-247 -729 0
-250 -734 0
-248 -745 0
-250 -748 0
-248 -758 0
-250 -760 0
-250 -767 0
-245 -787 0
-246 -788 0
-249 -791 0
-250 -792 0
-246 -800 0
-249 -804 0
-250 -805 0
-245 -806 0
-246 -807 0
-247 -808 0
-249 -813 0
-250 -814 0
-245 -822 0
-246 -823 0
-247 -824 0
-248 -827 0
-249 -829 0
-250 -830 0
-245 -838 0
-246 -839 0
-247 -840 0
-248 -841 0
-249 -842 0
-250 -843 0
-246 -851 0
-247 -852 0
-248 -854 0
-249 -857 0
-250 -858 0
-245 -860 0
-247 -861 0
-249 -863 0
-250 -864 0
-246 -865 0
-247 -866 0
-249 -870 0
-250 -871 0
-247 -886 0
-248 -888 0
-249 -890 0
-250 -891 0
-245 -899 0
-246 -900 0
-249 -903 0
-250 -904 0
-245 -937 0
-246 -938 0
-248 -941 0
-249 -943 0
-250 -944 0
-246 -952 0
-248 -954 0
-249 -956 0
-250 -957 0
-245 -959 0
-247 -960 0
-248 -963 0
-249 -965 0
-250 -966 0
-245 -974 0
-247 -975 0
-249 -978 0
-250 -979 0
-247 -1022 0
-248 -1025 0
-249 -1026 0
-250 -1027 0
-245 -1035 0
-246 -1036 0
-250 -1040 0
-246 -1051 0
-250 -1055 0
-245 -1057 0
-246 -1058 0
-248 -1059 0
-250 -1061 0
-246 -1072 0
-248 -1074 0
-250 -1077 0
-245 -1079 0
-247 -1080 0
-248 -1083 0
-250 -1086 0
-246 -1094 0
-248 -1096 0
-250 -1098 0
-245 -1106 0
-247 -1107 0
-250 -1110 0
-247 -1118 0
-250 -1122 0
-246 -1123 0
-250 -1128 0
-247 -1135 0
-250 -1140 0
-247 -1148 0
-248 -1150 0
-250 -1153 0
-247 -1161 0
-248 -1163 0
-250 -1166 0
-245 -1168 0
-250 -1172 0
-245 -1180 0
-248 -1183 0
-250 -1185 0
-245 -1194 0
-248 -1197 0
-250 -1198 0
-248 -1207 0
-250 -1210 0
-245 -1212 0
-250 -1216 0
-250 -1239 0
-248 -1264 0
-250 -1266 0
-246 -1280 0
-248 -1283 0
-249 -1285 0
-250 -1286 0
-245 -1287 0
-246 -1288 0
-249 -1292 0
-250 -1293 0
-245 -1301 0
-247 -1302 0
-249 -1306 0
-250 -1307 0
-246 -1314 0
-248 -1317 0
-249 -1318 0
-250 -1319 0
-245 -1326 0
-247 -1327 0
-248 -1330 0
-249 -1333 0
-250 -1334 0
-247 -1343 0
-248 -1346 0
-249 -1347 0
-250 -1348 0
-245 -1349 0
-248 -1353 0
-249 -1354 0
-250 -1355 0
-245 -1363 0
-248 -1365 0
-249 -1367 0
-250 -1368 0
-248 -1379 0
-249 -1381 0
-250 -1382 0
-245 -1384 0
-248 -1385 0
-249 -1388 0
-250 -1389 0
-248 -1399 0
-249 -1402 0
-250 -1403 0
-245 -1411 0
-250 -1416 0
-250 -1430 0
-248 -1446 0
-250 -1448 0
-246 -1457 0
-248 -1458 0
-249 -1461 0
-250 -1462 0
-245 -1463 0
-246 -1464 0
-247 -1465 0
-248 -1466 0
-249 -1467 0
-250 -1468 0
-246 -1485 0
-247 -1486 0
-249 -1490 0
-250 -1491 0
-245 -1492 0
-247 -1493 0
-248 -1495 0
-249 -1497 0
-250 -1498 0
-245 -1499 0
-246 -1500 0
-248 -1504 0
-249 -1506 0
-250 -1507 0
-245 -1532 0
-246 -1533 0
-249 -1537 0
-250 -1538 0
-246 -1547 0
-249 -1550 0
-250 -1551 0
-245 -1552 0
-247 -1553 0
-249 -1557 0
-250 -1558 0
-245 -1567 0
-247 -1568 0
-248 -1570 0
-249 -1573 0
-250 -1574 0
-247 -1581 0
-249 -1585 0
-250 -1586 0
-246 -1600 0
-248 -1603 0
-250 -1606 0
-245 -1607 0
-246 -1608 0
-248 -1611 0
-250 -1613 0
-246 -1622 0
-248 -1624 0
-250 -1626 0
-245 -1627 0
-247 -1628 0
-248 -1631 0
-250 -1633 0
-246 -1640 0
-250 -1645 0
-245 -1655 0
-247 -1656 0
-248 -1659 0
-250 -1660 0
-247 -1669 0
-248 -1671 0
-250 -1674 0
-247 -1675 0
-248 -1677 0
-250 -1680 0
-245 -1687 0
-248 -1690 0
-250 -1693 0
-245 -1702 0
-248 -1705 0
-250 -1706 0
-245 -1716 0
-250 -1721 0
-250 -1735 0
-245 -1737 0
-248 -1740 0
-250 -1742 0
-248 -1753 0
-250 -1755 0
-248 -1759 0
-250 -1761 0
-247 -1794 0
-249 -1798 0
-250 -1799 0
-248 -1808 0
-249 -1810 0
-250 -1811 0
-245 -1812 0
-249 -1816 0
-250 -1817 0
-248 -1833 0
-250 -1835 0
-245 -1851 0
-246 -1852 0
-249 -1856 0
-250 -1857 0
-245 -1858 0
-247 -1859 0
-248 -1861 0
-249 -1863 0
-250 -1864 0
-245 -1871 0
-249 -1876 0
-250 -1877 0
-245 -1879 0
-248 -1881 0
-249 -1883 0
-250 -1884 0
-245 -1893 0
-248 -1894 0
-249 -1897 0
-250 -1898 0
-245 -1905 0
-248 -1907 0
-250 -1910 0
-245 -1919 0
-248 -1922 0
-250 -1924 0
-253 -298 0
-256 -302 0
-253 -304 0
-254 -305 0
-255 -307 0
-256 -308 0
-254 -317 0
-255 -320 0
-256 -321 0
-252 -349 0
-253 -350 0
-254 -352 0
-256 -353 0
-252 -356 0
-254 -358 0
-256 -362 0
-252 -365 0
-254 -366 0
-255 -367 0
-256 -368 0
-253 -454 0
-256 -457 0
-253 -460 0
-254 -462 0
-255 -465 0
-256 -466 0
-254 -476 0
-255 -478 0
-256 -479 0
-254 -574 0
-256 -577 0
-252 -594 0
-254 -595 0
-255 -598 0
-256 -599 0
-252 -601 0
-254 -603 0
-256 -606 0
-253 -648 0
-255 -652 0
-256 -653 0
-253 -655 0
-254 -656 0
-256 -660 0
-254 -670 0
-256 -673 0
-253 -709 0
-254 -710 0
-256 -714 0
-253 -716 0
-254 -718 0
-255 -720 0
-256 -721 0
-252 -729 0
-253 -730 0
-254 -731 0
-256 -734 0
-253 -755 0
-254 -757 0
-256 -760 0
-253 -762 0
-254 -764 0
-256 -767 0
-253 -769 0
-254 -770 0
-255 -773 0
-256 -774 0
-251 -787 0
-254 -789 0
-255 -791 0
-256 -792 0
-251 -793 0
-256 -798 0
-254 -802 0
-255 -804 0
-256 -805 0
-251 -838 0
-252 -840 0
-255 -842 0
-256 -843 0
-252 -846 0
-254 -847 0
-255 -848 0
-256 -849 0
-252 -852 0
-255 -857 0
-256 -858 0
-251 -937 0
-254 -940 0
-255 -943 0
-256 -944 0
-251 -946 0
-256 -950 0
-254 -953 0
-255 -956 0
-256 -957 0
-251 -1035 0
-253 -1037 0
-256 -1040 0
-253 -1043 0
-254 -1044 0
-255 -1048 0
-256 -1049 0
-253 -1052 0
-256 -1055 0
-251 -1057 0
-256 -1061 0
-251 -1063 0
-254 -1066 0
-255 -1069 0
-256 -1070 0
-256 -1077 0
-252 -1100 0
-253 -1101 0
-255 -1103 0
-256 -1104 0
-251 -1106 0
-252 -1107 0
-254 -1108 0
-256 -1110 0
-252 -1112 0
-255 -1115 0
-256 -1116 0
-252 -1118 0
-254 -1120 0
-256 -1122 0
-254 -1125 0
-256 -1128 0
-255 -1133 0
-256 -1134 0
-252 -1161 0
-256 -1166 0
-251 -1194 0
-253 -1195 0
-256 -1198 0
-253 -1200 0
-254 -1202 0
-255 -1203 0
-256 -1204 0
-253 -1206 0
-256 -1210 0
-251 -1212 0
-256 -1216 0
-251 -1218 0
-254 -1219 0
-255 -1221 0
-256 -1222 0
-254 -1263 0
-256 -1266 0
-255 -1271 0
-256 -1272 0
-253 -1274 0
-254 -1276 0
-255 -1278 0
-256 -1279 0
-253 -1281 0
-255 -1285 0
-256 -1286 0
-251 -1287 0
-255 -1292 0
-256 -1293 0
-251 -1294 0
-254 -1297 0
-256 -1300 0
-252 -1320 0
-253 -1321 0
-255 -1324 0
-256 -1325 0
-251 -1326 0
-252 -1327 0
-254 -1329 0
-255 -1333 0
-256 -1334 0
-252 -1336 0
-255 -1340 0
-256 -1341 0
-252 -1343 0
-254 -1345 0
-255 -1347 0
-256 -1348 0
-251 -1363 0
-253 -1364 0
-255 -1367 0
-256 -1368 0
-253 -1370 0
-254 -1371 0
-255 -1374 0
-256 -1375 0
-253 -1377 0
-255 -1381 0
-256 -1382 0
-251 -1384 0
-255 -1388 0
-256 -1389 0
-251 -1391 0
-254 -1393 0
-256 -1396 0
-254 -1398 0
-255 -1402 0
-256 -1403 0
-253 -1405 0
-255 -1409 0
-256 -1410 0
-251 -1411 0
-253 -1412 0
-254 -1414 0
-256 -1416 0
-253 -1418 0
-255 -1422 0
-256 -1423 0
-253 -1425 0
-254 -1427 0
-256 -1430 0
-254 -1451 0
-255 -1455 0
-256 -1456 0
-255 -1461 0
-256 -1462 0
-252 -1479 0
-255 -1483 0
-256 -1484 0
-252 -1486 0
-254 -1487 0
-255 -1490 0
-256 -1491 0
-251 -1532 0
-255 -1537 0
-256 -1538 0
-251 -1539 0
-254 -1542 0
-256 -1545 0
-255 -1550 0
-256 -1551 0
-253 -1594 0
-255 -1598 0
-256 -1599 0
-253 -1601 0
-254 -1602 0
-256 -1606 0
-251 -1607 0
-254 -1610 0
-256 -1613 0
-251 -1614 0
-254 -1616 0
-255 -1619 0
-256 -1620 0
-254 -1623 0
-256 -1626 0
-252 -1646 0
-253 -1647 0
-254 -1649 0
-255 -1653 0
-256 -1654 0
-251 -1655 0
-252 -1656 0
-254 -1658 0
-256 -1660 0
-252 -1662 0
-254 -1664 0
-255 -1666 0
-256 -1667 0
-252 -1669 0
-254 -1670 0
-256 -1674 0
-251 -1716 0
-253 -1717 0
-254 -1719 0
-256 -1721 0
-253 -1723 0
-255 -1727 0
-256 -1728 0
-253 -1730 0
-254 -1732 0
-256 -1735 0
-251 -1737 0
-254 -1739 0
-256 -1742 0
-251 -1744 0
-254 -1746 0
-255 -1748 0
-256 -1749 0
-254 -1752 0
-256 -1755 0
-254 -1782 0
-255 -1786 0
-256 -1787 0
-252 -1788 0
-254 -1789 0
-255 -1792 0
-256 -1793 0
-252 -1794 0
-254 -1796 0
-255 -1798 0
-256 -1799 0
-253 -1800 0
-255 -1804 0
-256 -1805 0
-253 -1806 0
-254 -1807 0
-255 -1810 0
-256 -1811 0
-251 -1812 0
-254 -1814 0
-255 -1816 0
-256 -1817 0
-251 -1818 0
-254 -1819 0
-256 -1823 0
-253 -1824 0
-254 -1825 0
-255 -1828 0
-256 -1829 0
-253 -1830 0
-254 -1832 0
-256 -1835 0
-251 -1844 0
-254 -1846 0
-255 -1849 0
-256 -1850 0
-251 -1851 0
-255 -1856 0
-256 -1857 0
-251 -1865 0
-252 -1866 0
-255 -1869 0
-256 -1870 0
-251 -1879 0
-255 -1883 0
-256 -1884 0
-251 -1886 0
-254 -1888 0
-255 -1890 0
-256 -1891 0
-251 -1893 0
-255 -1897 0
-256 -1898 0
-251 -1899 0
-253 -1900 0
-255 -1903 0
-256 -1904 0
-251 -1905 0
-254 -1906 0
-256 -1910 0
-251 -1912 0
-255 -1916 0
-256 -1917 0
-251 -1919 0
-254 -1921 0
-256 -1924 0
-254 -1944 0
-255 -1948 0
-256 -1949 0
-257 -303 0
-260 -305 0
-262 -306 0
-263 -308 0
-257 -309 0
-258 -310 0
-261 -312 0
-262 -313 0
-263 -314 0
-257 -316 0
-260 -317 0
-261 -318 0
-263 -321 0
-257 -323 0
-258 -324 0
-260 -326 0
-261 -327 0
-263 -330 0
-257 -332 0
-258 -333 0
-261 -335 0
-263 -337 0
-257 -364 0
-258 -365 0
-260 -366 0
-263 -368 0
-258 -370 0
-260 -372 0
-261 -373 0
-263 -374 0
-257 -382 0
-258 -383 0
-260 -384 0
-262 -386 0
-263 -388 0
-258 -389 0
-261 -391 0
-262 -393 0
-263 -395 0
-257 -416 0
-262 -419 0
-263 -421 0
-257 -434 0
-260 -436 0
-263 -438 0
-257 -440 0
-261 -442 0
-263 -444 0
-258 -447 0
-261 -449 0
-263 -451 0
-258 -497 0
-260 -499 0
-263 -502 0
-258 -547 0
-262 -549 0
-263 -551 0
-257 -572 0
-259 -573 0
-260 -574 0
-262 -576 0
-263 -577 0
-257 -578 0
-258 -579 0
-259 -581 0
-261 -582 0
-262 -584 0
-263 -586 0
-257 -600 0
-258 -601 0
-259 -602 0
-260 -603 0
-261 -604 0
-262 -605 0
-263 -606 0
-258 -607 0
-259 -609 0
-260 -610 0
-262 -611 0
-263 -613 0
-257 -620 0
-259 -622 0
-261 -623 0
-263 -625 0
-257 -633 0
-259 -635 0
-260 -636 0
-261 -637 0
-262 -638 0
-263 -640 0
-258 -642 0
-259 -644 0
-262 -645 0
-263 -646 0
-258 -688 0
-259 -690 0
-260 -691 0
-261 -692 0
-262 -694 0
-263 -695 0
-257 -708 0
-260 -710 0
-261 -711 0
-262 -713 0
-263 -714 0
-258 -729 0
-260 -731 0
-262 -733 0
-263 -734 0
-260 -738 0
-262 -740 0
-263 -742 0
-261 -745 0
-262 -747 0
-263 -748 0
-260 -770 0
-261 -771 0
-262 -772 0
-263 -774 0
-260 -782 0
-261 -783 0
-263 -786 0
-257 -794 0
-259 -795 0
-261 -796 0
-262 -797 0
-263 -798 0
-257 -800 0
-259 -801 0
-260 -802 0
-262 -803 0
-263 -805 0
-257 -807 0
-258 -808 0
-259 -810 0
-260 -811 0
-262 -812 0
-263 -814 0
-257 -816 0
-258 -817 0
-259 -818 0
-263 -820 0
-257 -823 0
-258 -824 0
-259 -825 0
-260 -826 0
-261 -827 0
-263 -830 0
-257 -851 0
-258 -852 0
-259 -853 0
-261 -854 0
-262 -856 0
-263 -858 0
-258 -861 0
-259 -862 0
-263 -864 0
-257 -872 0
-258 -873 0
-259 -874 0
-260 -875 0
-261 -876 0
-262 -877 0
-263 -878 0
-258 -880 0
-259 -881 0
-260 -882 0
-262 -884 0
-263 -885 0
-257 -907 0
-259 -909 0
-260 -910 0
-261 -911 0
-262 -913 0
-263 -914 0
-257 -924 0
-259 -925 0
-261 -926 0
-263 -928 0
-258 -931 0
-259 -933 0
-260 -934 0
-263 -935 0
-258 -982 0
-259 -983 0
-261 -984 0
-263 -986 0
-257 -1036 0
-262 -1039 0
-263 -1040 0
-257 -1042 0
-260 -1044 0
-261 -1045 0
-262 -1047 0
-263 -1049 0
-257 -1058 0
-261 -1059 0
-263 -1061 0
-257 -1094 0
-260 -1095 0
-261 -1096 0
-262 -1097 0
-263 -1098 0
-258 -1100 0
-262 -1102 0
-263 -1104 0
-258 -1107 0
-260 -1108 0
-263 -1110 0
-258 -1112 0
-261 -1113 0
-263 -1116 0
-257 -1129 0
-261 -1130 0
-262 -1132 0
-263 -1134 0
-258 -1135 0
-260 -1137 0
-262 -1139 0
-263 -1140 0
-258 -1142 0
-262 -1144 0
-263 -1146 0
-258 -1148 0
-260 -1149 0
-261 -1150 0
-262 -1152 0
-263 -1153 0
-260 -1170 0
-262 -1171 0
-263 -1172 0
-263 -1178 0
-260 -1182 0
-261 -1183 0
-263 -1185 0
-261 -1207 0
-262 -1209 0
-263 -1210 0
-260 -1219 0
-261 -1220 0
-263 -1222 0
-260 -1242 0
-261 -1243 0
-262 -1244 0
-263 -1246 0
-261 -1256 0
-262 -1258 0
-263 -1260 0
-257 -1273 0
-259 -1275 0
-260 -1276 0
-263 -1279 0
-257 -1288 0
-259 -1289 0
-262 -1291 0
-263 -1293 0
-257 -1314 0
-259 -1315 0
-260 -1316 0
-261 -1317 0
-263 -1319 0
-258 -1320 0
-259 -1322 0
-261 -1323 0
-263 -1325 0
-258 -1327 0
-259 -1328 0
-260 -1329 0
-261 -1330 0
-262 -1332 0
-263 -1334 0
-258 -1336 0
-259 -1337 0
-262 -1339 0
-263 -1341 0
-259 -1351 0
-260 -1352 0
-261 -1353 0
-263 -1355 0
-259 -1358 0
-261 -1359 0
-262 -1361 0
-263 -1362 0
-259 -1378 0
-261 -1379 0
-263 -1382 0
-259 -1392 0
-260 -1393 0
-261 -1394 0
-262 -1395 0
-263 -1396 0
-260 -1432 0
-261 -1433 0
-263 -1436 0
-260 -1438 0
-262 -1440 0
-263 -1442 0
-257 -1457 0
-261 -1458 0
-262 -1460 0
-263 -1462 0
-257 -1464 0
-258 -1465 0
-261 -1466 0
-263 -1468 0
-257 -1485 0
-258 -1486 0
-260 -1487 0
-262 -1489 0
-263 -1491 0
-258 -1493 0
-260 -1494 0
-261 -1495 0
-263 -1498 0
-257 -1509 0
-262 -1512 0
-263 -1513 0
-257 -1521 0
-260 -1522 0
-263 -1525 0
-258 -1527 0
-261 -1529 0
-263 -1531 0
-258 -1577 0
-260 -1578 0
-263 -1580 0
-257 -1593 0
-259 -1595 0
-261 -1596 0
-262 -1597 0
-263 -1599 0
-257 -1608 0
-259 -1609 0
-260 -1610 0
-261 -1611 0
-263 -1613 0
-257 -1640 0
-259 -1641 0
-260 -1642 0
-262 -1644 0
-263 -1645 0
-258 -1646 0
-259 -1648 0
-260 -1649 0
-261 -1650 0
-262 -1652 0
-263 -1654 0
-258 -1656 0
-259 -1657 0
-260 -1658 0
-261 -1659 0
-263 -1660 0
-258 -1662 0
-259 -1663 0
-260 -1664 0
-261 -1665 0
-263 -1667 0
-258 -1675 0
-259 -1676 0
-261 -1677 0
-262 -1679 0
-263 -1680 0
-259 -1689 0
-261 -1690 0
-262 -1692 0
-263 -1693 0
-259 -1696 0
-260 -1697 0
-261 -1698 0
-263 -1700 0
-259 -1704 0
-261 -1705 0
-263 -1706 0
-259 -1731 0
-260 -1732 0
-262 -1734 0
-263 -1735 0
-259 -1745 0
-260 -1746 0
-263 -1749 0
-259 -1751 0
-260 -1752 0
-261 -1753 0
-263 -1755 0
-259 -1763 0
-262 -1765 0
-263 -1767 0
-259 -1775 0
-260 -1776 0
-262 -1777 0
-263 -1779 0
-258 -1788 0
-260 -1789 0
-261 -1790 0
-262 -1791 0
-263 -1793 0
-260 -1807 0
-261 -1808 0
-263 -1811 0
-260 -1819 0
-261 -1820 0
-262 -1822 0
-263 -1823 0
-259 -1836 0
-260 -1837 0
-261 -1838 0
-262 -1840 0
-263 -1842 0
-257 -1845 0
-260 -1846 0
-261 -1847 0
-262 -1848 0
-263 -1850 0
-258 -1866 0
-262 -1868 0
-263 -1870 0
-260 -1873 0
-262 -1875 0
-263 -1877 0
-261 -1894 0
-262 -1896 0
-263 -1898 0
-259 -1926 0
-260 -1927 0
-262 -1928 0
-263 -1930 0
-259 -1932 0
-261 -1933 0
-262 -1934 0
-263 -1936 0
-259 -1943 0
-260 -1944 0
-261 -1945 0
-262 -1947 0
-263 -1949 0
-264 -297 0
-266 -299 0
-267 -300 0
-268 -301 0
-270 -302 0
-264 -309 0
-265 -310 0
-267 -312 0
-270 -314 0
-264 -316 0
-267 -318 0
-268 -319 0
-269 -320 0
-270 -321 0
-264 -323 0
-265 -324 0
-267 -327 0
-268 -328 0
-269 -329 0
-270 -330 0
-264 -339 0
-265 -340 0
-266 -342 0
-267 -344 0
-269 -346 0
-270 -347 0
-264 -355 0
-265 -356 0
-266 -357 0
-267 -359 0
-268 -360 0
-270 -362 0
-265 -370 0
-267 -373 0
-270 -374 0
-264 -375 0
-265 -376 0
-266 -377 0
-267 -378 0
-268 -379 0
-269 -380 0
-270 -381 0
-265 -389 0
-267 -391 0
-268 -392 0
-269 -394 0
-270 -395 0
-264 -409 0
-266 -411 0
-267 -413 0
-270 -414 0
-264 -424 0
-266 -426 0
-267 -427 0
-268 -428 0
-269 -430 0
-270 -431 0
-264 -440 0
-267 -442 0
-269 -443 0
-270 -444 0
-265 -447 0
-267 -449 0
-269 -450 0
-270 -451 0
-265 -490 0
-266 -492 0
-267 -493 0
-270 -495 0
-265 -538 0
-266 -540 0
-267 -542 0
-268 -543 0
-269 -544 0
-270 -545 0
-264 -572 0
-266 -573 0
-268 -575 0
-270 -577 0
-264 -587 0
-265 -588 0
-266 -590 0
-270 -592 0
-264 -593 0
-265 -594 0
-268 -596 0
-269 -598 0
-270 -599 0
-265 -607 0
-266 -609 0
-269 -612 0
-270 -613 0
-264 -614 0
-269 -618 0
-270 -619 0
-264 -627 0
-268 -629 0
-270 -631 0
-265 -642 0
-266 -644 0
-270 -646 0
-265 -682 0
-269 -685 0
-270 -686 0
-264 -715 0
-266 -717 0
-268 -719 0
-269 -720 0
-270 -721 0
-265 -729 0
-268 -732 0
-270 -734 0
-268 -739 0
-269 -741 0
-270 -742 0
-266 -751 0
-269 -753 0
-270 -754 0
-266 -763 0
-268 -765 0
-270 -767 0
-266 -776 0
-268 -777 0
-269 -779 0
-270 -780 0
-264 -788 0
-268 -790 0
-269 -791 0
-270 -792 0
-264 -800 0
-266 -801 0
-269 -804 0
-270 -805 0
-264 -807 0
-265 -808 0
-266 -810 0
-269 -813 0
-270 -814 0
-264 -816 0
-265 -817 0
-266 -818 0
-268 -819 0
-270 -820 0
-264 -833 0
-265 -834 0
-266 -835 0
-270 -837 0
-264 -845 0
-265 -846 0
-269 -848 0
-270 -849 0
-265 -861 0
-266 -862 0
-269 -863 0
-270 -864 0
-264 -865 0
-265 -866 0
-268 -868 0
-269 -870 0
-270 -871 0
-265 -880 0
-266 -881 0
-268 -883 0
-270 -885 0
-264 -900 0
-269 -903 0
-270 -904 0
-264 -917 0
-268 -919 0
-270 -921 0
-265 -931 0
-266 -933 0
-270 -935 0
-265 -975 0
-269 -978 0
-270 -979 0
-264 -1036 0
-268 -1038 0
-270 -1040 0
-264 -1051 0
-266 -1053 0
-270 -1055 0
-264 -1064 0
-266 -1065 0
-268 -1067 0
-269 -1069 0
-270 -1070 0
-264 -1088 0
-266 -1089 0
-268 -1090 0
-269 -1091 0
-270 -1092 0
-265 -1100 0
-269 -1103 0
-270 -1104 0
-265 -1107 0
-268 -1109 0
-270 -1110 0
-265 -1118 0
-266 -1119 0
-270 -1122 0
-264 -1123 0
-266 -1124 0
-268 -1126 0
-270 -1128 0
-265 -1135 0
-268 -1138 0
-270 -1140 0
-265 -1142 0
-268 -1143 0
-269 -1145 0
-270 -1146 0
-265 -1155 0
-266 -1156 0
-268 -1157 0
-269 -1159 0
-270 -1160 0
-270 -1172 0
-268 -1176 0
-269 -1177 0
-270 -1178 0
-266 -1189 0
-269 -1191 0
-270 -1192 0
-266 -1201 0
-269 -1203 0
-270 -1204 0
-266 -1213 0
-268 -1214 0
-270 -1216 0
-266 -1235 0
-268 -1237 0
-270 -1239 0
-266 -1249 0
-268 -1251 0
-269 -1252 0
-270 -1253 0
-264 -1280 0
-266 -1282 0
-267 -1283 0
-269 -1285 0
-270 -1286 0
-264 -1295 0
-266 -1296 0
-267 -1298 0
-268 -1299 0
-270 -1300 0
-264 -1308 0
-267 -1309 0
-268 -1310 0
-269 -1312 0
-270 -1313 0
-265 -1320 0
-266 -1322 0
-267 -1323 0
-269 -1324 0
-270 -1325 0
-265 -1327 0
-266 -1328 0
-267 -1330 0
-268 -1331 0
-269 -1333 0
-270 -1334 0
-265 -1343 0
-266 -1344 0
-267 -1346 0
-269 -1347 0
-270 -1348 0
-266 -1351 0
-267 -1353 0
-269 -1354 0
-270 -1355 0
-266 -1358 0
-267 -1359 0
-268 -1360 0
-270 -1362 0
-267 -1372 0
-269 -1374 0
-270 -1375 0
-267 -1385 0
-268 -1386 0
-269 -1388 0
-270 -1389 0
-267 -1433 0
-268 -1434 0
-269 -1435 0
-270 -1436 0
-266 -1444 0
-267 -1446 0
-268 -1447 0
-270 -1448 0
-266 -1450 0
-267 -1452 0
-268 -1453 0
-269 -1455 0
-270 -1456 0
-264 -1457 0
-267 -1458 0
-268 -1459 0
-269 -1461 0
-270 -1462 0
-264 -1470 0
-265 -1471 0
-266 -1472 0
-267 -1474 0
-268 -1475 0
-270 -1477 0
-264 -1478 0
-265 -1479 0
-266 -1480 0
-267 -1481 0
-268 -1482 0
-269 -1483 0
-270 -1484 0
-265 -1493 0
-267 -1495 0
-268 -1496 0
-269 -1497 0
-270 -1498 0
-264 -1500 0
-266 -1502 0
-267 -1504 0
-268 -1505 0
-269 -1506 0
-270 -1507 0
-264 -1515 0
-266 -1516 0
-267 -1517 0
-270 -1519 0
-265 -1527 0
-267 -1529 0
-268 -1530 0
-270 -1531 0
-265 -1568 0
-266 -1569 0
-267 -1570 0
-268 -1571 0
-269 -1573 0
-270 -1574 0
-264 -1600 0
-267 -1603 0
-268 -1604 0
-270 -1606 0
-264 -1615 0
-267 -1617 0
-269 -1619 0
-270 -1620 0
-264 -1634 0
-266 -1635 0
-267 -1637 0
-269 -1638 0
-270 -1639 0
-265 -1646 0
-266 -1648 0
-267 -1650 0
-268 -1651 0
-269 -1653 0
-270 -1654 0
-265 -1656 0
-266 -1657 0
-267 -1659 0
-270 -1660 0
-265 -1669 0
-267 -1671 0
-268 -1672 0
-270 -1674 0
-265 -1681 0
-267 -1683 0
-269 -1685 0
-270 -1686 0
-266 -1689 0
-267 -1690 0
-268 -1691 0
-270 -1693 0
-266 -1696 0
-267 -1698 0
-269 -1699 0
-270 -1700 0
-267 -1711 0
-268 -1712 0
-269 -1714 0
-270 -1715 0
-266 -1724 0
-267 -1725 0
-268 -1726 0
-269 -1727 0
-270 -1728 0
-266 -1738 0
-267 -1740 0
-270 -1742 0
-266 -1751 0
-267 -1753 0
-268 -1754 0
-270 -1755 0
-266 -1757 0
-267 -1759 0
-270 -1761 0
-266 -1769 0
-267 -1770 0
-268 -1771 0
-269 -1772 0
-270 -1773 0
-265 -1794 0
-266 -1795 0
-268 -1797 0
-269 -1798 0
-270 -1799 0
-266 -1801 0
-268 -1802 0
-269 -1804 0
-270 -1805 0
-266 -1813 0
-269 -1816 0
-270 -1817 0
-264 -1852 0
-266 -1853 0
-268 -1854 0
-269 -1856 0
-270 -1857 0
-265 -1866 0
-268 -1867 0
-269 -1869 0
-270 -1870 0
-268 -1874 0
-269 -1876 0
-270 -1877 0
-266 -1887 0
-268 -1889 0
-269 -1890 0
-270 -1891 0
-266 -1926 0
-269 -1929 0
-270 -1930 0
-268 -1939 0
-269 -1941 0
-270 -1942 0
-266 -1952 0
-267 -1954 0
-268 -1955 0
-269 -1957 0
-270 -1958 0
-272 -298 0
-273 -299 0
-275 -300 0
-276 -301 0
-277 -302 0
-272 -304 0
-274 -305 0
-277 -308 0
-271 -324 0
-272 -325 0
-274 -326 0
-275 -327 0
-276 -328 0
-277 -330 0
-271 -333 0
-272 -334 0
-275 -335 0
-276 -336 0
-277 -337 0
-271 -340 0
-272 -341 0
-273 -342 0
-274 -343 0
-275 -344 0
-277 -347 0
-271 -356 0
-273 -357 0
-274 -358 0
-275 -359 0
-276 -360 0
-277 -362 0
-271 -365 0
-274 -366 0
-277 -368 0
-271 -376 0
-273 -377 0
-275 -378 0
-276 -379 0
-277 -381 0
-271 -383 0
-274 -384 0
-276 -385 0
-277 -388 0
-272 -425 0
-273 -426 0
-275 -427 0
-276 -428 0
-277 -431 0
-272 -435 0
-274 -436 0
-277 -438 0
-272 -441 0
-275 -442 0
-277 -444 0
-273 -475 0
-274 -476 0
-277 -479 0
-273 -526 0
-276 -527 0
-277 -529 0
-271 -579 0
-272 -580 0
-273 -581 0
-275 -582 0
-276 -583 0
-277 -586 0
-271 -588 0
-272 -589 0
-273 -590 0
-274 -591 0
-277 -592 0
-271 -594 0
-274 -595 0
-276 -596 0
-277 -599 0
-271 -601 0
-273 -602 0
-274 -603 0
-275 -604 0
-277 -606 0
-272 -628 0
-276 -629 0
-277 -631 0
-272 -634 0
-273 -635 0
-274 -636 0
-275 -637 0
-277 -640 0
-274 -670 0
-275 -671 0
-277 -673 0
-271 -722 0
-272 -723 0
-273 -724 0
-274 -725 0
-275 -726 0
-276 -727 0
-277 -728 0
-271 -729 0
-272 -730 0
-274 -731 0
-276 -732 0
-277 -734 0
-272 -737 0
-274 -738 0
-276 -739 0
-277 -742 0
-272 -744 0
-275 -745 0
-276 -746 0
-277 -748 0
-272 -750 0
-273 -751 0
-274 -752 0
-277 -754 0
-272 -762 0
-273 -763 0
-274 -764 0
-276 -765 0
-277 -767 0
-272 -769 0
-274 -770 0
-275 -771 0
-277 -774 0
-272 -775 0
-273 -776 0
-276 -777 0
-277 -780 0
-272 -781 0
-274 -782 0
-275 -783 0
-276 -784 0
-277 -786 0
-274 -789 0
-276 -790 0
-277 -792 0
-273 -795 0
-275 -796 0
-277 -798 0
-273 -801 0
-274 -802 0
-277 -805 0
-271 -817 0
-273 -818 0
-276 -819 0
-277 -820 0
-271 -824 0
-273 -825 0
-274 -826 0
-275 -827 0
-276 -828 0
-277 -830 0
-271 -834 0
-273 -835 0
-277 -837 0
-274 -918 0
-276 -919 0
-277 -921 0
-273 -925 0
-275 -926 0
-277 -928 0
-272 -1037 0
-276 -1038 0
-277 -1040 0
-272 -1043 0
-274 -1044 0
-275 -1045 0
-276 -1046 0
-277 -1049 0
-272 -1052 0
-273 -1053 0
-277 -1055 0
-271 -1080 0
-272 -1081 0
-273 -1082 0
-275 -1083 0
-276 -1084 0
-277 -1086 0
-273 -1089 0
-276 -1090 0
-277 -1092 0
-274 -1095 0
-275 -1096 0
-277 -1098 0
-271 -1107 0
-274 -1108 0
-276 -1109 0
-277 -1110 0
-271 -1112 0
-275 -1113 0
-276 -1114 0
-277 -1116 0
-271 -1118 0
-273 -1119 0
-274 -1120 0
-277 -1122 0
-273 -1124 0
-274 -1125 0
-276 -1126 0
-277 -1128 0
-275 -1130 0
-276 -1131 0
-277 -1134 0
-271 -1142 0
-276 -1143 0
-277 -1146 0
-271 -1148 0
-274 -1149 0
-275 -1150 0
-276 -1151 0
-277 -1153 0
-271 -1155 0
-273 -1156 0
-276 -1157 0
-277 -1160 0
-272 -1175 0
-276 -1176 0
-277 -1178 0
-272 -1181 0
-274 -1182 0
-275 -1183 0
-276 -1184 0
-277 -1185 0
-272 -1188 0
-273 -1189 0
-277 -1192 0
-273 -1213 0
-276 -1214 0
-277 -1216 0
-274 -1219 0
-275 -1220 0
-277 -1222 0
-273 -1249 0
-274 -1250 0
-276 -1251 0
-277 -1253 0
-275 -1256 0
-276 -1257 0
-277 -1260 0
-272 -1274 0
-273 -1275 0
-274 -1276 0
-276 -1277 0
-277 -1279 0
-272 -1281 0
-273 -1282 0
-275 -1283 0
-277 -1286 0
-271 -1302 0
-272 -1303 0
-273 -1304 0
-276 -1305 0
-277 -1307 0
-275 -1309 0
-276 -1310 0
-277 -1313 0
-273 -1315 0
-274 -1316 0
-275 -1317 0
-277 -1319 0
-271 -1327 0
-273 -1328 0
-274 -1329 0
-275 -1330 0
-276 -1331 0
-277 -1334 0
-271 -1336 0
-273 -1337 0
-276 -1338 0
-277 -1341 0
-271 -1343 0
-273 -1344 0
-274 -1345 0
-275 -1346 0
-277 -1348 0
-272 -1357 0
-273 -1358 0
-275 -1359 0
-276 -1360 0
-277 -1362 0
-275 -1385 0
-276 -1386 0
-277 -1389 0
-273 -1392 0
-274 -1393 0
-275 -1394 0
-277 -1396 0
-272 -1405 0
-273 -1406 0
-276 -1407 0
-277 -1410 0
-272 -1431 0
-274 -1432 0
-275 -1433 0
-276 -1434 0
-277 -1436 0
-275 -1458 0
-276 -1459 0
-277 -1462 0
-271 -1465 0
-275 -1466 0
-277 -1468 0
-271 -1471 0
-273 -1472 0
-274 -1473 0
-275 -1474 0
-276 -1475 0
-277 -1477 0
-273 -1516 0
-275 -1517 0
-277 -1519 0
-274 -1522 0
-276 -1523 0
-277 -1525 0
-272 -1594 0
-273 -1595 0
-275 -1596 0
-277 -1599 0
-272 -1601 0
-274 -1602 0
-275 -1603 0
-276 -1604 0
-277 -1606 0
-271 -1628 0
-272 -1629 0
-274 -1630 0
-275 -1631 0
-277 -1633 0
-273 -1635 0
-274 -1636 0
-275 -1637 0
-277 -1639 0
-273 -1641 0
-274 -1642 0
-276 -1643 0
-277 -1645 0
-271 -1656 0
-273 -1657 0
-274 -1658 0
-275 -1659 0
-277 -1660 0
-271 -1662 0
-273 -1663 0
-274 -1664 0
-275 -1665 0
-277 -1667 0
-271 -1669 0
-274 -1670 0
-275 -1671 0
-276 -1672 0
-277 -1674 0
-271 -1675 0
-273 -1676 0
-275 -1677 0
-276 -1678 0
-277 -1680 0
-271 -1681 0
-274 -1682 0
-275 -1683 0
-277 -1686 0
-272 -1695 0
-273 -1696 0
-274 -1697 0
-275 -1698 0
-277 -1700 0
-272 -1703 0
-273 -1704 0
-275 -1705 0
-277 -1706 0
-272 -1709 0
-274 -1710 0
-275 -1711 0
-276 -1712 0
-277 -1715 0
-273 -1738 0
-274 -1739 0
-275 -1740 0
-277 -1742 0
-273 -1745 0
-274 -1746 0
-276 -1747 0
-277 -1749 0
-273 -1751 0
-274 -1752 0
-275 -1753 0
-276 -1754 0
-277 -1755 0
-273 -1769 0
-275 -1770 0
-276 -1771 0
-277 -1773 0
-273 -1775 0
-274 -1776 0
-277 -1779 0
-271 -1788 0
-274 -1789 0
-275 -1790 0
-277 -1793 0
-271 -1794 0
-273 -1795 0
-274 -1796 0
-276 -1797 0
-277 -1799 0
-273 -1813 0
-274 -1814 0
-277 -1817 0
-274 -1819 0
-275 -1820 0
-276 -1821 0
-277 -1823 0
-274 -1846 0
-275 -1847 0
-277 -1850 0
-273 -1853 0
-276 -1854 0
-277 -1857 0
-271 -1859 0
-273 -1860 0
-275 -1861 0
-277 -1864 0
-272 -1900 0
-275 -1901 0
-277 -1904 0
-273 -1926 0
-274 -1927 0
-277 -1930 0
-273 -1932 0
-275 -1933 0
-277 -1936 0
-274 -1938 0
-276 -1939 0
-277 -1942 0
-273 -1943 0
-274 -1944 0
-275 -1945 0
-276 -1946 0
-277 -1949 0
-273 -1952 0
-274 -1953 0
-275 -1954 0
-276 -1955 0
-277 -1958 0
-280 -299 0
-281 -300 0
-284 -302 0
-282 -306 0
-283 -307 0
-284 -308 0
-279 -310 0
-281 -312 0
-282 -313 0
-284 -314 0
-281 -318 0
-283 -320 0
-284 -321 0
-279 -333 0
-281 -335 0
-284 -337 0
-279 -340 0
-280 -342 0
-281 -344 0
-282 -345 0
-283 -346 0
-284 -347 0
-280 -411 0
-281 -413 0
-284 -414 0
-282 -419 0
-283 -420 0
-284 -421 0
-281 -442 0
-283 -443 0
-284 -444 0
-280 -573 0
-282 -576 0
-284 -577 0
-279 -579 0
-280 -581 0
-281 -582 0
-282 -584 0
-283 -585 0
-284 -586 0
-279 -588 0
-280 -590 0
-284 -592 0
-282 -617 0
-283 -618 0
-284 -619 0
-280 -622 0
-281 -623 0
-284 -625 0
-281 -711 0
-282 -713 0
-284 -714 0
-280 -717 0
-283 -720 0
-284 -721 0
-279 -722 0
-280 -724 0
-281 -726 0
-284 -728 0
-281 -745 0
-282 -747 0
-284 -748 0
-280 -751 0
-283 -753 0
-284 -754 0
-278 -787 0
-283 -791 0
-284 -792 0
-278 -793 0
-280 -795 0
-281 -796 0
-282 -797 0
-284 -798 0
-278 -806 0
-279 -808 0
-280 -810 0
-282 -812 0
-283 -813 0
-284 -814 0
-278 -822 0
-279 -824 0
-280 -825 0
-281 -827 0
-283 -829 0
-284 -830 0
-278 -832 0
-279 -834 0
-280 -835 0
-282 -836 0
-284 -837 0
-279 -846 0
-283 -848 0
-284 -849 0
-279 -852 0
-280 -853 0
-281 -854 0
-282 -856 0
-283 -857 0
-284 -858 0
-279 -866 0
-282 -869 0
-283 -870 0
-284 -871 0
-279 -873 0
-280 -874 0
-281 -876 0
-282 -877 0
-284 -878 0
-278 -899 0
-283 -903 0
-284 -904 0
-278 -906 0
-280 -909 0
-281 -911 0
-282 -913 0
-284 -914 0
-281 -954 0
-283 -956 0
-284 -957 0
-278 -1035 0
-282 -1039 0
-284 -1040 0
-278 -1057 0
-281 -1059 0
-284 -1061 0
-278 -1063 0
-280 -1065 0
-282 -1068 0
-283 -1069 0
-284 -1070 0
-278 -1079 0
-279 -1080 0
-280 -1082 0
-281 -1083 0
-282 -1085 0
-284 -1086 0
-280 -1089 0
-283 -1091 0
-284 -1092 0
-281 -1096 0
-282 -1097 0
-284 -1098 0
-279 -1100 0
-282 -1102 0
-283 -1103 0
-284 -1104 0
-279 -1112 0
-281 -1113 0
-283 -1115 0
-284 -1116 0
-279 -1118 0
-280 -1119 0
-282 -1121 0
-284 -1122 0
-280 -1124 0
-282 -1127 0
-284 -1128 0
-281 -1130 0
-282 -1132 0
-283 -1133 0
-284 -1134 0
-279 -1135 0
-282 -1139 0
-284 -1140 0
-279 -1148 0
-281 -1150 0
-282 -1152 0
-284 -1153 0
-279 -1155 0
-280 -1156 0
-282 -1158 0
-283 -1159 0
-284 -1160 0
-278 -1168 0
-282 -1171 0
-284 -1172 0
-278 -1180 0
-281 -1183 0
-284 -1185 0
-278 -1187 0
-280 -1189 0
-282 -1190 0
-283 -1191 0
-284 -1192 0
-280 -1201 0
-283 -1203 0
-284 -1204 0
-281 -1207 0
-282 -1209 0
-284 -1210 0
-280 -1235 0
-282 -1238 0
-284 -1239 0
-281 -1243 0
-282 -1244 0
-283 -1245 0
-284 -1246 0
-278 -1287 0
-280 -1289 0
-282 -1291 0
-283 -1292 0
-284 -1293 0
-278 -1294 0
-280 -1296 0
-281 -1298 0
-284 -1300 0
-278 -1301 0
-279 -1302 0
-280 -1304 0
-283 -1306 0
-284 -1307 0
-281 -1309 0
-282 -1311 0
-283 -1312 0
-284 -1313 0
-280 -1315 0
-281 -1317 0
-283 -1318 0
-284 -1319 0
-279 -1320 0
-280 -1322 0
-281 -1323 0
-283 -1324 0
-284 -1325 0
-279 -1336 0
-280 -1337 0
-282 -1339 0
-283 -1340 0
-284 -1341 0
-279 -1343 0
-280 -1344 0
-281 -1346 0
-283 -1347 0
-284 -1348 0
-278 -1349 0
-280 -1351 0
-281 -1353 0
-283 -1354 0
-284 -1355 0
-281 -1372 0
-282 -1373 0
-283 -1374 0
-284 -1375 0
-280 -1378 0
-281 -1379 0
-283 -1381 0
-284 -1382 0
-278 -1411 0
-280 -1413 0
-284 -1416 0
-281 -1433 0
-283 -1435 0
-284 -1436 0
-282 -1440 0
-283 -1441 0
-284 -1442 0
-280 -1444 0
-281 -1446 0
-284 -1448 0
-280 -1450 0
-281 -1452 0
-282 -1454 0
-283 -1455 0
-284 -1456 0
-278 -1463 0
-279 -1465 0
-281 -1466 0
-283 -1467 0
-284 -1468 0
-278 -1469 0
-279 -1471 0
-280 -1472 0
-281 -1474 0
-282 -1476 0
-284 -1477 0
-279 -1479 0
-280 -1480 0
-281 -1481 0
-283 -1483 0
-284 -1484 0
-279 -1486 0
-282 -1489 0
-283 -1490 0
-284 -1491 0
-278 -1499 0
-280 -1502 0
-281 -1504 0
-283 -1506 0
-284 -1507 0
-278 -1508 0
-282 -1512 0
-284 -1513 0
-280 -1548 0
-283 -1550 0
-284 -1551 0
-278 -1607 0
-280 -1609 0
-281 -1611 0
-284 -1613 0
-278 -1614 0
-281 -1617 0
-282 -1618 0
-283 -1619 0
-284 -1620 0
-278 -1627 0
-279 -1628 0
-281 -1631 0
-282 -1632 0
-284 -1633 0
-280 -1635 0
-281 -1637 0
-283 -1638 0
-284 -1639 0
-280 -1641 0
-282 -1644 0
-284 -1645 0
-279 -1646 0
-280 -1648 0
-281 -1650 0
-282 -1652 0
-283 -1653 0
-284 -1654 0
-279 -1662 0
-280 -1663 0
-281 -1665 0
-283 -1666 0
-284 -1667 0
-279 -1669 0
-281 -1671 0
-282 -1673 0
-284 -1674 0
-279 -1675 0
-280 -1676 0
-281 -1677 0
-282 -1679 0
-284 -1680 0
-279 -1681 0
-281 -1683 0
-282 -1684 0
-283 -1685 0
-284 -1686 0
-278 -1687 0
-280 -1689 0
-281 -1690 0
-282 -1692 0
-284 -1693 0
-278 -1702 0
-280 -1704 0
-281 -1705 0
-284 -1706 0
-278 -1708 0
-281 -1711 0
-282 -1713 0
-283 -1714 0
-284 -1715 0
-280 -1724 0
-281 -1725 0
-283 -1727 0
-284 -1728 0
-280 -1731 0
-282 -1734 0
-284 -1735 0
-280 -1751 0
-281 -1753 0
-284 -1755 0
-280 -1757 0
-281 -1759 0
-282 -1760 0
-284 -1761 0
-280 -1763 0
-282 -1765 0
-283 -1766 0
-284 -1767 0
-279 -1788 0
-281 -1790 0
-282 -1791 0
-283 -1792 0
-284 -1793 0
-279 -1794 0
-280 -1795 0
-283 -1798 0
-284 -1799 0
-280 -1801 0
-282 -1803 0
-283 -1804 0
-284 -1805 0
-281 -1808 0
-283 -1810 0
-284 -1811 0
-280 -1836 0
-281 -1838 0
-282 -1840 0
-283 -1841 0
-284 -1842 0
-278 -1858 0
-279 -1859 0
-280 -1860 0
-281 -1861 0
-282 -1862 0
-283 -1863 0
-284 -1864 0
-278 -1865 0
-279 -1866 0
-282 -1868 0
-283 -1869 0
-284 -1870 0
-278 -1871 0
-282 -1875 0
-283 -1876 0
-284 -1877 0
-278 -1886 0
-280 -1887 0
-283 -1890 0
-284 -1891 0
-278 -1893 0
-281 -1894 0
-282 -1896 0
-283 -1897 0
-284 -1898 0
-278 -1905 0
-281 -1907 0
-282 -1909 0
-284 -1910 0
-278 -1925 0
-280 -1926 0
-282 -1928 0
-283 -1929 0
-284 -1930 0
-287 -299 0
-290 -302 0
-286 -310 0
-289 -313 0
-290 -314 0
-285 -315 0
-288 -317 0
-290 -321 0
-286 -324 0
-288 -326 0
-290 -330 0
-285 -338 0
-286 -340 0
-287 -342 0
-288 -343 0
-289 -345 0
-290 -347 0
-286 -349 0
-287 -351 0
-288 -352 0
-290 -353 0
-285 -363 0
-286 -365 0
-288 -366 0
-290 -368 0
-286 -383 0
-288 -384 0
-289 -386 0
-290 -388 0
-287 -405 0
-290 -407 0
-285 -415 0
-289 -419 0
-290 -421 0
-285 -432 0
-288 -436 0
-290 -438 0
-285 -458 0
-287 -461 0
-288 -462 0
-290 -466 0
-287 -512 0
-289 -514 0
-290 -516 0
-287 -573 0
-288 -574 0
-289 -576 0
-290 -577 0
-286 -588 0
-287 -590 0
-288 -591 0
-290 -592 0
-286 -601 0
-287 -602 0
-288 -603 0
-289 -605 0
-290 -606 0
-287 -622 0
-290 -625 0
-287 -635 0
-288 -636 0
-289 -638 0
-290 -640 0
-288 -656 0
-289 -659 0
-290 -660 0
-288 -710 0
-289 -713 0
-290 -714 0
-286 -722 0
-287 -724 0
-288 -725 0
-290 -728 0
-286 -729 0
-288 -731 0
-289 -733 0
-290 -734 0
-288 -738 0
-289 -740 0
-290 -742 0
-285 -749 0
-287 -751 0
-288 -752 0
-290 -754 0
-287 -756 0
-288 -757 0
-289 -759 0
-290 -760 0
-285 -768 0
-288 -770 0
-289 -772 0
-290 -774 0
-288 -782 0
-290 -786 0
-288 -789 0
-290 -792 0
-285 -799 0
-287 -801 0
-288 -802 0
-289 -803 0
-290 -805 0
-286 -808 0
-287 -810 0
-288 -811 0
-289 -812 0
-290 -814 0
-286 -817 0
-287 -818 0
-290 -820 0
-285 -831 0
-286 -834 0
-287 -835 0
-289 -836 0
-290 -837 0
-286 -840 0
-290 -843 0
-285 -850 0
-286 -852 0
-287 -853 0
-289 -856 0
-290 -858 0
-286 -873 0
-287 -874 0
-288 -875 0
-289 -877 0
-290 -878 0
-288 -895 0
-290 -897 0
-285 -905 0
-287 -909 0
-288 -910 0
-289 -913 0
-290 -914 0
-285 -922 0
-287 -925 0
-290 -928 0
-285 -945 0
-290 -950 0
-288 -996 0
-289 -998 0
-290 -1000 0
-285 -1041 0
-288 -1044 0
-289 -1047 0
-290 -1049 0
-285 -1056 0
-290 -1061 0
-285 -1071 0
-287 -1073 0
-289 -1076 0
-290 -1077 0
-285 -1078 0
-286 -1080 0
-287 -1082 0
-289 -1085 0
-290 -1086 0
-285 -1087 0
-287 -1089 0
-290 -1092 0
-285 -1099 0
-286 -1100 0
-289 -1102 0
-290 -1104 0
-285 -1105 0
-286 -1107 0
-288 -1108 0
-290 -1110 0
-285 -1117 0
-286 -1118 0
-287 -1119 0
-288 -1120 0
-289 -1121 0
-290 -1122 0
-287 -1124 0
-288 -1125 0
-289 -1127 0
-290 -1128 0
-286 -1135 0
-288 -1137 0
-289 -1139 0
-290 -1140 0
-286 -1142 0
-289 -1144 0
-290 -1146 0
-285 -1154 0
-286 -1155 0
-287 -1156 0
-289 -1158 0
-290 -1160 0
-286 -1161 0
-287 -1162 0
-289 -1165 0
-290 -1166 0
-285 -1167 0
-288 -1170 0
-289 -1171 0
-290 -1172 0
-285 -1173 0
-290 -1178 0
-285 -1186 0
-287 -1189 0
-289 -1190 0
-290 -1192 0
-285 -1193 0
-287 -1196 0
-290 -1198 0
-285 -1205 0
-289 -1209 0
-290 -1210 0
-285 -1217 0
-288 -1219 0
-290 -1222 0
-287 -1226 0
-288 -1227 0
-289 -1230 0
-290 -1232 0
-285 -1240 0
-288 -1242 0
-289 -1244 0
-290 -1246 0
-285 -1254 0
-289 -1258 0
-290 -1260 0
-285 -1267 0
-287 -1268 0
-289 -1270 0
-290 -1272 0
-287 -1275 0
-288 -1276 0
-290 -1279 0
-287 -1289 0
-289 -1291 0
-290 -1293 0
-286 -1302 0
-287 -1304 0
-290 -1307 0
-289 -1311 0
-290 -1313 0
-286 -1320 0
-287 -1322 0
-290 -1325 0
-286 -1327 0
-287 -1328 0
-288 -1329 0
-289 -1332 0
-290 -1334 0
-285 -1342 0
-286 -1343 0
-287 -1344 0
-288 -1345 0
-290 -1348 0
-287 -1351 0
-288 -1352 0
-290 -1355 0
-287 -1358 0
-289 -1361 0
-290 -1362 0
-289 -1366 0
-290 -1368 0
-285 -1376 0
-287 -1378 0
-290 -1382 0
-285 -1390 0
-287 -1392 0
-288 -1393 0
-289 -1395 0
-290 -1396 0
-285 -1417 0
-287 -1419 0
-290 -1423 0
-285 -1437 0
-288 -1438 0
-289 -1440 0
-290 -1442 0
-289 -1460 0
-290 -1462 0
-286 -1471 0
-287 -1472 0
-288 -1473 0
-289 -1476 0
-290 -1477 0
-286 -1486 0
-288 -1487 0
-289 -1489 0
-290 -1491 0
-289 -1512 0
-290 -1513 0
-288 -1522 0
-290 -1525 0
-287 -1541 0
-288 -1542 0
-290 -1545 0
-287 -1595 0
-289 -1597 0
-290 -1599 0
-287 -1609 0
-288 -1610 0
-290 -1613 0
-285 -1621 0
-288 -1623 0
-289 -1625 0
-290 -1626 0
-286 -1628 0
-288 -1630 0
-289 -1632 0
-290 -1633 0
-287 -1635 0
-288 -1636 0
-290 -1639 0
-286 -1646 0
-287 -1648 0
-288 -1649 0
-289 -1652 0
-290 -1654 0
-286 -1656 0
-287 -1657 0
-288 -1658 0
-290 -1660 0
-285 -1668 0
-286 -1669 0
-288 -1670 0
-289 -1673 0
-290 -1674 0
-286 -1681 0
-288 -1682 0
-289 -1684 0
-290 -1686 0
-287 -1689 0
-289 -1692 0
-290 -1693 0
-287 -1696 0
-288 -1697 0
-290 -1700 0
-285 -1707 0
-288 -1710 0
-289 -1713 0
-290 -1715 0
-287 -1718 0
-288 -1719 0
-290 -1721 0
-285 -1729 0
-287 -1731 0
-288 -1732 0
-289 -1734 0
-290 -1735 0
-285 -1743 0
-287 -1745 0
-288 -1746 0
-290 -1749 0
-287 -1763 0
-289 -1765 0
-290 -1767 0
-287 -1775 0
-288 -1776 0
-289 -1777 0
-290 -1779 0
-287 -1781 0
-288 -1782 0
-289 -1785 0
-290 -1787 0
-286 -1794 0
-287 -1795 0
-288 -1796 0
-290 -1799 0
-288 -1807 0
-290 -1811 0
-288 -1819 0
-289 -1822 0
-290 -1823 0
-288 -1825 0
-290 -1829 0
-287 -1836 0
-288 -1837 0
-289 -1840 0
-290 -1842 0
-288 -1846 0
-289 -1848 0
-290 -1850 0
-286 -1859 0
-287 -1860 0
-289 -1862 0
-290 -1864 0
-286 -1866 0
-289 -1868 0
-290 -1870 0
-288 -1873 0
-289 -1875 0
-290 -1877 0
-287 -1880 0
-290 -1884 0
-285 -1892 0
-289 -1896 0
-290 -1898 0
-285 -1911 0
-289 -1915 0
-290 -1917 0
-285 -1931 0
-287 -1932 0
-289 -1934 0
-290 -1936 0
-287 -1943 0
-288 -1944 0
-289 -1947 0
-290 -1949 0
-295 -307 0
-296 -308 0
-292 -310 0
-293 -312 0
-296 -314 0
-291 -315 0
-293 -318 0
-294 -319 0
-295 -320 0
-296 -321 0
-292 -324 0
-293 -327 0
-294 -328 0
-295 -329 0
-296 -330 0
-291 -331 0
-292 -333 0
-293 -335 0
-294 -336 0
-296 -337 0
-292 -349 0
-296 -353 0
-291 -354 0
-292 -356 0
-293 -359 0
-294 -360 0
-296 -362 0
-292 -376 0
-293 -378 0
-294 -379 0
-295 -380 0
-296 -381 0
-295 -406 0
-296 -407 0
-291 -408 0
-293 -413 0
-296 -414 0
-291 -422 0
-293 -427 0
-294 -428 0
-295 -430 0
-296 -431 0
-291 -452 0
-296 -457 0
-294 -507 0
-295 -508 0
-296 -509 0
-294 -575 0
-296 -577 0
-292 -579 0
-293 -582 0
-294 -583 0
-295 -585 0
-296 -586 0
-292 -594 0
-294 -596 0
-295 -598 0
-296 -599 0
-295 -618 0
-296 -619 0
-294 -629 0
-296 -631 0
-293 -650 0
-295 -652 0
-296 -653 0
-294 -719 0
-295 -720 0
-296 -721 0
-292 -722 0
-293 -726 0
-294 -727 0
-296 -728 0
-292 -729 0
-294 -732 0
-296 -734 0
-294 -739 0
-295 -741 0
-296 -742 0
-291 -743 0
-293 -745 0
-294 -746 0
-296 -748 0
-293 -758 0
-296 -760 0
-291 -761 0
-294 -765 0
-296 -767 0
-294 -777 0
-295 -779 0
-296 -780 0
-293 -796 0
-296 -798 0
-291 -799 0
-295 -804 0
-296 -805 0
-292 -808 0
-295 -813 0
-296 -814 0
-292 -817 0
-294 -819 0
-296 -820 0
-291 -821 0
-292 -824 0
-293 -827 0
-294 -828 0
-295 -829 0
-296 -830 0
-292 -840 0
-293 -841 0
-295 -842 0
-296 -843 0
-291 -844 0
-292 -846 0
-295 -848 0
-296 -849 0
-292 -866 0
-294 -868 0
-295 -870 0
-296 -871 0
-293 -896 0
-296 -897 0
-291 -898 0
-295 -903 0
-296 -904 0
-291 -915 0
-294 -919 0
-296 -921 0
-291 -936 0
-293 -941 0
-295 -943 0
-296 -944 0
-293 -991 0
-294 -992 0
-296 -993 0
-291 -1050 0
-296 -1055 0
-291 -1062 0
-294 -1067 0
-295 -1069 0
-296 -1070 0
-291 -1071 0
-293 -1074 0
-294 -1075 0
-296 -1077 0
-291 -1078 0
-292 -1080 0
-293 -1083 0
-294 -1084 0
-296 -1086 0
-291 -1093 0
-293 -1096 0
-296 -1098 0
-291 -1099 0
-292 -1100 0
-295 -1103 0
-296 -1104 0
-291 -1105 0
-292 -1107 0
-294 -1109 0
-296 -1110 0
-291 -1111 0
-292 -1112 0
-293 -1113 0
-294 -1114 0
-295 -1115 0
-296 -1116 0
-293 -1130 0
-294 -1131 0
-295 -1133 0
-296 -1134 0
-292 -1135 0
-294 -1138 0
-296 -1140 0
-292 -1142 0
-294 -1143 0
-295 -1145 0
-296 -1146 0
-291 -1147 0
-292 -1148 0
-293 -1150 0
-294 -1151 0
-296 -1153 0
-292 -1161 0
-293 -1163 0
-294 -1164 0
-296 -1166 0
-291 -1167 0
-296 -1172 0
-291 -1173 0
-294 -1176 0
-295 -1177 0
-296 -1178 0
-291 -1179 0
-293 -1183 0
-294 -1184 0
-296 -1185 0
-291 -1193 0
-293 -1197 0
-296 -1198 0
-291 -1199 0
-295 -1203 0
-296 -1204 0
-291 -1211 0
-294 -1214 0
-296 -1216 0
-293 -1228 0
-294 -1229 0
-295 -1231 0
-296 -1232 0
-291 -1233 0
-294 -1237 0
-296 -1239 0
-291 -1247 0
-294 -1251 0
-295 -1252 0
-296 -1253 0
-291 -1261 0
-293 -1264 0
-294 -1265 0
-296 -1266 0
-293 -1283 0
-295 -1285 0
-296 -1286 0
-293 -1298 0
-294 -1299 0
-296 -1300 0
-292 -1302 0
-294 -1305 0
-295 -1306 0
-296 -1307 0
-293 -1317 0
-295 -1318 0
-296 -1319 0
-292 -1320 0
-293 -1323 0
-295 -1324 0
-296 -1325 0
-292 -1327 0
-293 -1330 0
-294 -1331 0
-295 -1333 0
-296 -1334 0
-291 -1335 0
-292 -1336 0
-294 -1338 0
-295 -1340 0
-296 -1341 0
-293 -1353 0
-295 -1354 0
-296 -1355 0
-293 -1359 0
-294 -1360 0
-296 -1362 0
-293 -1365 0
-295 -1367 0
-296 -1368 0
-291 -1369 0
-293 -1372 0
-295 -1374 0
-296 -1375 0
-291 -1383 0
-293 -1385 0
-294 -1386 0
-295 -1388 0
-296 -1389 0
-293 -1399 0
-294 -1400 0
-295 -1402 0
-296 -1403 0
-291 -1424 0
-294 -1428 0
-296 -1430 0
-291 -1443 0
-293 -1446 0
-294 -1447 0
-296 -1448 0
-293 -1452 0
-294 -1453 0
-295 -1455 0
-296 -1456 0
-293 -1458 0
-294 -1459 0
-295 -1461 0
-296 -1462 0
-292 -1465 0
-293 -1466 0
-295 -1467 0
-296 -1468 0
-292 -1479 0
-293 -1481 0
-294 -1482 0
-295 -1483 0
-296 -1484 0
-293 -1504 0
-294 -1505 0
-295 -1506 0
-296 -1507 0
-293 -1517 0
-296 -1519 0
-294 -1535 0
-295 -1537 0
-296 -1538 0
-293 -1603 0
-294 -1604 0
-296 -1606 0
-293 -1617 0
-295 -1619 0
-296 -1620 0
-291 -1621 0
-293 -1624 0
-296 -1626 0
-292 -1628 0
-293 -1631 0
-296 -1633 0
-294 -1643 0
-296 -1645 0
-292 -1646 0
-293 -1650 0
-294 -1651 0
-295 -1653 0
-296 -1654 0
-292 -1656 0
-293 -1659 0
-296 -1660 0
-291 -1661 0
-292 -1662 0
-293 -1665 0
-295 -1666 0
-296 -1667 0
-292 -1675 0
-293 -1677 0
-294 -1678 0
-296 -1680 0
-293 -1690 0
-294 -1691 0
-296 -1693 0
-293 -1698 0
-295 -1699 0
-296 -1700 0
-291 -1701 0
-293 -1705 0
-296 -1706 0
-294 -1720 0
-296 -1721 0
-291 -1722 0
-293 -1725 0
-294 -1726 0
-295 -1727 0
-296 -1728 0
-291 -1736 0
-293 -1740 0
-296 -1742 0
-293 -1759 0
-296 -1761 0
-293 -1770 0
-294 -1771 0
-295 -1772 0
-296 -1773 0
-292 -1788 0
-293 -1790 0
-295 -1792 0
-296 -1793 0
-294 -1802 0
-295 -1804 0
-296 -1805 0
-295 -1816 0
-296 -1817 0
-293 -1833 0
-296 -1835 0
-294 -1854 0
-295 -1856 0
-296 -1857 0
-292 -1859 0
-293 -1861 0
-295 -1863 0
-296 -1864 0
-292 -1866 0
-294 -1867 0
-295 -1869 0
-296 -1870 0
-294 -1874 0
-295 -1876 0
-296 -1877 0
-293 -1881 0
-294 -1882 0
-295 -1883 0
-296 -1884 0
-291 -1885 0
-294 -1889 0
-295 -1890 0
-296 -1891 0
-291 -1918 0
-293 -1922 0
-296 -1924 0
-291 -1937 0
-294 -1939 0
-295 -1941 0
-296 -1942 0
-293 -1954 0
-294 -1955 0
-295 -1957 0
-296 -1958 0
-298 -498 0
-301 -500 0
-302 -502 0
-298 -548 0
-302 -551 0
-299 -567 0
-300 -569 0
-302 -571 0
-297 -587 0
-298 -589 0
-299 -590 0
-302 -592 0
-297 -600 0
-299 -602 0
-300 -604 0
-302 -606 0
-298 -608 0
-299 -609 0
-302 -613 0
-297 -620 0
-298 -621 0
-299 -622 0
-300 -623 0
-301 -624 0
-302 -625 0
-297 -633 0
-298 -634 0
-299 -635 0
-300 -637 0
-302 -640 0
-298 -643 0
-299 -644 0
-302 -646 0
-297 -654 0
-298 -655 0
-300 -657 0
-301 -658 0
-302 -660 0
-298 -662 0
-300 -663 0
-301 -664 0
-302 -667 0
-297 -669 0
-300 -671 0
-302 -673 0
-298 -676 0
-300 -678 0
-302 -680 0
-298 -683 0
-302 -686 0
-299 -697 0
-300 -698 0
-301 -699 0
-302 -701 0
-298 -750 0
-299 -751 0
-302 -754 0
-298 -769 0
-300 -771 0
-302 -774 0
-298 -781 0
-300 -783 0
-301 -784 0
-302 -786 0
-297 -833 0
-299 -835 0
-302 -837 0
-297 -851 0
-299 -853 0
-300 -854 0
-301 -855 0
-302 -858 0
-299 -862 0
-302 -864 0
-297 -872 0
-299 -874 0
-300 -876 0
-302 -878 0
-299 -881 0
-301 -883 0
-302 -885 0
-300 -888 0
-302 -891 0
-297 -907 0
-298 -908 0
-299 -909 0
-300 -911 0
-301 -912 0
-302 -914 0
-297 -924 0
-299 -925 0
-300 -926 0
-302 -928 0
-298 -932 0
-299 -933 0
-302 -935 0
-297 -947 0
-300 -948 0
-301 -949 0
-302 -950 0
-297 -952 0
-300 -954 0
-301 -955 0
-302 -957 0
-298 -961 0
-300 -963 0
-301 -964 0
-302 -966 0
-300 -970 0
-302 -972 0
-302 -979 0
-297 -995 0
-300 -997 0
-302 -1000 0
-298 -1003 0
-300 -1005 0
-302 -1007 0
-300 -1011 0
-301 -1012 0
-302 -1014 0
-299 -1017 0
-300 -1019 0
-302 -1020 0
-299 -1023 0
-300 -1025 0
-302 -1027 0
-299 -1119 0
-302 -1122 0
-299 -1156 0
-301 -1157 0
-302 -1160 0
-298 -1188 0
-299 -1189 0
-302 -1192 0
-298 -1206 0
-300 -1207 0
-301 -1208 0
-302 -1210 0
-300 -1220 0
-302 -1222 0
-298 -1241 0
-300 -1243 0
-302 -1246 0
-300 -1256 0
-301 -1257 0
-302 -1260 0
-299 -1268 0
-300 -1269 0
-302 -1272 0
-297 -1280 0
-298 -1281 0
-299 -1282 0
-300 -1283 0
-302 -1286 0
-297 -1295 0
-299 -1296 0
-300 -1298 0
-301 -1299 0
-302 -1300 0
-298 -1303 0
-299 -1304 0
-301 -1305 0
-302 -1307 0
-297 -1314 0
-299 -1315 0
-300 -1317 0
-302 -1319 0
-298 -1321 0
-299 -1322 0
-300 -1323 0
-302 -1325 0
-299 -1328 0
-300 -1330 0
-301 -1331 0
-302 -1334 0
-299 -1337 0
-301 -1338 0
-302 -1341 0
-298 -1350 0
-299 -1351 0
-300 -1353 0
-302 -1355 0
-298 -1357 0
-299 -1358 0
-300 -1359 0
-301 -1360 0
-302 -1362 0
-298 -1364 0
-300 -1365 0
-302 -1368 0
-298 -1370 0
-300 -1372 0
-302 -1375 0
-300 -1385 0
-301 -1386 0
-302 -1389 0
-299 -1397 0
-300 -1399 0
-301 -1400 0
-302 -1403 0
-298 -1425 0
-299 -1426 0
-301 -1428 0
-302 -1430 0
-299 -1444 0
-300 -1446 0
-301 -1447 0
-302 -1448 0
-299 -1450 0
-300 -1452 0
-301 -1453 0
-302 -1456 0
-297 -1470 0
-299 -1472 0
-300 -1474 0
-301 -1475 0
-302 -1477 0
-297 -1485 0
-301 -1488 0
-302 -1491 0
-300 -1495 0
-301 -1496 0
-302 -1498 0
-297 -1509 0
-298 -1510 0
-301 -1511 0
-302 -1513 0
-297 -1521 0
-301 -1523 0
-302 -1525 0
-298 -1528 0
-300 -1529 0
-301 -1530 0
-302 -1531 0
-297 -1540 0
-299 -1541 0
-300 -1543 0
-301 -1544 0
-302 -1545 0
-297 -1547 0
-299 -1548 0
-301 -1549 0
-302 -1551 0
-298 -1554 0
-299 -1555 0
-301 -1556 0
-302 -1558 0
-299 -1561 0
-301 -1563 0
-302 -1565 0
-299 -1569 0
-300 -1570 0
-301 -1571 0
-302 -1574 0
-299 -1582 0
-301 -1584 0
-302 -1586 0
-300 -1671 0
-301 -1672 0
-302 -1674 0
-300 -1683 0
-302 -1686 0
-298 -1709 0
-300 -1711 0
-301 -1712 0
-302 -1715 0
-298 -1730 0
-299 -1731 0
-301 -1733 0
-302 -1735 0
-299 -1745 0
-301 -1747 0
-302 -1749 0
-299 -1751 0
-300 -1753 0
-301 -1754 0
-302 -1755 0
-298 -1762 0
-299 -1763 0
-301 -1764 0
-302 -1767 0
-299 -1775 0
-302 -1779 0
-299 -1781 0
-300 -1783 0
-301 -1784 0
-302 -1787 0
-300 -1790 0
-302 -1793 0
-298 -1800 0
-299 -1801 0
-301 -1802 0
-302 -1805 0
-299 -1813 0
-302 -1817 0
-298 -1830 0
-299 -1831 0
-300 -1833 0
-302 -1835 0
-297 -1852 0
-299 -1853 0
-301 -1854 0
-302 -1857 0
-299 -1860 0
-300 -1861 0
-302 -1864 0
-301 -1867 0
-302 -1870 0
-298 -1872 0
-301 -1874 0
-302 -1877 0
-299 -1880 0
-300 -1881 0
-301 -1882 0
-302 -1884 0
-299 -1887 0
-301 -1889 0
-302 -1891 0
-299 -1920 0
-300 -1922 0
-302 -1924 0
-301 -1939 0
-302 -1942 0
-304 -491 0
-306 -494 0
-308 -495 0
-304 -539 0
-305 -541 0
-307 -544 0
-308 -545 0
-306 -562 0
-307 -563 0
-308 -564 0
-303 -578 0
-304 -580 0
-306 -584 0
-307 -585 0
-308 -586 0
-303 -593 0
-305 -595 0
-306 -597 0
-307 -598 0
-308 -599 0
-304 -608 0
-305 -610 0
-306 -611 0
-307 -612 0
-308 -613 0
-303 -614 0
-304 -615 0
-305 -616 0
-306 -617 0
-307 -618 0
-308 -619 0
-303 -627 0
-304 -628 0
-306 -630 0
-308 -631 0
-304 -643 0
-306 -645 0
-308 -646 0
-303 -647 0
-304 -648 0
-306 -651 0
-307 -652 0
-308 -653 0
-304 -662 0
-306 -665 0
-307 -666 0
-308 -667 0
-303 -669 0
-305 -670 0
-306 -672 0
-308 -673 0
-304 -676 0
-305 -677 0
-306 -679 0
-308 -680 0
-304 -689 0
-305 -691 0
-306 -694 0
-308 -695 0
-305 -703 0
-306 -705 0
-307 -706 0
-308 -707 0
-304 -744 0
-306 -747 0
-308 -748 0
-304 -762 0
-305 -764 0
-306 -766 0
-308 -767 0
-304 -775 0
-306 -778 0
-307 -779 0
-308 -780 0
-303 -823 0
-305 -826 0
-307 -829 0
-308 -830 0
-303 -845 0
-305 -847 0
-307 -848 0
-308 -849 0
-307 -863 0
-308 -864 0
-303 -865 0
-305 -867 0
-306 -869 0
-307 -870 0
-308 -871 0
-305 -882 0
-306 -884 0
-308 -885 0
-305 -887 0
-306 -889 0
-307 -890 0
-308 -891 0
-303 -900 0
-304 -901 0
-305 -902 0
-307 -903 0
-308 -904 0
-303 -917 0
-305 -918 0
-306 -920 0
-308 -921 0
-304 -932 0
-305 -934 0
-308 -935 0
-303 -938 0
-305 -940 0
-306 -942 0
-307 -943 0
-308 -944 0
-303 -952 0
-305 -953 0
-307 -956 0
-308 -957 0
-304 -961 0
-305 -962 0
-307 -965 0
-308 -966 0
-306 -971 0
-308 -972 0
-308 -986 0
-303 -988 0
-305 -990 0
-308 -993 0
-304 -1003 0
-305 -1004 0
-306 -1006 0
-308 -1007 0
-305 -1010 0
-307 -1013 0
-308 -1014 0
-305 -1018 0
-308 -1020 0
-305 -1030 0
-306 -1033 0
-308 -1034 0
-307 -1115 0
-308 -1116 0
-305 -1149 0
-306 -1152 0
-308 -1153 0
-304 -1181 0
-305 -1182 0
-308 -1185 0
-304 -1200 0
-305 -1202 0
-307 -1203 0
-308 -1204 0
-306 -1215 0
-308 -1216 0
-304 -1234 0
-305 -1236 0
-306 -1238 0
-308 -1239 0
-305 -1250 0
-307 -1252 0
-308 -1253 0
-305 -1263 0
-308 -1266 0
-303 -1273 0
-304 -1274 0
-305 -1276 0
-307 -1278 0
-308 -1279 0
-303 -1288 0
-306 -1291 0
-307 -1292 0
-308 -1293 0
-304 -1303 0
-307 -1306 0
-308 -1307 0
-303 -1308 0
-306 -1311 0
-307 -1312 0
-308 -1313 0
-304 -1321 0
-307 -1324 0
-308 -1325 0
-305 -1329 0
-306 -1332 0
-307 -1333 0
-308 -1334 0
-305 -1345 0
-307 -1347 0
-308 -1348 0
-304 -1350 0
-305 -1352 0
-307 -1354 0
-308 -1355 0
-304 -1357 0
-306 -1361 0
-308 -1362 0
-304 -1364 0
-306 -1366 0
-307 -1367 0
-308 -1368 0
-304 -1377 0
-307 -1381 0
-308 -1382 0
-305 -1393 0
-306 -1395 0
-308 -1396 0
-304 -1418 0
-307 -1422 0
-308 -1423 0
-305 -1438 0
-306 -1440 0
-307 -1441 0
-308 -1442 0
-303 -1464 0
-307 -1467 0
-308 -1468 0
-303 -1478 0
-307 -1483 0
-308 -1484 0
-305 -1494 0
-307 -1497 0
-308 -1498 0
-303 -1500 0
-304 -1501 0
-305 -1503 0
-307 -1506 0
-308 -1507 0
-303 -1515 0
-306 -1518 0
-308 -1519 0
-304 -1528 0
-308 -1531 0
-303 -1533 0
-306 -1536 0
-307 -1537 0
-308 -1538 0
-303 -1547 0
-307 -1550 0
-308 -1551 0
-304 -1554 0
-307 -1557 0
-308 -1558 0
-305 -1562 0
-306 -1564 0
-308 -1565 0
-305 -1578 0
-308 -1580 0
-306 -1591 0
-308 -1592 0
-305 -1664 0
-307 -1666 0
-308 -1667 0
-306 -1679 0
-308 -1680 0
-304 -1703 0
-308 -1706 0
-304 -1723 0
-307 -1727 0
-308 -1728 0
-305 -1739 0
-306 -1741 0
-308 -1742 0
-305 -1752 0
-308 -1755 0
-304 -1756 0
-305 -1758 0
-306 -1760 0
-308 -1761 0
-307 -1772 0
-308 -1773 0
-305 -1796 0
-307 -1798 0
-308 -1799 0
-304 -1806 0
-305 -1807 0
-307 -1810 0
-308 -1811 0
-305 -1819 0
-306 -1822 0
-308 -1823 0
-304 -1824 0
-305 -1825 0
-307 -1828 0
-308 -1829 0
-305 -1837 0
-306 -1840 0
-307 -1841 0
-308 -1842 0
-303 -1845 0
-305 -1846 0
-306 -1848 0
-307 -1849 0
-308 -1850 0
-306 -1862 0
-307 -1863 0
-308 -1864 0
-306 -1868 0
-307 -1869 0
-308 -1870 0
-304 -1872 0
-305 -1873 0
-306 -1875 0
-307 -1876 0
-308 -1877 0
-307 -1883 0
-308 -1884 0
-306 -1896 0
-307 -1897 0
-308 -1898 0
-306 -1915 0
-307 -1916 0
-308 -1917 0
-306 -1934 0
-307 -1935 0
-308 -1936 0
-305 -1944 0
-306 -1947 0
-307 -1948 0
-308 -1949 0
-305 -1953 0
-306 -1956 0
-307 -1957 0
-308 -1958 0
-309 -474 0
-313 -477 0
-314 -479 0
-309 -525 0
-314 -529 0
-310 -559 0
-313 -562 0
-314 -564 0
-310 -566 0
-312 -569 0
-314 -571 0
-309 -572 0
-313 -576 0
-314 -577 0
-309 -593 0
-310 -594 0
-313 -597 0
-314 -599 0
-309 -600 0
-310 -601 0
-312 -604 0
-313 -605 0
-314 -606 0
-309 -627 0
-311 -628 0
-313 -630 0
-314 -631 0
-309 -633 0
-311 -634 0
-312 -637 0
-313 -638 0
-314 -640 0
-309 -647 0
-311 -648 0
-312 -650 0
-313 -651 0
-314 -653 0
-309 -654 0
-311 -655 0
-312 -657 0
-313 -659 0
-314 -660 0
-310 -675 0
-311 -676 0
-312 -678 0
-313 -679 0
-314 -680 0
-310 -682 0
-311 -683 0
-313 -684 0
-314 -686 0
-310 -688 0
-311 -689 0
-312 -692 0
-313 -694 0
-314 -695 0
-311 -762 0
-313 -766 0
-314 -767 0
-311 -769 0
-312 -771 0
-313 -772 0
-314 -774 0
-311 -775 0
-313 -778 0
-314 -780 0
-311 -781 0
-312 -783 0
-314 -786 0
-309 -917 0
-313 -920 0
-314 -921 0
-309 -924 0
-312 -926 0
-314 -928 0
-309 -938 0
-312 -941 0
-313 -942 0
-314 -944 0
-309 -947 0
-312 -948 0
-314 -950 0
-309 -952 0
-312 -954 0
-314 -957 0
-310 -969 0
-312 -970 0
-313 -971 0
-314 -972 0
-310 -975 0
-313 -977 0
-314 -979 0
-310 -982 0
-312 -984 0
-314 -986 0
-309 -988 0
-312 -991 0
-314 -993 0
-309 -995 0
-312 -997 0
-313 -998 0
-314 -1000 0
-310 -1009 0
-312 -1011 0
-314 -1014 0
-310 -1016 0
-312 -1019 0
-314 -1020 0
-310 -1022 0
-312 -1025 0
-314 -1027 0
-310 -1029 0
-312 -1031 0
-313 -1033 0
-314 -1034 0
-313 -1215 0
-314 -1216 0
-312 -1220 0
-314 -1222 0
-314 -1253 0
-312 -1256 0
-313 -1258 0
-314 -1260 0
-312 -1264 0
-314 -1266 0
-312 -1269 0
-313 -1270 0
-314 -1272 0
-309 -1288 0
-313 -1291 0
-314 -1293 0
-309 -1295 0
-312 -1298 0
-314 -1300 0
-309 -1308 0
-312 -1309 0
-313 -1311 0
-314 -1313 0
-309 -1314 0
-312 -1317 0
-314 -1319 0
-310 -1327 0
-312 -1330 0
-313 -1332 0
-314 -1334 0
-310 -1336 0
-313 -1339 0
-314 -1341 0
-310 -1343 0
-312 -1346 0
-314 -1348 0
-311 -1357 0
-312 -1359 0
-313 -1361 0
-314 -1362 0
-311 -1364 0
-312 -1365 0
-313 -1366 0
-314 -1368 0
-311 -1370 0
-312 -1372 0
-313 -1373 0
-314 -1375 0
-311 -1377 0
-312 -1379 0
-314 -1382 0
-313 -1440 0
-314 -1442 0
-312 -1446 0
-314 -1448 0
-312 -1452 0
-313 -1454 0
-314 -1456 0
-309 -1515 0
-312 -1517 0
-313 -1518 0
-314 -1519 0
-309 -1521 0
-314 -1525 0
-309 -1533 0
-313 -1536 0
-314 -1538 0
-309 -1540 0
-312 -1543 0
-314 -1545 0
-309 -1547 0
-314 -1551 0
-310 -1560 0
-313 -1564 0
-314 -1565 0
-310 -1568 0
-312 -1570 0
-313 -1572 0
-314 -1574 0
-310 -1577 0
-314 -1580 0
-310 -1581 0
-314 -1586 0
-310 -1587 0
-312 -1589 0
-313 -1591 0
-314 -1592 0
-312 -1740 0
-313 -1741 0
-314 -1742 0
-314 -1749 0
-312 -1753 0
-314 -1755 0
-312 -1770 0
-314 -1773 0
-313 -1777 0
-314 -1779 0
-312 -1783 0
-313 -1785 0
-314 -1787 0
-310 -1788 0
-312 -1790 0
-313 -1791 0
-314 -1793 0
-310 -1794 0
-314 -1799 0
-311 -1800 0
-313 -1803 0
-314 -1805 0
-311 -1806 0
-312 -1808 0
-314 -1811 0
-312 -1838 0
-313 -1840 0
-314 -1842 0
-312 -1881 0
-314 -1884 0
-314 -1891 0
-312 -1894 0
-313 -1896 0
-314 -1898 0
-312 -1954 0
-313 -1956 0
-314 -1958 0
-315 -467 0
-319 -471 0
-321 -472 0
-317 -520 0
-320 -522 0
-321 -523 0
-318 -555 0
-320 -556 0
-321 -557 0
-317 -610 0
-320 -612 0
-321 -613 0
-316 -614 0
-317 -616 0
-320 -618 0
-321 -619 0
-316 -620 0
-318 -623 0
-319 -624 0
-321 -625 0
-321 -646 0
-316 -647 0
-318 -650 0
-320 -652 0
-321 -653 0
-316 -654 0
-317 -656 0
-318 -657 0
-319 -658 0
-321 -660 0
-317 -677 0
-318 -678 0
-321 -680 0
-315 -681 0
-320 -685 0
-321 -686 0
-315 -687 0
-317 -691 0
-318 -692 0
-319 -693 0
-321 -695 0
-318 -698 0
-319 -699 0
-321 -701 0
-317 -703 0
-318 -704 0
-320 -706 0
-321 -707 0
-317 -757 0
-318 -758 0
-321 -760 0
-316 -807 0
-317 -811 0
-320 -813 0
-321 -814 0
-316 -839 0
-318 -841 0
-320 -842 0
-321 -843 0
-315 -844 0
-316 -845 0
-317 -847 0
-320 -848 0
-321 -849 0
-315 -850 0
-316 -851 0
-318 -854 0
-319 -855 0
-320 -857 0
-321 -858 0
-315 -859 0
-320 -863 0
-321 -864 0
-316 -865 0
-317 -867 0
-319 -868 0
-320 -870 0
-321 -871 0
-316 -872 0
-317 -875 0
-318 -876 0
-321 -878 0
-317 -882 0
-319 -883 0
-321 -885 0
-316 -893 0
-317 -895 0
-318 -896 0
-321 -897 0
-315 -898 0
-316 -900 0
-317 -902 0
-320 -903 0
-321 -904 0
-315 -905 0
-316 -907 0
-317 -910 0
-318 -911 0
-319 -912 0
-321 -914 0
-315 -929 0
-317 -934 0
-321 -935 0
-315 -936 0
-316 -938 0
-317 -940 0
-318 -941 0
-320 -943 0
-321 -944 0
-315 -945 0
-316 -947 0
-318 -948 0
-319 -949 0
-321 -950 0
-315 -951 0
-316 -952 0
-317 -953 0
-318 -954 0
-319 -955 0
-320 -956 0
-321 -957 0
-315 -967 0
-318 -970 0
-321 -972 0
-315 -973 0
-317 -976 0
-320 -978 0
-321 -979 0
-315 -980 0
-318 -984 0
-319 -985 0
-321 -986 0
-316 -988 0
-317 -990 0
-318 -991 0
-319 -992 0
-321 -993 0
-316 -995 0
-317 -996 0
-318 -997 0
-320 -999 0
-321 -1000 0
-317 -1010 0
-318 -1011 0
-319 -1012 0
-320 -1013 0
-321 -1014 0
-315 -1099 0
-320 -1103 0
-321 -1104 0
-317 -1137 0
-319 -1138 0
-321 -1140 0
-318 -1163 0
-319 -1164 0
-321 -1166 0
-315 -1167 0
-317 -1170 0
-321 -1172 0
-315 -1193 0
-318 -1197 0
-321 -1198 0
-315 -1199 0
-317 -1202 0
-320 -1203 0
-321 -1204 0
-315 -1205 0
-318 -1207 0
-319 -1208 0
-321 -1210 0
-317 -1227 0
-318 -1228 0
-319 -1229 0
-320 -1231 0
-321 -1232 0
-315 -1233 0
-317 -1236 0
-319 -1237 0
-321 -1239 0
-315 -1240 0
-317 -1242 0
-318 -1243 0
-320 -1245 0
-321 -1246 0
-315 -1261 0
-317 -1263 0
-318 -1264 0
-319 -1265 0
-321 -1266 0
-315 -1267 0
-318 -1269 0
-320 -1271 0
-321 -1272 0
-316 -1273 0
-317 -1276 0
-319 -1277 0
-320 -1278 0
-321 -1279 0
-316 -1280 0
-318 -1283 0
-320 -1285 0
-321 -1286 0
-319 -1305 0
-320 -1306 0
-321 -1307 0
-316 -1308 0
-318 -1309 0
-319 -1310 0
-320 -1312 0
-321 -1313 0
-316 -1314 0
-317 -1316 0
-318 -1317 0
-320 -1318 0
-321 -1319 0
-317 -1329 0
-318 -1330 0
-319 -1331 0
-320 -1333 0
-321 -1334 0
-315 -1335 0
-319 -1338 0
-320 -1340 0
-321 -1341 0
-315 -1342 0
-317 -1345 0
-318 -1346 0
-320 -1347 0
-321 -1348 0
-318 -1359 0
-319 -1360 0
-321 -1362 0
-315 -1383 0
-318 -1385 0
-319 -1386 0
-320 -1388 0
-321 -1389 0
-315 -1390 0
-317 -1393 0
-318 -1394 0
-321 -1396 0
-319 -1407 0
-320 -1409 0
-321 -1410 0
-317 -1432 0
-318 -1433 0
-319 -1434 0
-320 -1435 0
-321 -1436 0
-316 -1478 0
-318 -1481 0
-319 -1482 0
-320 -1483 0
-321 -1484 0
-316 -1485 0
-317 -1487 0
-319 -1488 0
-320 -1490 0
-321 -1491 0
-317 -1494 0
-318 -1495 0
-319 -1496 0
-320 -1497 0
-321 -1498 0
-316 -1500 0
-317 -1503 0
-318 -1504 0
-319 -1505 0
-320 -1506 0
-321 -1507 0
-316 -1509 0
-319 -1511 0
-321 -1513 0
-318 -1529 0
-319 -1530 0
-321 -1531 0
-316 -1533 0
-319 -1535 0
-320 -1537 0
-321 -1538 0
-316 -1540 0
-317 -1542 0
-318 -1543 0
-319 -1544 0
-321 -1545 0
-315 -1546 0
-316 -1547 0
-319 -1549 0
-320 -1550 0
-321 -1551 0
-317 -1562 0
-319 -1563 0
-321 -1565 0
-315 -1566 0
-318 -1570 0
-319 -1571 0
-320 -1573 0
-321 -1574 0
-315 -1575 0
-317 -1578 0
-319 -1579 0
-321 -1580 0
-317 -1649 0
-318 -1650 0
-319 -1651 0
-320 -1653 0
-321 -1654 0
-318 -1690 0
-319 -1691 0
-321 -1693 0
-317 -1719 0
-319 -1720 0
-321 -1721 0
-315 -1722 0
-318 -1725 0
-319 -1726 0
-320 -1727 0
-321 -1728 0
-315 -1729 0
-317 -1732 0
-319 -1733 0
-321 -1735 0
-317 -1758 0
-318 -1759 0
-321 -1761 0
-319 -1764 0
-320 -1766 0
-321 -1767 0
-317 -1782 0
-318 -1783 0
-319 -1784 0
-320 -1786 0
-321 -1787 0
-317 -1789 0
-318 -1790 0
-320 -1792 0
-321 -1793 0
-317 -1796 0
-319 -1797 0
-320 -1798 0
-321 -1799 0
-317 -1814 0
-320 -1816 0
-321 -1817 0
-317 -1819 0
-318 -1820 0
-319 -1821 0
-321 -1823 0
-316 -1845 0
-317 -1846 0
-318 -1847 0
-320 -1849 0
-321 -1850 0
-316 -1852 0
-319 -1854 0
-320 -1856 0
-321 -1857 0
-318 -1861 0
-320 -1863 0
-321 -1864 0
-318 -1901 0
-320 -1903 0
-321 -1904 0
-317 -1927 0
-320 -1929 0
-321 -1930 0
-315 -1931 0
-318 -1933 0
-320 -1935 0
-321 -1936 0
-315 -1937 0
-317 -1938 0
-319 -1939 0
-320 -1941 0
-321 -1942 0
-317 -1944 0
-318 -1945 0
-319 -1946 0
-320 -1948 0
-321 -1949 0
-323 -614 0
-325 -615 0
-326 -616 0
-329 -618 0
-330 -619 0
-323 -620 0
-325 -621 0
-327 -623 0
-328 -624 0
-330 -625 0
-323 -647 0
-325 -648 0
-327 -650 0
-329 -652 0
-330 -653 0
-323 -654 0
-325 -655 0
-326 -656 0
-327 -657 0
-328 -658 0
-330 -660 0
-324 -661 0
-325 -662 0
-327 -663 0
-328 -664 0
-329 -666 0
-330 -667 0
-323 -669 0
-326 -670 0
-327 -671 0
-330 -673 0
-324 -682 0
-325 -683 0
-329 -685 0
-330 -686 0
-324 -688 0
-325 -689 0
-326 -691 0
-327 -692 0
-328 -693 0
-330 -695 0
-324 -696 0
-327 -698 0
-328 -699 0
-330 -701 0
-324 -702 0
-326 -703 0
-327 -704 0
-329 -706 0
-330 -707 0
-323 -800 0
-326 -802 0
-329 -804 0
-330 -805 0
-323 -845 0
-324 -846 0
-326 -847 0
-329 -848 0
-330 -849 0
-323 -851 0
-324 -852 0
-327 -854 0
-328 -855 0
-329 -857 0
-330 -858 0
-323 -865 0
-324 -866 0
-326 -867 0
-328 -868 0
-329 -870 0
-330 -871 0
-323 -872 0
-324 -873 0
-326 -875 0
-327 -876 0
-330 -878 0
-324 -886 0
-326 -887 0
-327 -888 0
-329 -890 0
-330 -891 0
-322 -899 0
-323 -900 0
-325 -901 0
-326 -902 0
-329 -903 0
-330 -904 0
-322 -906 0
-323 -907 0
-325 -908 0
-326 -910 0
-327 -911 0
-328 -912 0
-330 -914 0
-322 -937 0
-323 -938 0
-326 -940 0
-327 -941 0
-329 -943 0
-330 -944 0
-322 -946 0
-323 -947 0
-327 -948 0
-328 -949 0
-330 -950 0
-322 -959 0
-324 -960 0
-325 -961 0
-326 -962 0
-327 -963 0
-328 -964 0
-329 -965 0
-330 -966 0
-322 -974 0
-324 -975 0
-326 -976 0
-329 -978 0
-330 -979 0
-322 -981 0
-324 -982 0
-327 -984 0
-328 -985 0
-330 -986 0
-322 -987 0
-323 -988 0
-326 -990 0
-327 -991 0
-328 -992 0
-330 -993 0
-322 -994 0
-323 -995 0
-326 -996 0
-327 -997 0
-329 -999 0
-330 -1000 0
-322 -1001 0
-324 -1002 0
-325 -1003 0
-326 -1004 0
-327 -1005 0
-330 -1007 0
-322 -1015 0
-324 -1016 0
-326 -1018 0
-327 -1019 0
-330 -1020 0
-325 -1200 0
-326 -1202 0
-329 -1203 0
-330 -1204 0
-325 -1206 0
-327 -1207 0
-328 -1208 0
-330 -1210 0
-325 -1234 0
-326 -1236 0
-328 -1237 0
-330 -1239 0
-325 -1241 0
-326 -1242 0
-327 -1243 0
-329 -1245 0
-330 -1246 0
-326 -1263 0
-327 -1264 0
-328 -1265 0
-330 -1266 0
-327 -1269 0
-329 -1271 0
-330 -1272 0
-323 -1273 0
-325 -1274 0
-326 -1276 0
-328 -1277 0
-329 -1278 0
-330 -1279 0
-323 -1280 0
-325 -1281 0
-327 -1283 0
-329 -1285 0
-330 -1286 0
-323 -1308 0
-327 -1309 0
-328 -1310 0
-329 -1312 0
-330 -1313 0
-323 -1314 0
-326 -1316 0
-327 -1317 0
-329 -1318 0
-330 -1319 0
-324 -1320 0
-325 -1321 0
-327 -1323 0
-329 -1324 0
-330 -1325 0
-324 -1336 0
-328 -1338 0
-329 -1340 0
-330 -1341 0
-324 -1343 0
-326 -1345 0
-327 -1346 0
-329 -1347 0
-330 -1348 0
-322 -1349 0
-325 -1350 0
-326 -1352 0
-327 -1353 0
-329 -1354 0
-330 -1355 0
-322 -1363 0
-325 -1364 0
-327 -1365 0
-329 -1367 0
-330 -1368 0
-322 -1384 0
-327 -1385 0
-328 -1386 0
-329 -1388 0
-330 -1389 0
-322 -1391 0
-326 -1393 0
-327 -1394 0
-330 -1396 0
-323 -1457 0
-327 -1458 0
-328 -1459 0
-329 -1461 0
-330 -1462 0
-323 -1478 0
-324 -1479 0
-327 -1481 0
-328 -1482 0
-329 -1483 0
-330 -1484 0
-323 -1485 0
-324 -1486 0
-326 -1487 0
-328 -1488 0
-329 -1490 0
-330 -1491 0
-322 -1499 0
-323 -1500 0
-325 -1501 0
-326 -1503 0
-327 -1504 0
-328 -1505 0
-329 -1506 0
-330 -1507 0
-322 -1508 0
-323 -1509 0
-325 -1510 0
-328 -1511 0
-330 -1513 0
-322 -1532 0
-323 -1533 0
-328 -1535 0
-329 -1537 0
-330 -1538 0
-322 -1539 0
-323 -1540 0
-326 -1542 0
-327 -1543 0
-328 -1544 0
-330 -1545 0
-322 -1552 0
-324 -1553 0
-325 -1554 0
-328 -1556 0
-329 -1557 0
-330 -1558 0
-322 -1567 0
-324 -1568 0
-327 -1570 0
-328 -1571 0
-329 -1573 0
-330 -1574 0
-322 -1576 0
-324 -1577 0
-326 -1578 0
-328 -1579 0
-330 -1580 0
-325 -1723 0
-327 -1725 0
-328 -1726 0
-329 -1727 0
-330 -1728 0
-325 -1730 0
-326 -1732 0
-328 -1733 0
-330 -1735 0
-326 -1752 0
-327 -1753 0
-328 -1754 0
-330 -1755 0
-325 -1756 0
-326 -1758 0
-327 -1759 0
-330 -1761 0
-325 -1762 0
-328 -1764 0
-329 -1766 0
-330 -1767 0
-326 -1782 0
-327 -1783 0
-328 -1784 0
-329 -1786 0
-330 -1787 0
-324 -1788 0
-326 -1789 0
-327 -1790 0
-329 -1792 0
-330 -1793 0
-324 -1794 0
-326 -1796 0
-328 -1797 0
-329 -1798 0
-330 -1799 0
-322 -1812 0
-326 -1814 0
-329 -1816 0
-330 -1817 0
-322 -1818 0
-326 -1819 0
-327 -1820 0
-328 -1821 0
-330 -1823 0
-322 -1844 0
-323 -1845 0
-326 -1846 0
-327 -1847 0
-329 -1849 0
-330 -1850 0
-322 -1851 0
-323 -1852 0
-328 -1854 0
-329 -1856 0
-330 -1857 0
-322 -1865 0
-324 -1866 0
-328 -1867 0
-329 -1869 0
-330 -1870 0
-322 -1871 0
-325 -1872 0
-326 -1873 0
-328 -1874 0
-329 -1876 0
-330 -1877 0
-322 -1879 0
-327 -1881 0
-328 -1882 0
-329 -1883 0
-330 -1884 0
-327 -1933 0
-329 -1935 0
-330 -1936 0
-326 -1938 0
-328 -1939 0
-329 -1941 0
-330 -1942 0
-326 -1944 0
-327 -1945 0
-328 -1946 0
-329 -1948 0
-330 -1949 0
-331 -458 0
-332 -459 0
-334 -460 0
-335 -463 0
-336 -464 0
-337 -466 0
-332 -510 0
-334 -511 0
-335 -513 0
-337 -516 0
-333 -552 0
-334 -553 0
-335 -555 0
-337 -557 0
-331 -565 0
-333 -566 0
-335 -569 0
-337 -571 0
-332 -600 0
-333 -601 0
-335 -604 0
-337 -606 0
-332 -620 0
-334 -621 0
-335 -623 0
-336 -624 0
-337 -625 0
-332 -633 0
-334 -634 0
-335 -637 0
-337 -640 0
-332 -647 0
-334 -648 0
-335 -650 0
-337 -653 0
-333 -661 0
-334 -662 0
-335 -663 0
-336 -664 0
-337 -667 0
-331 -668 0
-332 -669 0
-335 -671 0
-337 -673 0
-333 -675 0
-334 -676 0
-335 -678 0
-337 -680 0
-331 -687 0
-333 -688 0
-334 -689 0
-335 -692 0
-336 -693 0
-337 -695 0
-333 -696 0
-335 -698 0
-336 -699 0
-337 -701 0
-334 -755 0
-335 -758 0
-337 -760 0
-331 -768 0
-334 -769 0
-335 -771 0
-337 -774 0
-334 -781 0
-335 -783 0
-336 -784 0
-337 -786 0
-332 -794 0
-335 -796 0
-337 -798 0
-332 -839 0
-333 -840 0
-335 -841 0
-337 -843 0
-331 -850 0
-332 -851 0
-333 -852 0
-335 -854 0
-336 -855 0
-337 -858 0
-332 -872 0
-333 -873 0
-335 -876 0
-337 -878 0
-333 -886 0
-335 -888 0
-337 -891 0
-332 -893 0
-334 -894 0
-335 -896 0
-337 -897 0
-331 -905 0
-332 -907 0
-334 -908 0
-335 -911 0
-336 -912 0
-337 -914 0
-331 -922 0
-332 -924 0
-335 -926 0
-337 -928 0
-331 -936 0
-332 -938 0
-335 -941 0
-337 -944 0
-331 -951 0
-332 -952 0
-335 -954 0
-336 -955 0
-337 -957 0
-331 -958 0
-333 -960 0
-334 -961 0
-335 -963 0
-336 -964 0
-337 -966 0
-331 -967 0
-333 -969 0
-335 -970 0
-337 -972 0
-331 -980 0
-333 -982 0
-335 -984 0
-336 -985 0
-337 -986 0
-332 -988 0
-335 -991 0
-336 -992 0
-337 -993 0
-333 -1002 0
-334 -1003 0
-335 -1005 0
-337 -1007 0
-333 -1009 0
-335 -1011 0
-336 -1012 0
-337 -1014 0
-331 -1021 0
-333 -1022 0
-335 -1025 0
-337 -1027 0
-331 -1093 0
-332 -1094 0
-335 -1096 0
-337 -1098 0
-332 -1129 0
-335 -1130 0
-336 -1131 0
-337 -1134 0
-333 -1161 0
-335 -1163 0
-336 -1164 0
-337 -1166 0
-331 -1193 0
-334 -1195 0
-335 -1197 0
-337 -1198 0
-331 -1205 0
-334 -1206 0
-335 -1207 0
-336 -1208 0
-337 -1210 0
-331 -1217 0
-335 -1220 0
-337 -1222 0
-334 -1225 0
-335 -1228 0
-336 -1229 0
-337 -1232 0
-331 -1240 0
-334 -1241 0
-335 -1243 0
-337 -1246 0
-331 -1254 0
-335 -1256 0
-336 -1257 0
-337 -1260 0
-331 -1261 0
-335 -1264 0
-336 -1265 0
-337 -1266 0
-332 -1280 0
-334 -1281 0
-335 -1283 0
-337 -1286 0
-332 -1295 0
-335 -1298 0
-336 -1299 0
-337 -1300 0
-332 -1308 0
-335 -1309 0
-336 -1310 0
-337 -1313 0
-333 -1320 0
-334 -1321 0
-335 -1323 0
-337 -1325 0
-333 -1327 0
-335 -1330 0
-336 -1331 0
-337 -1334 0
-331 -1342 0
-333 -1343 0
-335 -1346 0
-337 -1348 0
-334 -1350 0
-335 -1353 0
-337 -1355 0
-334 -1357 0
-335 -1359 0
-336 -1360 0
-337 -1362 0
-331 -1369 0
-334 -1370 0
-335 -1372 0
-337 -1375 0
-331 -1383 0
-335 -1385 0
-336 -1386 0
-337 -1389 0
-334 -1431 0
-335 -1433 0
-336 -1434 0
-337 -1436 0
-331 -1443 0
-335 -1446 0
-336 -1447 0
-337 -1448 0
-335 -1452 0
-336 -1453 0
-337 -1456 0
-332 -1485 0
-333 -1486 0
-336 -1488 0
-337 -1491 0
-332 -1509 0
-334 -1510 0
-336 -1511 0
-337 -1513 0
-332 -1521 0
-336 -1523 0
-337 -1525 0
-332 -1533 0
-336 -1535 0
-337 -1538 0
-331 -1546 0
-332 -1547 0
-336 -1549 0
-337 -1551 0
-333 -1553 0
-334 -1554 0
-336 -1556 0
-337 -1558 0
-333 -1560 0
-336 -1563 0
-337 -1565 0
-331 -1575 0
-333 -1577 0
-336 -1579 0
-337 -1580 0
-333 -1581 0
-336 -1584 0
-337 -1586 0
-332 -1640 0
-336 -1643 0
-337 -1645 0
-334 -1717 0
-336 -1720 0
-337 -1721 0
-331 -1729 0
-334 -1730 0
-336 -1733 0
-337 -1735 0
-331 -1743 0
-336 -1747 0
-337 -1749 0
-334 -1762 0
-336 -1764 0
-337 -1767 0
-337 -1779 0
-333 -1794 0
-336 -1797 0
-337 -1799 0
-334 -1800 0
-336 -1802 0
-337 -1805 0
-337 -1817 0
-332 -1852 0
-336 -1854 0
-337 -1857 0
-333 -1866 0
-336 -1867 0
-337 -1870 0
-334 -1872 0
-336 -1874 0
-337 -1877 0
-331 -1885 0
-336 -1889 0
-337 -1891 0
-337 -1930 0
-331 -1937 0
-336 -1939 0
-337 -1942 0
-338 -452 0
-339 -453 0
-341 -454 0
-342 -455 0
-345 -456 0
-347 -457 0
-339 -503 0
-341 -504 0
-342 -505 0
-343 -506 0
-346 -508 0
-347 -509 0
-340 -552 0
-341 -553 0
-342 -554 0
-344 -555 0
-346 -556 0
-347 -557 0
-338 -558 0
-340 -559 0
-342 -560 0
-345 -562 0
-346 -563 0
-347 -564 0
-339 -593 0
-340 -594 0
-343 -595 0
-345 -597 0
-346 -598 0
-347 -599 0
-339 -614 0
-341 -615 0
-343 -616 0
-345 -617 0
-346 -618 0
-347 -619 0
-339 -627 0
-341 -628 0
-345 -630 0
-347 -631 0
-339 -654 0
-341 -655 0
-343 -656 0
-344 -657 0
-345 -659 0
-347 -660 0
-340 -661 0
-341 -662 0
-344 -663 0
-345 -665 0
-346 -666 0
-347 -667 0
-338 -668 0
-339 -669 0
-343 -670 0
-344 -671 0
-345 -672 0
-347 -673 0
-340 -675 0
-341 -676 0
-343 -677 0
-344 -678 0
-345 -679 0
-347 -680 0
-338 -681 0
-340 -682 0
-341 -683 0
-345 -684 0
-346 -685 0
-347 -686 0
-340 -702 0
-343 -703 0
-344 -704 0
-345 -705 0
-346 -706 0
-347 -707 0
-341 -755 0
-342 -756 0
-343 -757 0
-344 -758 0
-345 -759 0
-347 -760 0
-338 -761 0
-341 -762 0
-342 -763 0
-343 -764 0
-345 -766 0
-347 -767 0
-341 -775 0
-342 -776 0
-345 -778 0
-346 -779 0
-347 -780 0
-339 -788 0
-343 -789 0
-346 -791 0
-347 -792 0
-339 -839 0
-340 -840 0
-344 -841 0
-346 -842 0
-347 -843 0
-338 -844 0
-339 -845 0
-340 -846 0
-343 -847 0
-346 -848 0
-347 -849 0
-339 -865 0
-340 -866 0
-343 -867 0
-345 -869 0
-346 -870 0
-347 -871 0
-340 -886 0
-343 -887 0
-344 -888 0
-345 -889 0
-346 -890 0
-347 -891 0
-339 -893 0
-341 -894 0
-343 -895 0
-344 -896 0
-347 -897 0
-338 -898 0
-339 -900 0
-341 -901 0
-343 -902 0
-346 -903 0
-347 -904 0
-338 -915 0
-339 -917 0
-343 -918 0
-345 -920 0
-347 -921 0
-338 -945 0
-339 -947 0
-344 -948 0
-347 -950 0
-338 -951 0
-339 -952 0
-343 -953 0
-344 -954 0
-346 -956 0
-347 -957 0
-338 -958 0
-340 -960 0
-341 -961 0
-343 -962 0
-344 -963 0
-346 -965 0
-347 -966 0
-338 -967 0
-340 -969 0
-344 -970 0
-345 -971 0
-347 -972 0
-338 -973 0
-340 -975 0
-343 -976 0
-345 -977 0
-346 -978 0
-347 -979 0
-339 -995 0
-343 -996 0
-344 -997 0
-345 -998 0
-346 -999 0
-347 -1000 0
-340 -1002 0
-341 -1003 0
-343 -1004 0
-344 -1005 0
-345 -1006 0
-347 -1007 0
-340 -1009 0
-343 -1010 0
-344 -1011 0
-346 -1013 0
-347 -1014 0
-338 -1028 0
-340 -1029 0
-343 -1030 0
-344 -1031 0
-345 -1033 0
-347 -1034 0
-338 -1087 0
-339 -1088 0
-342 -1089 0
-346 -1091 0
-347 -1092 0
-339 -1123 0
-342 -1124 0
-343 -1125 0
-345 -1127 0
-347 -1128 0
-340 -1161 0
-342 -1162 0
-344 -1163 0
-345 -1165 0
-347 -1166 0
-338 -1193 0
-341 -1195 0
-342 -1196 0
-344 -1197 0
-347 -1198 0
-338 -1199 0
-341 -1200 0
-342 -1201 0
-343 -1202 0
-346 -1203 0
-347 -1204 0
-338 -1211 0
-342 -1213 0
-345 -1215 0
-347 -1216 0
-341 -1225 0
-342 -1226 0
-343 -1227 0
-344 -1228 0
-345 -1230 0
-346 -1231 0
-347 -1232 0
-338 -1233 0
-341 -1234 0
-342 -1235 0
-343 -1236 0
-345 -1238 0
-347 -1239 0
-338 -1247 0
-342 -1249 0
-343 -1250 0
-346 -1252 0
-347 -1253 0
-338 -1267 0
-342 -1268 0
-344 -1269 0
-345 -1270 0
-346 -1271 0
-347 -1272 0
-339 -1273 0
-341 -1274 0
-342 -1275 0
-343 -1276 0
-346 -1278 0
-347 -1279 0
-339 -1288 0
-342 -1289 0
-345 -1291 0
-346 -1292 0
-347 -1293 0
-339 -1314 0
-342 -1315 0
-343 -1316 0
-344 -1317 0
-346 -1318 0
-347 -1319 0
-340 -1320 0
-341 -1321 0
-342 -1322 0
-344 -1323 0
-346 -1324 0
-347 -1325 0
-340 -1327 0
-342 -1328 0
-343 -1329 0
-344 -1330 0
-345 -1332 0
-346 -1333 0
-347 -1334 0
-338 -1335 0
-340 -1336 0
-342 -1337 0
-345 -1339 0
-346 -1340 0
-347 -1341 0
-341 -1350 0
-342 -1351 0
-343 -1352 0
-344 -1353 0
-346 -1354 0
-347 -1355 0
-341 -1357 0
-342 -1358 0
-344 -1359 0
-345 -1361 0
-347 -1362 0
-338 -1376 0
-341 -1377 0
-342 -1378 0
-344 -1379 0
-346 -1381 0
-347 -1382 0
-338 -1390 0
-342 -1392 0
-343 -1393 0
-344 -1394 0
-345 -1395 0
-347 -1396 0
-341 -1431 0
-343 -1432 0
-344 -1433 0
-346 -1435 0
-347 -1436 0
-338 -1437 0
-343 -1438 0
-345 -1440 0
-346 -1441 0
-347 -1442 0
-339 -1478 0
-340 -1479 0
-342 -1480 0
-344 -1481 0
-346 -1483 0
-347 -1484 0
-339 -1500 0
-341 -1501 0
-342 -1502 0
-343 -1503 0
-344 -1504 0
-346 -1506 0
-347 -1507 0
-339 -1515 0
-342 -1516 0
-344 -1517 0
-345 -1518 0
-347 -1519 0
-339 -1540 0
-342 -1541 0
-343 -1542 0
-344 -1543 0
-347 -1545 0
-338 -1546 0
-339 -1547 0
-342 -1548 0
-346 -1550 0
-347 -1551 0
-340 -1553 0
-341 -1554 0
-342 -1555 0
-346 -1557 0
-347 -1558 0
-340 -1560 0
-342 -1561 0
-343 -1562 0
-345 -1564 0
-347 -1565 0
-338 -1566 0
-340 -1568 0
-342 -1569 0
-344 -1570 0
-345 -1572 0
-346 -1573 0
-347 -1574 0
-340 -1587 0
-342 -1588 0
-344 -1589 0
-345 -1591 0
-347 -1592 0
-339 -1634 0
-342 -1635 0
-343 -1636 0
-344 -1637 0
-346 -1638 0
-347 -1639 0
-341 -1717 0
-342 -1718 0
-343 -1719 0
-347 -1721 0
-338 -1722 0
-341 -1723 0
-342 -1724 0
-344 -1725 0
-346 -1727 0
-347 -1728 0
-338 -1736 0
-342 -1738 0
-343 -1739 0
-344 -1740 0
-345 -1741 0
-347 -1742 0
-341 -1756 0
-342 -1757 0
-343 -1758 0
-344 -1759 0
-345 -1760 0
-347 -1761 0
-342 -1769 0
-344 -1770 0
-346 -1772 0
-347 -1773 0
-342 -1781 0
-343 -1782 0
-344 -1783 0
-345 -1785 0
-346 -1786 0
-347 -1787 0
-340 -1788 0
-343 -1789 0
-344 -1790 0
-345 -1791 0
-346 -1792 0
-347 -1793 0
-341 -1806 0
-343 -1807 0
-344 -1808 0
-346 -1810 0
-347 -1811 0
-343 -1819 0
-344 -1820 0
-345 -1822 0
-347 -1823 0
-342 -1836 0
-343 -1837 0
-344 -1838 0
-345 -1840 0
-346 -1841 0
-347 -1842 0
-339 -1845 0
-343 -1846 0
-344 -1847 0
-345 -1848 0
-346 -1849 0
-347 -1850 0
-340 -1866 0
-345 -1868 0
-346 -1869 0
-347 -1870 0
-341 -1872 0
-343 -1873 0
-345 -1875 0
-346 -1876 0
-347 -1877 0
-338 -1892 0
-344 -1894 0
-345 -1896 0
-346 -1897 0
-347 -1898 0
-342 -1926 0
-343 -1927 0
-345 -1928 0
-346 -1929 0
-347 -1930 0
-338 -1931 0
-342 -1932 0
-344 -1933 0
-345 -1934 0
-346 -1935 0
-347 -1936 0
-342 -1943 0
-343 -1944 0
-344 -1945 0
-345 -1947 0
-346 -1948 0
-347 -1949 0
-342 -1952 0
-343 -1953 0
-344 -1954 0
-345 -1956 0
-346 -1957 0
-347 -1958 0
-348 -440 0
-350 -441 0
-353 -444 0
-348 -525 0
-351 -526 0
-353 -529 0
-349 -538 0
-350 -539 0
-351 -540 0
-352 -541 0
-353 -545 0
-349 -547 0
-350 -548 0
-353 -551 0
-348 -572 0
-351 -573 0
-352 -574 0
-353 -577 0
-348 -578 0
-349 -579 0
-350 -580 0
-351 -581 0
-353 -586 0
-348 -587 0
-349 -588 0
-350 -589 0
-351 -590 0
-352 -591 0
-353 -592 0
-348 -614 0
-350 -615 0
-352 -616 0
-353 -619 0
-348 -620 0
-350 -621 0
-351 -622 0
-353 -625 0
-348 -627 0
-350 -628 0
-353 -631 0
-348 -633 0
-350 -634 0
-351 -635 0
-352 -636 0
-353 -640 0
-349 -642 0
-350 -643 0
-351 -644 0
-353 -646 0
-348 -669 0
-352 -670 0
-353 -673 0
-349 -682 0
-350 -683 0
-353 -686 0
-349 -688 0
-350 -689 0
-351 -690 0
-352 -691 0
-353 -695 0
-349 -696 0
-351 -697 0
-353 -701 0
-349 -702 0
-352 -703 0
-353 -707 0
-350 -744 0
-353 -748 0
-350 -750 0
-351 -751 0
-352 -752 0
-353 -754 0
-350 -775 0
-351 -776 0
-353 -780 0
-350 -781 0
-352 -782 0
-353 -786 0
-348 -800 0
-351 -801 0
-352 -802 0
-353 -805 0
-348 -823 0
-349 -824 0
-351 -825 0
-352 -826 0
-353 -830 0
-348 -833 0
-349 -834 0
-351 -835 0
-353 -837 0
-348 -865 0
-349 -866 0
-352 -867 0
-353 -871 0
-348 -872 0
-349 -873 0
-351 -874 0
-352 -875 0
-353 -878 0
-349 -880 0
-351 -881 0
-352 -882 0
-353 -885 0
-348 -900 0
-350 -901 0
-352 -902 0
-353 -904 0
-348 -907 0
-350 -908 0
-351 -909 0
-352 -910 0
-353 -914 0
-348 -917 0
-352 -918 0
-353 -921 0
-348 -924 0
-351 -925 0
-353 -928 0
-349 -931 0
-350 -932 0
-351 -933 0
-352 -934 0
-353 -935 0
-348 -952 0
-352 -953 0
-353 -957 0
-349 -975 0
-352 -976 0
-353 -979 0
-349 -982 0
-351 -983 0
-353 -986 0
-348 -988 0
-351 -989 0
-352 -990 0
-353 -993 0
-348 -995 0
-352 -996 0
-353 -1000 0
-349 -1002 0
-350 -1003 0
-352 -1004 0
-353 -1007 0
-349 -1009 0
-352 -1010 0
-353 -1014 0
-349 -1022 0
-351 -1023 0
-352 -1024 0
-353 -1027 0
-349 -1029 0
-352 -1030 0
-353 -1034 0
-348 -1072 0
-351 -1073 0
-353 -1077 0
-349 -1148 0
-352 -1149 0
-353 -1153 0
-349 -1155 0
-351 -1156 0
-353 -1160 0
-350 -1181 0
-352 -1182 0
-353 -1185 0
-350 -1188 0
-351 -1189 0
-353 -1192 0
-350 -1234 0
-351 -1235 0
-352 -1236 0
-353 -1239 0
-350 -1241 0
-352 -1242 0
-353 -1246 0
-351 -1249 0
-352 -1250 0
-353 -1253 0
-353 -1260 0
-348 -1273 0
-350 -1274 0
-351 -1275 0
-352 -1276 0
-353 -1279 0
-348 -1280 0
-350 -1281 0
-351 -1282 0
-353 -1286 0
-348 -1288 0
-351 -1289 0
-353 -1293 0
-348 -1295 0
-351 -1296 0
-352 -1297 0
-353 -1300 0
-349 -1302 0
-350 -1303 0
-351 -1304 0
-353 -1307 0
-349 -1336 0
-351 -1337 0
-353 -1341 0
-349 -1343 0
-351 -1344 0
-352 -1345 0
-353 -1348 0
-350 -1350 0
-351 -1351 0
-352 -1352 0
-353 -1355 0
-350 -1357 0
-351 -1358 0
-353 -1362 0
-350 -1370 0
-352 -1371 0
-353 -1375 0
-350 -1377 0
-351 -1378 0
-353 -1382 0
-353 -1389 0
-351 -1392 0
-352 -1393 0
-353 -1396 0
-351 -1397 0
-352 -1398 0
-353 -1403 0
-350 -1418 0
-351 -1419 0
-353 -1423 0
-350 -1425 0
-351 -1426 0
-352 -1427 0
-353 -1430 0
-351 -1450 0
-352 -1451 0
-353 -1456 0
-348 -1457 0
-353 -1462 0
-348 -1464 0
-349 -1465 0
-353 -1468 0
-348 -1470 0
-349 -1471 0
-351 -1472 0
-352 -1473 0
-353 -1477 0
-348 -1500 0
-350 -1501 0
-351 -1502 0
-352 -1503 0
-353 -1507 0
-348 -1509 0
-350 -1510 0
-353 -1513 0
-348 -1515 0
-351 -1516 0
-353 -1519 0
-348 -1521 0
-352 -1522 0
-353 -1525 0
-349 -1527 0
-350 -1528 0
-353 -1531 0
-348 -1547 0
-351 -1548 0
-353 -1551 0
-349 -1568 0
-351 -1569 0
-353 -1574 0
-349 -1577 0
-352 -1578 0
-353 -1580 0
-349 -1581 0
-351 -1582 0
-352 -1583 0
-353 -1586 0
-349 -1587 0
-351 -1588 0
-353 -1592 0
-348 -1622 0
-352 -1623 0
-353 -1626 0
-349 -1675 0
-351 -1676 0
-353 -1680 0
-349 -1681 0
-352 -1682 0
-353 -1686 0
-350 -1703 0
-351 -1704 0
-353 -1706 0
-350 -1709 0
-352 -1710 0
-353 -1715 0
-351 -1751 0
-352 -1752 0
-353 -1755 0
-350 -1756 0
-351 -1757 0
-352 -1758 0
-353 -1761 0
-350 -1762 0
-351 -1763 0
-353 -1767 0
-351 -1769 0
-353 -1773 0
-351 -1775 0
-352 -1776 0
-353 -1779 0
-349 -1788 0
-352 -1789 0
-353 -1793 0
-349 -1794 0
-351 -1795 0
-352 -1796 0
-353 -1799 0
-350 -1800 0
-351 -1801 0
-353 -1805 0
-350 -1806 0
-352 -1807 0
-353 -1811 0
-351 -1813 0
-352 -1814 0
-353 -1817 0
-352 -1819 0
-353 -1823 0
-350 -1824 0
-352 -1825 0
-353 -1829 0
-350 -1830 0
-351 -1831 0
-352 -1832 0
-353 -1835 0
-348 -1845 0
-352 -1846 0
-353 -1850 0
-348 -1852 0
-351 -1853 0
-353 -1857 0
-349 -1859 0
-351 -1860 0
-353 -1864 0
-350 -1872 0
-352 -1873 0
-353 -1877 0
-351 -1887 0
-352 -1888 0
-353 -1891 0
-353 -1898 0
-353 -1917 0
-351 -1920 0
-352 -1921 0
-353 -1924 0
-351 -1943 0
-352 -1944 0
-353 -1949 0
-351 -1952 0
-352 -1953 0
-353 -1958 0
-354 -415 0
-355 -416 0
-360 -418 0
-361 -419 0
-362 -421 0
-355 -510 0
-357 -512 0
-359 -513 0
-361 -514 0
-362 -516 0
-356 -517 0
-357 -519 0
-358 -520 0
-361 -521 0
-362 -523 0
-354 -546 0
-356 -547 0
-361 -549 0
-362 -551 0
-355 -587 0
-356 -588 0
-357 -590 0
-358 -591 0
-362 -592 0
-355 -614 0
-358 -616 0
-361 -617 0
-362 -619 0
-355 -633 0
-357 -635 0
-358 -636 0
-359 -637 0
-361 -638 0
-362 -640 0
-356 -642 0
-357 -644 0
-361 -645 0
-362 -646 0
-355 -654 0
-358 -656 0
-359 -657 0
-360 -658 0
-361 -659 0
-362 -660 0
-356 -661 0
-359 -663 0
-360 -664 0
-361 -665 0
-362 -667 0
-354 -687 0
-356 -688 0
-357 -690 0
-358 -691 0
-359 -692 0
-360 -693 0
-361 -694 0
-362 -695 0
-356 -702 0
-358 -703 0
-359 -704 0
-361 -705 0
-362 -707 0
-354 -749 0
-357 -751 0
-358 -752 0
-362 -754 0
-358 -782 0
-359 -783 0
-360 -784 0
-362 -786 0
-355 -794 0
-357 -795 0
-359 -796 0
-361 -797 0
-362 -798 0
-354 -799 0
-355 -800 0
-357 -801 0
-358 -802 0
-361 -803 0
-362 -805 0
-355 -807 0
-356 -808 0
-357 -810 0
-358 -811 0
-361 -812 0
-362 -814 0
-354 -831 0
-355 -833 0
-356 -834 0
-357 -835 0
-361 -836 0
-362 -837 0
-354 -850 0
-355 -851 0
-356 -852 0
-357 -853 0
-359 -854 0
-360 -855 0
-361 -856 0
-362 -858 0
-355 -865 0
-356 -866 0
-358 -867 0
-360 -868 0
-361 -869 0
-362 -871 0
-356 -880 0
-357 -881 0
-358 -882 0
-360 -883 0
-361 -884 0
-362 -885 0
-356 -886 0
-358 -887 0
-359 -888 0
-361 -889 0
-362 -891 0
-355 -893 0
-358 -895 0
-359 -896 0
-362 -897 0
-354 -898 0
-355 -900 0
-358 -902 0
-362 -904 0
-354 -922 0
-355 -924 0
-357 -925 0
-359 -926 0
-362 -928 0
-354 -929 0
-356 -931 0
-357 -933 0
-358 -934 0
-362 -935 0
-354 -945 0
-355 -947 0
-359 -948 0
-360 -949 0
-362 -950 0
-354 -951 0
-355 -952 0
-358 -953 0
-359 -954 0
-360 -955 0
-362 -957 0
-354 -958 0
-356 -960 0
-358 -962 0
-359 -963 0
-360 -964 0
-362 -966 0
-354 -980 0
-356 -982 0
-357 -983 0
-359 -984 0
-360 -985 0
-362 -986 0
-355 -988 0
-357 -989 0
-358 -990 0
-359 -991 0
-360 -992 0
-362 -993 0
-356 -1009 0
-358 -1010 0
-359 -1011 0
-360 -1012 0
-362 -1014 0
-356 -1016 0
-357 -1017 0
-358 -1018 0
-359 -1019 0
-362 -1020 0
-354 -1021 0
-356 -1022 0
-357 -1023 0
-358 -1024 0
-359 -1025 0
-362 -1027 0
-354 -1050 0
-355 -1051 0
-357 -1053 0
-361 -1054 0
-362 -1055 0
-355 -1129 0
-359 -1130 0
-360 -1131 0
-361 -1132 0
-362 -1134 0
-356 -1135 0
-358 -1137 0
-360 -1138 0
-361 -1139 0
-362 -1140 0
-354 -1154 0
-356 -1155 0
-357 -1156 0
-360 -1157 0
-361 -1158 0
-362 -1160 0
-354 -1167 0
-358 -1170 0
-361 -1171 0
-362 -1172 0
-354 -1186 0
-357 -1189 0
-361 -1190 0
-362 -1192 0
-354 -1205 0
-359 -1207 0
-360 -1208 0
-361 -1209 0
-362 -1210 0
-357 -1226 0
-358 -1227 0
-359 -1228 0
-360 -1229 0
-361 -1230 0
-362 -1232 0
-354 -1233 0
-357 -1235 0
-358 -1236 0
-360 -1237 0
-361 -1238 0
-362 -1239 0
-354 -1254 0
-359 -1256 0
-360 -1257 0
-361 -1258 0
-362 -1260 0
-354 -1267 0
-357 -1268 0
-359 -1269 0
-361 -1270 0
-362 -1272 0
-355 -1273 0
-357 -1275 0
-358 -1276 0
-360 -1277 0
-362 -1279 0
-355 -1295 0
-357 -1296 0
-358 -1297 0
-359 -1298 0
-360 -1299 0
-362 -1300 0
-356 -1302 0
-357 -1304 0
-360 -1305 0
-362 -1307 0
-355 -1314 0
-357 -1315 0
-358 -1316 0
-359 -1317 0
-362 -1319 0
-356 -1320 0
-357 -1322 0
-359 -1323 0
-362 -1325 0
-354 -1342 0
-356 -1343 0
-357 -1344 0
-358 -1345 0
-359 -1346 0
-362 -1348 0
-357 -1358 0
-359 -1359 0
-360 -1360 0
-361 -1361 0
-362 -1362 0
-359 -1365 0
-361 -1366 0
-362 -1368 0
-354 -1369 0
-358 -1371 0
-359 -1372 0
-361 -1373 0
-362 -1375 0
-354 -1390 0
-357 -1392 0
-358 -1393 0
-359 -1394 0
-361 -1395 0
-362 -1396 0
-357 -1397 0
-358 -1398 0
-359 -1399 0
-360 -1400 0
-361 -1401 0
-362 -1403 0
-357 -1406 0
-360 -1407 0
-361 -1408 0
-362 -1410 0
-354 -1424 0
-357 -1426 0
-358 -1427 0
-360 -1428 0
-361 -1429 0
-362 -1430 0
-357 -1450 0
-358 -1451 0
-359 -1452 0
-360 -1453 0
-361 -1454 0
-362 -1456 0
-355 -1457 0
-359 -1458 0
-360 -1459 0
-361 -1460 0
-362 -1462 0
-355 -1470 0
-356 -1471 0
-357 -1472 0
-358 -1473 0
-359 -1474 0
-360 -1475 0
-361 -1476 0
-362 -1477 0
-355 -1485 0
-356 -1486 0
-358 -1487 0
-360 -1488 0
-361 -1489 0
-362 -1491 0
-355 -1500 0
-357 -1502 0
-358 -1503 0
-359 -1504 0
-360 -1505 0
-362 -1507 0
-355 -1521 0
-358 -1522 0
-360 -1523 0
-362 -1525 0
-356 -1527 0
-359 -1529 0
-360 -1530 0
-362 -1531 0
-355 -1540 0
-357 -1541 0
-358 -1542 0
-359 -1543 0
-360 -1544 0
-362 -1545 0
-354 -1546 0
-355 -1547 0
-357 -1548 0
-360 -1549 0
-362 -1551 0
-356 -1553 0
-357 -1555 0
-360 -1556 0
-362 -1558 0
-354 -1575 0
-356 -1577 0
-358 -1578 0
-360 -1579 0
-362 -1580 0
-356 -1581 0
-357 -1582 0
-358 -1583 0
-360 -1584 0
-362 -1586 0
-355 -1600 0
-358 -1602 0
-359 -1603 0
-360 -1604 0
-361 -1605 0
-362 -1606 0
-356 -1681 0
-358 -1682 0
-359 -1683 0
-361 -1684 0
-362 -1686 0
-357 -1689 0
-359 -1690 0
-360 -1691 0
-361 -1692 0
-362 -1693 0
-354 -1707 0
-358 -1710 0
-359 -1711 0
-360 -1712 0
-361 -1713 0
-362 -1715 0
-354 -1729 0
-357 -1731 0
-358 -1732 0
-360 -1733 0
-361 -1734 0
-362 -1735 0
-357 -1757 0
-358 -1758 0
-359 -1759 0
-361 -1760 0
-362 -1761 0
-357 -1775 0
-358 -1776 0
-361 -1777 0
-362 -1779 0
-357 -1781 0
-358 -1782 0
-359 -1783 0
-360 -1784 0
-361 -1785 0
-362 -1787 0
-356 -1794 0
-357 -1795 0
-358 -1796 0
-360 -1797 0
-362 -1799 0
-357 -1801 0
-360 -1802 0
-361 -1803 0
-362 -1805 0
-358 -1819 0
-359 -1820 0
-360 -1821 0
-361 -1822 0
-362 -1823 0
-357 -1831 0
-358 -1832 0
-359 -1833 0
-361 -1834 0
-362 -1835 0
-355 -1845 0
-358 -1846 0
-359 -1847 0
-361 -1848 0
-362 -1850 0
-356 -1859 0
-357 -1860 0
-359 -1861 0
-361 -1862 0
-362 -1864 0
-356 -1866 0
-360 -1867 0
-361 -1868 0
-362 -1870 0
-357 -1880 0
-359 -1881 0
-360 -1882 0
-362 -1884 0
-354 -1885 0
-357 -1887 0
-358 -1888 0
-360 -1889 0
-362 -1891 0
-359 -1901 0
-361 -1902 0
-362 -1904 0
-354 -1918 0
-357 -1920 0
-358 -1921 0
-359 -1922 0
-361 -1923 0
-362 -1924 0
-354 -1937 0
-358 -1938 0
-360 -1939 0
-361 -1940 0
-362 -1942 0
-357 -1943 0
-358 -1944 0
-359 -1945 0
-360 -1946 0
-361 -1947 0
-362 -1949 0
-363 -408 0
-364 -409 0
-366 -412 0
-368 -414 0
-364 -503 0
-366 -506 0
-367 -508 0
-368 -509 0
-365 -517 0
-366 -520 0
-367 -522 0
-368 -523 0
-363 -537 0
-365 -538 0
-366 -541 0
-367 -544 0
-368 -545 0
-364 -578 0
-365 -579 0
-367 -585 0
-368 -586 0
-364 -620 0
-368 -625 0
-364 -627 0
-368 -631 0
-365 -642 0
-368 -646 0
-364 -647 0
-367 -652 0
-368 -653 0
-365 -661 0
-367 -666 0
-368 -667 0
-363 -681 0
-365 -682 0
-367 -685 0
-368 -686 0
-365 -696 0
-368 -701 0
-363 -743 0
-368 -748 0
-367 -779 0
-368 -780 0
-364 -788 0
-366 -789 0
-367 -791 0
-368 -792 0
-363 -799 0
-364 -800 0
-366 -802 0
-367 -804 0
-368 -805 0
-364 -807 0
-365 -808 0
-366 -811 0
-367 -813 0
-368 -814 0
-363 -821 0
-364 -823 0
-365 -824 0
-366 -826 0
-367 -829 0
-368 -830 0
-363 -844 0
-364 -845 0
-365 -846 0
-366 -847 0
-367 -848 0
-368 -849 0
-364 -872 0
-365 -873 0
-366 -875 0
-368 -878 0
-365 -880 0
-366 -882 0
-368 -885 0
-365 -886 0
-366 -887 0
-367 -890 0
-368 -891 0
-364 -893 0
-366 -895 0
-368 -897 0
-363 -905 0
-364 -907 0
-366 -910 0
-368 -914 0
-363 -915 0
-364 -917 0
-366 -918 0
-368 -921 0
-363 -929 0
-365 -931 0
-366 -934 0
-368 -935 0
-363 -936 0
-364 -938 0
-366 -940 0
-367 -943 0
-368 -944 0
-363 -951 0
-364 -952 0
-366 -953 0
-367 -956 0
-368 -957 0
-363 -958 0
-365 -960 0
-366 -962 0
-367 -965 0
-368 -966 0
-363 -973 0
-365 -975 0
-366 -976 0
-367 -978 0
-368 -979 0
-364 -995 0
-366 -996 0
-367 -999 0
-368 -1000 0
-365 -1009 0
-366 -1010 0
-367 -1013 0
-368 -1014 0
-365 -1016 0
-366 -1018 0
-368 -1020 0
-363 -1028 0
-365 -1029 0
-366 -1030 0
-368 -1034 0
-363 -1041 0
-364 -1042 0
-366 -1044 0
-367 -1048 0
-368 -1049 0
-364 -1123 0
-366 -1125 0
-368 -1128 0
-365 -1135 0
-366 -1137 0
-368 -1140 0
-363 -1147 0
-365 -1148 0
-366 -1149 0
-368 -1153 0
-363 -1167 0
-366 -1170 0
-368 -1172 0
-363 -1179 0
-366 -1182 0
-368 -1185 0
-363 -1199 0
-366 -1202 0
-367 -1203 0
-368 -1204 0
-366 -1227 0
-367 -1231 0
-368 -1232 0
-363 -1240 0
-366 -1242 0
-367 -1245 0
-368 -1246 0
-363 -1247 0
-366 -1250 0
-367 -1252 0
-368 -1253 0
-363 -1261 0
-366 -1263 0
-368 -1266 0
-364 -1280 0
-367 -1285 0
-368 -1286 0
-364 -1288 0
-367 -1292 0
-368 -1293 0
-365 -1302 0
-367 -1306 0
-368 -1307 0
-364 -1308 0
-367 -1312 0
-368 -1313 0
-365 -1320 0
-367 -1324 0
-368 -1325 0
-363 -1335 0
-365 -1336 0
-367 -1340 0
-368 -1341 0
-368 -1362 0
-367 -1367 0
-368 -1368 0
-363 -1376 0
-367 -1381 0
-368 -1382 0
-363 -1383 0
-367 -1388 0
-368 -1389 0
-367 -1409 0
-368 -1410 0
-363 -1417 0
-367 -1422 0
-368 -1423 0
-364 -1457 0
-367 -1461 0
-368 -1462 0
-364 -1464 0
-365 -1465 0
-367 -1467 0
-368 -1468 0
-364 -1478 0
-365 -1479 0
-367 -1483 0
-368 -1484 0
-364 -1509 0
-368 -1513 0
-364 -1515 0
-368 -1519 0
-365 -1527 0
-368 -1531 0
-364 -1533 0
-367 -1537 0
-368 -1538 0
-363 -1546 0
-364 -1547 0
-367 -1550 0
-368 -1551 0
-365 -1553 0
-367 -1557 0
-368 -1558 0
-363 -1566 0
-365 -1568 0
-367 -1573 0
-368 -1574 0
-365 -1587 0
-368 -1592 0
-364 -1593 0
-367 -1598 0
-368 -1599 0
-365 -1675 0
-368 -1680 0
-368 -1693 0
-363 -1701 0
-368 -1706 0
-363 -1722 0
-367 -1727 0
-368 -1728 0
-367 -1766 0
-368 -1767 0
-367 -1772 0
-368 -1773 0
-365 -1788 0
-366 -1789 0
-367 -1792 0
-368 -1793 0
-366 -1807 0
-367 -1810 0
-368 -1811 0
-366 -1814 0
-367 -1816 0
-368 -1817 0
-366 -1825 0
-367 -1828 0
-368 -1829 0
-364 -1852 0
-367 -1856 0
-368 -1857 0
-365 -1859 0
-367 -1863 0
-368 -1864 0
-365 -1866 0
-367 -1869 0
-368 -1870 0
-367 -1883 0
-368 -1884 0
-363 -1892 0
-367 -1897 0
-368 -1898 0
-367 -1903 0
-368 -1904 0
-363 -1911 0
-367 -1916 0
-368 -1917 0
-363 -1931 0
-367 -1935 0
-368 -1936 0
-366 -1953 0
-367 -1957 0
-368 -1958 0
-371 -504 0
-372 -506 0
-374 -509 0
-371 -511 0
-373 -513 0
-374 -516 0
-369 -524 0
-374 -529 0
-372 -574 0
-374 -577 0
-371 -615 0
-372 -616 0
-374 -619 0
-371 -621 0
-373 -623 0
-374 -625 0
-371 -628 0
-374 -631 0
-371 -634 0
-372 -636 0
-373 -637 0
-374 -640 0
-371 -648 0
-373 -650 0
-374 -653 0
-371 -655 0
-372 -656 0
-373 -657 0
-374 -660 0
-369 -668 0
-372 -670 0
-373 -671 0
-374 -673 0
-370 -696 0
-373 -698 0
-374 -701 0
-370 -702 0
-372 -703 0
-373 -704 0
-374 -707 0
-371 -775 0
-374 -780 0
-371 -781 0
-372 -782 0
-373 -783 0
-374 -786 0
-372 -789 0
-374 -792 0
-373 -796 0
-374 -798 0
-369 -799 0
-372 -802 0
-374 -805 0
-370 -866 0
-372 -867 0
-374 -871 0
-370 -873 0
-372 -875 0
-373 -876 0
-374 -878 0
-371 -894 0
-372 -895 0
-373 -896 0
-374 -897 0
-369 -898 0
-371 -901 0
-372 -902 0
-374 -904 0
-369 -905 0
-371 -908 0
-372 -910 0
-373 -911 0
-374 -914 0
-369 -915 0
-372 -918 0
-374 -921 0
-369 -922 0
-373 -926 0
-374 -928 0
-369 -936 0
-372 -940 0
-373 -941 0
-374 -944 0
-369 -945 0
-373 -948 0
-374 -950 0
-369 -951 0
-372 -953 0
-373 -954 0
-374 -957 0
-370 -1002 0
-371 -1003 0
-372 -1004 0
-373 -1005 0
-374 -1007 0
-370 -1009 0
-372 -1010 0
-373 -1011 0
-374 -1014 0
-370 -1016 0
-372 -1018 0
-373 -1019 0
-374 -1020 0
-369 -1021 0
-370 -1022 0
-372 -1024 0
-373 -1025 0
-374 -1027 0
-369 -1028 0
-370 -1029 0
-372 -1030 0
-373 -1031 0
-374 -1034 0
-372 -1125 0
-374 -1128 0
-373 -1130 0
-374 -1134 0
-371 -1225 0
-372 -1227 0
-373 -1228 0
-374 -1232 0
-369 -1233 0
-371 -1234 0
-372 -1236 0
-374 -1239 0
-369 -1240 0
-371 -1241 0
-372 -1242 0
-373 -1243 0
-374 -1246 0
-369 -1247 0
-372 -1250 0
-374 -1253 0
-369 -1254 0
-373 -1256 0
-374 -1260 0
-369 -1261 0
-372 -1263 0
-373 -1264 0
-374 -1266 0
-369 -1267 0
-373 -1269 0
-374 -1272 0
-371 -1274 0
-372 -1276 0
-374 -1279 0
-371 -1281 0
-373 -1283 0
-374 -1286 0
-374 -1293 0
-372 -1297 0
-373 -1298 0
-374 -1300 0
-373 -1309 0
-374 -1313 0
-372 -1316 0
-373 -1317 0
-374 -1319 0
-371 -1350 0
-372 -1352 0
-373 -1353 0
-374 -1355 0
-371 -1357 0
-373 -1359 0
-374 -1362 0
-371 -1364 0
-373 -1365 0
-374 -1368 0
-369 -1369 0
-371 -1370 0
-372 -1371 0
-373 -1372 0
-374 -1375 0
-369 -1376 0
-371 -1377 0
-373 -1379 0
-374 -1382 0
-369 -1383 0
-373 -1385 0
-374 -1389 0
-369 -1390 0
-372 -1393 0
-373 -1394 0
-374 -1396 0
-372 -1451 0
-373 -1452 0
-374 -1456 0
-373 -1458 0
-374 -1462 0
-371 -1501 0
-372 -1503 0
-373 -1504 0
-374 -1507 0
-371 -1510 0
-374 -1513 0
-373 -1517 0
-374 -1519 0
-372 -1522 0
-374 -1525 0
-374 -1538 0
-372 -1542 0
-373 -1543 0
-374 -1545 0
-369 -1546 0
-374 -1551 0
-370 -1581 0
-372 -1583 0
-374 -1586 0
-370 -1587 0
-373 -1589 0
-374 -1592 0
-371 -1756 0
-372 -1758 0
-373 -1759 0
-374 -1761 0
-371 -1762 0
-374 -1767 0
-373 -1770 0
-374 -1773 0
-372 -1776 0
-374 -1779 0
-372 -1782 0
-373 -1783 0
-374 -1787 0
-371 -1800 0
-374 -1805 0
-371 -1806 0
-372 -1807 0
-373 -1808 0
-374 -1811 0
-372 -1814 0
-374 -1817 0
-372 -1819 0
-373 -1820 0
-374 -1823 0
-372 -1846 0
-373 -1847 0
-374 -1850 0
-374 -1857 0
-371 -1872 0
-372 -1873 0
-374 -1877 0
-373 -1881 0
-374 -1884 0
-369 -1885 0
-372 -1888 0
-374 -1891 0
-369 -1892 0
-373 -1894 0
-374 -1898 0
-372 -1944 0
-373 -1945 0
-374 -1949 0
-372 -1953 0
-373 -1954 0
-374 -1958 0
-375 -416 0
-379 -418 0
-380 -420 0
-381 -421 0
-375 -459 0
-377 -461 0
-378 -463 0
-379 -464 0
-380 -465 0
-381 -466 0
-376 -468 0
-377 -470 0
-379 -471 0
-381 -472 0
-376 -497 0
-379 -500 0
-380 -501 0
-381 -502 0
-375 -587 0
-376 -588 0
-377 -590 0
-381 -592 0
-375 -600 0
-376 -601 0
-377 -602 0
-378 -604 0
-381 -606 0
-376 -607 0
-377 -609 0
-380 -612 0
-381 -613 0
-375 -614 0
-380 -618 0
-381 -619 0
-375 -633 0
-377 -635 0
-378 -637 0
-380 -639 0
-381 -640 0
-376 -642 0
-377 -644 0
-381 -646 0
-375 -647 0
-377 -649 0
-378 -650 0
-380 -652 0
-381 -653 0
-375 -669 0
-378 -671 0
-381 -673 0
-376 -675 0
-378 -678 0
-381 -680 0
-376 -682 0
-380 -685 0
-381 -686 0
-376 -702 0
-378 -704 0
-380 -706 0
-381 -707 0
-377 -751 0
-380 -753 0
-381 -754 0
-377 -756 0
-378 -758 0
-381 -760 0
-378 -771 0
-380 -773 0
-381 -774 0
-375 -794 0
-377 -795 0
-378 -796 0
-381 -798 0
-375 -800 0
-377 -801 0
-380 -804 0
-381 -805 0
-375 -807 0
-376 -808 0
-377 -810 0
-380 -813 0
-381 -814 0
-375 -833 0
-376 -834 0
-377 -835 0
-381 -837 0
-375 -839 0
-376 -840 0
-378 -841 0
-380 -842 0
-381 -843 0
-375 -845 0
-376 -846 0
-380 -848 0
-381 -849 0
-376 -861 0
-377 -862 0
-380 -863 0
-381 -864 0
-375 -872 0
-376 -873 0
-377 -874 0
-378 -876 0
-381 -878 0
-376 -886 0
-378 -888 0
-380 -890 0
-381 -891 0
-375 -893 0
-378 -896 0
-381 -897 0
-375 -900 0
-380 -903 0
-381 -904 0
-375 -924 0
-377 -925 0
-378 -926 0
-380 -927 0
-381 -928 0
-376 -931 0
-377 -933 0
-381 -935 0
-375 -938 0
-377 -939 0
-378 -941 0
-380 -943 0
-381 -944 0
-376 -969 0
-378 -970 0
-381 -972 0
-376 -975 0
-380 -978 0
-381 -979 0
-375 -995 0
-378 -997 0
-380 -999 0
-381 -1000 0
-376 -1002 0
-378 -1005 0
-381 -1007 0
-376 -1016 0
-377 -1017 0
-378 -1019 0
-381 -1020 0
-376 -1022 0
-377 -1023 0
-378 -1025 0
-380 -1026 0
-381 -1027 0
-375 -1051 0
-377 -1053 0
-381 -1055 0
-375 -1094 0
-378 -1096 0
-381 -1098 0
-376 -1100 0
-380 -1103 0
-381 -1104 0
-376 -1118 0
-377 -1119 0
-381 -1122 0
-381 -1172 0
-377 -1189 0
-380 -1191 0
-381 -1192 0
-377 -1196 0
-378 -1197 0
-381 -1198 0
-377 -1201 0
-380 -1203 0
-381 -1204 0
-378 -1220 0
-380 -1221 0
-381 -1222 0
-378 -1243 0
-380 -1245 0
-381 -1246 0
-377 -1268 0
-378 -1269 0
-380 -1271 0
-381 -1272 0
-375 -1273 0
-377 -1275 0
-379 -1277 0
-380 -1278 0
-381 -1279 0
-375 -1295 0
-377 -1296 0
-378 -1298 0
-379 -1299 0
-381 -1300 0
-376 -1302 0
-377 -1304 0
-379 -1305 0
-380 -1306 0
-381 -1307 0
-375 -1308 0
-378 -1309 0
-379 -1310 0
-380 -1312 0
-381 -1313 0
-376 -1327 0
-377 -1328 0
-378 -1330 0
-379 -1331 0
-380 -1333 0
-381 -1334 0
-376 -1336 0
-377 -1337 0
-379 -1338 0
-380 -1340 0
-381 -1341 0
-377 -1358 0
-378 -1359 0
-379 -1360 0
-381 -1362 0
-378 -1385 0
-379 -1386 0
-380 -1388 0
-381 -1389 0
-377 -1397 0
-378 -1399 0
-379 -1400 0
-380 -1402 0
-381 -1403 0
-377 -1406 0
-379 -1407 0
-380 -1409 0
-381 -1410 0
-377 -1426 0
-379 -1428 0
-381 -1430 0
-378 -1433 0
-379 -1434 0
-380 -1435 0
-381 -1436 0
-377 -1444 0
-378 -1446 0
-379 -1447 0
-381 -1448 0
-375 -1457 0
-378 -1458 0
-379 -1459 0
-380 -1461 0
-381 -1462 0
-375 -1470 0
-376 -1471 0
-377 -1472 0
-378 -1474 0
-379 -1475 0
-381 -1477 0
-375 -1478 0
-376 -1479 0
-377 -1480 0
-378 -1481 0
-379 -1482 0
-380 -1483 0
-381 -1484 0
-376 -1493 0
-378 -1495 0
-379 -1496 0
-380 -1497 0
-381 -1498 0
-375 -1500 0
-377 -1502 0
-378 -1504 0
-379 -1505 0
-380 -1506 0
-381 -1507 0
-375 -1521 0
-379 -1523 0
-380 -1524 0
-381 -1525 0
-376 -1527 0
-378 -1529 0
-379 -1530 0
-381 -1531 0
-375 -1533 0
-377 -1534 0
-379 -1535 0
-380 -1537 0
-381 -1538 0
-376 -1560 0
-377 -1561 0
-379 -1563 0
-381 -1565 0
-376 -1568 0
-377 -1569 0
-378 -1570 0
-379 -1571 0
-380 -1573 0
-381 -1574 0
-376 -1581 0
-377 -1582 0
-379 -1584 0
-380 -1585 0
-381 -1586 0
-375 -1600 0
-378 -1603 0
-379 -1604 0
-381 -1606 0
-375 -1640 0
-377 -1641 0
-379 -1643 0
-381 -1645 0
-376 -1646 0
-377 -1648 0
-378 -1650 0
-379 -1651 0
-380 -1653 0
-381 -1654 0
-376 -1669 0
-378 -1671 0
-379 -1672 0
-381 -1674 0
-377 -1689 0
-378 -1690 0
-379 -1691 0
-381 -1693 0
-378 -1711 0
-379 -1712 0
-380 -1714 0
-381 -1715 0
-377 -1718 0
-379 -1720 0
-381 -1721 0
-377 -1724 0
-378 -1725 0
-379 -1726 0
-380 -1727 0
-381 -1728 0
-377 -1745 0
-379 -1747 0
-380 -1748 0
-381 -1749 0
-377 -1751 0
-378 -1753 0
-379 -1754 0
-381 -1755 0
-377 -1763 0
-379 -1764 0
-380 -1766 0
-381 -1767 0
-377 -1781 0
-378 -1783 0
-379 -1784 0
-380 -1786 0
-381 -1787 0
-376 -1788 0
-378 -1790 0
-380 -1792 0
-381 -1793 0
-377 -1813 0
-380 -1816 0
-381 -1817 0
-377 -1831 0
-378 -1833 0
-381 -1835 0
-375 -1845 0
-378 -1847 0
-380 -1849 0
-381 -1850 0
-376 -1859 0
-377 -1860 0
-378 -1861 0
-380 -1863 0
-381 -1864 0
-378 -1901 0
-380 -1903 0
-381 -1904 0
-377 -1920 0
-378 -1922 0
-381 -1924 0
-377 -1926 0
-380 -1929 0
-381 -1930 0
-377 -1932 0
-378 -1933 0
-380 -1935 0
-381 -1936 0
-382 -409 0
-384 -412 0
-388 -414 0
-382 -453 0
-386 -456 0
-388 -457 0
-383 -468 0
-385 -471 0
-388 -472 0
-383 -490 0
-386 -494 0
-388 -495 0
-382 -578 0
-383 -579 0
-385 -583 0
-386 -584 0
-387 -585 0
-388 -586 0
-382 -593 0
-383 -594 0
-384 -595 0
-385 -596 0
-386 -597 0
-387 -598 0
-388 -599 0
-383 -607 0
-384 -610 0
-386 -611 0
-387 -612 0
-388 -613 0
-382 -620 0
-385 -624 0
-388 -625 0
-382 -627 0
-385 -629 0
-386 -630 0
-388 -631 0
-383 -642 0
-386 -645 0
-388 -646 0
-382 -654 0
-384 -656 0
-385 -658 0
-386 -659 0
-388 -660 0
-382 -669 0
-384 -670 0
-386 -672 0
-388 -673 0
-383 -675 0
-384 -677 0
-386 -679 0
-388 -680 0
-383 -688 0
-384 -691 0
-385 -693 0
-386 -694 0
-388 -695 0
-383 -696 0
-385 -699 0
-386 -700 0
-388 -701 0
-385 -746 0
-386 -747 0
-388 -748 0
-384 -757 0
-386 -759 0
-388 -760 0
-384 -764 0
-385 -765 0
-386 -766 0
-388 -767 0
-382 -788 0
-384 -789 0
-385 -790 0
-387 -791 0
-388 -792 0
-382 -800 0
-384 -802 0
-386 -803 0
-387 -804 0
-388 -805 0
-382 -807 0
-383 -808 0
-384 -811 0
-386 -812 0
-387 -813 0
-388 -814 0
-382 -823 0
-383 -824 0
-384 -826 0
-385 -828 0
-387 -829 0
-388 -830 0
-382 -839 0
-383 -840 0
-387 -842 0
-388 -843 0
-382 -851 0
-383 -852 0
-385 -855 0
-386 -856 0
-387 -857 0
-388 -858 0
-383 -861 0
-387 -863 0
-388 -864 0
-382 -865 0
-383 -866 0
-384 -867 0
-385 -868 0
-386 -869 0
-387 -870 0
-388 -871 0
-383 -886 0
-384 -887 0
-386 -889 0
-387 -890 0
-388 -891 0
-382 -893 0
-384 -895 0
-388 -897 0
-382 -907 0
-384 -910 0
-385 -912 0
-386 -913 0
-388 -914 0
-382 -917 0
-384 -918 0
-385 -919 0
-386 -920 0
-388 -921 0
-383 -931 0
-384 -934 0
-388 -935 0
-382 -947 0
-385 -949 0
-388 -950 0
-383 -969 0
-386 -971 0
-388 -972 0
-383 -982 0
-385 -985 0
-388 -986 0
-382 -988 0
-384 -990 0
-385 -992 0
-388 -993 0
-383 -1002 0
-384 -1004 0
-386 -1006 0
-388 -1007 0
-383 -1016 0
-384 -1018 0
-388 -1020 0
-383 -1029 0
-384 -1030 0
-385 -1032 0
-386 -1033 0
-388 -1034 0
-382 -1042 0
-384 -1044 0
-385 -1046 0
-386 -1047 0
-387 -1048 0
-388 -1049 0
-382 -1088 0
-385 -1090 0
-387 -1091 0
-388 -1092 0
-383 -1100 0
-386 -1102 0
-387 -1103 0
-388 -1104 0
-383 -1112 0
-385 -1114 0
-387 -1115 0
-388 -1116 0
-384 -1170 0
-386 -1171 0
-388 -1172 0
-384 -1182 0
-385 -1184 0
-388 -1185 0
-388 -1198 0
-385 -1208 0
-386 -1209 0
-388 -1210 0
-385 -1214 0
-386 -1215 0
-388 -1216 0
-384 -1236 0
-385 -1237 0
-386 -1238 0
-388 -1239 0
-384 -1263 0
-385 -1265 0
-388 -1266 0
-382 -1280 0
-386 -1284 0
-387 -1285 0
-388 -1286 0
-382 -1288 0
-385 -1290 0
-386 -1291 0
-387 -1292 0
-388 -1293 0
-383 -1302 0
-385 -1305 0
-387 -1306 0
-388 -1307 0
-382 -1314 0
-384 -1316 0
-387 -1318 0
-388 -1319 0
-383 -1327 0
-384 -1329 0
-385 -1331 0
-386 -1332 0
-387 -1333 0
-388 -1334 0
-383 -1343 0
-384 -1345 0
-387 -1347 0
-388 -1348 0
-385 -1360 0
-386 -1361 0
-388 -1362 0
-384 -1393 0
-386 -1395 0
-388 -1396 0
-385 -1407 0
-386 -1408 0
-387 -1409 0
-388 -1410 0
-385 -1421 0
-387 -1422 0
-388 -1423 0
-384 -1432 0
-385 -1434 0
-387 -1435 0
-388 -1436 0
-384 -1438 0
-385 -1439 0
-386 -1440 0
-387 -1441 0
-388 -1442 0
-382 -1457 0
-385 -1459 0
-386 -1460 0
-387 -1461 0
-388 -1462 0
-382 -1464 0
-383 -1465 0
-387 -1467 0
-388 -1468 0
-382 -1485 0
-383 -1486 0
-384 -1487 0
-385 -1488 0
-386 -1489 0
-387 -1490 0
-388 -1491 0
-383 -1493 0
-384 -1494 0
-385 -1496 0
-387 -1497 0
-388 -1498 0
-382 -1509 0
-385 -1511 0
-386 -1512 0
-388 -1513 0
-382 -1515 0
-386 -1518 0
-388 -1519 0
-383 -1527 0
-385 -1530 0
-388 -1531 0
-382 -1540 0
-384 -1542 0
-385 -1544 0
-388 -1545 0
-383 -1560 0
-384 -1562 0
-385 -1563 0
-386 -1564 0
-388 -1565 0
-383 -1577 0
-384 -1578 0
-385 -1579 0
-388 -1580 0
-383 -1587 0
-385 -1590 0
-386 -1591 0
-388 -1592 0
-382 -1593 0
-386 -1597 0
-387 -1598 0
-388 -1599 0
-382 -1634 0
-384 -1636 0
-387 -1638 0
-388 -1639 0
-383 -1646 0
-384 -1649 0
-385 -1651 0
-386 -1652 0
-387 -1653 0
-388 -1654 0
-383 -1662 0
-384 -1664 0
-387 -1666 0
-388 -1667 0
-385 -1691 0
-386 -1692 0
-388 -1693 0
-388 -1706 0
-384 -1719 0
-385 -1720 0
-388 -1721 0
-384 -1732 0
-385 -1733 0
-386 -1734 0
-388 -1735 0
-384 -1739 0
-386 -1741 0
-388 -1742 0
-384 -1752 0
-385 -1754 0
-388 -1755 0
-384 -1758 0
-386 -1760 0
-388 -1761 0
-383 -1794 0
-384 -1796 0
-385 -1797 0
-387 -1798 0
-388 -1799 0
-384 -1819 0
-385 -1821 0
-386 -1822 0
-388 -1823 0
-384 -1825 0
-385 -1827 0
-387 -1828 0
-388 -1829 0
-384 -1837 0
-385 -1839 0
-386 -1840 0
-387 -1841 0
-388 -1842 0
-382 -1852 0
-385 -1854 0
-386 -1855 0
-387 -1856 0
-388 -1857 0
-383 -1859 0
-386 -1862 0
-387 -1863 0
-388 -1864 0
-386 -1902 0
-387 -1903 0
-388 -1904 0
-385 -1914 0
-386 -1915 0
-387 -1916 0
-388 -1917 0
-384 -1927 0
-386 -1928 0
-387 -1929 0
-388 -1930 0
-384 -1938 0
-385 -1939 0
-386 -1940 0
-387 -1941 0
-388 -1942 0
-384 -1944 0
-385 -1946 0
-386 -1947 0
-387 -1948 0
-388 -1949 0
-390 -454 0
-393 -456 0
-395 -457 0
-390 -460 0
-391 -463 0
-392 -464 0
-394 -465 0
-395 -466 0
-393 -477 0
-394 -478 0
-395 -479 0
-392 -575 0
-393 -576 0
-395 -577 0
-389 -594 0
-392 -596 0
-393 -597 0
-394 -598 0
-395 -599 0
-389 -601 0
-391 -604 0
-393 -605 0
-395 -606 0
-390 -615 0
-393 -617 0
-394 -618 0
-395 -619 0
-390 -621 0
-391 -623 0
-392 -624 0
-395 -625 0
-390 -628 0
-392 -629 0
-393 -630 0
-395 -631 0
-390 -634 0
-391 -637 0
-393 -638 0
-394 -639 0
-395 -640 0
-389 -661 0
-390 -662 0
-391 -663 0
-392 -664 0
-393 -665 0
-394 -666 0
-395 -667 0
-389 -675 0
-390 -676 0
-391 -678 0
-393 -679 0
-395 -680 0
-389 -682 0
-390 -683 0
-393 -684 0
-394 -685 0
-395 -686 0
-389 -688 0
-390 -689 0
-391 -692 0
-392 -693 0
-393 -694 0
-395 -695 0
-389 -696 0
-391 -698 0
-392 -699 0
-393 -700 0
-395 -701 0
-389 -702 0
-391 -704 0
-393 -705 0
-394 -706 0
-395 -707 0
-390 -755 0
-391 -758 0
-393 -759 0
-395 -760 0
-390 -762 0
-392 -765 0
-393 -766 0
-395 -767 0
-390 -769 0
-391 -771 0
-393 -772 0
-394 -773 0
-395 -774 0
-392 -790 0
-394 -791 0
-395 -792 0
-391 -796 0
-393 -797 0
-395 -798 0
-393 -803 0
-394 -804 0
-395 -805 0
-389 -840 0
-391 -841 0
-394 -842 0
-395 -843 0
-389 -846 0
-394 -848 0
-395 -849 0
-389 -852 0
-391 -854 0
-392 -855 0
-393 -856 0
-394 -857 0
-395 -858 0
-390 -894 0
-391 -896 0
-395 -897 0
-390 -901 0
-394 -903 0
-395 -904 0
-390 -908 0
-391 -911 0
-392 -912 0
-393 -913 0
-395 -914 0
-392 -919 0
-393 -920 0
-395 -921 0
-391 -926 0
-394 -927 0
-395 -928 0
-389 -960 0
-390 -961 0
-391 -963 0
-392 -964 0
-394 -965 0
-395 -966 0
-389 -969 0
-391 -970 0
-393 -971 0
-395 -972 0
-389 -975 0
-393 -977 0
-394 -978 0
-395 -979 0
-389 -982 0
-391 -984 0
-392 -985 0
-395 -986 0
-391 -991 0
-392 -992 0
-395 -993 0
-391 -997 0
-393 -998 0
-394 -999 0
-395 -1000 0
-389 -1016 0
-391 -1019 0
-395 -1020 0
-389 -1022 0
-391 -1025 0
-394 -1026 0
-395 -1027 0
-389 -1029 0
-391 -1031 0
-392 -1032 0
-393 -1033 0
-395 -1034 0
-392 -1090 0
-394 -1091 0
-395 -1092 0
-391 -1096 0
-393 -1097 0
-395 -1098 0
-390 -1195 0
-391 -1197 0
-395 -1198 0
-390 -1200 0
-394 -1203 0
-395 -1204 0
-390 -1206 0
-391 -1207 0
-392 -1208 0
-393 -1209 0
-395 -1210 0
-392 -1214 0
-393 -1215 0
-395 -1216 0
-391 -1220 0
-394 -1221 0
-395 -1222 0
-391 -1264 0
-392 -1265 0
-395 -1266 0
-391 -1269 0
-393 -1270 0
-394 -1271 0
-395 -1272 0
-390 -1274 0
-392 -1277 0
-394 -1278 0
-395 -1279 0
-390 -1281 0
-391 -1283 0
-393 -1284 0
-394 -1285 0
-395 -1286 0
-392 -1290 0
-393 -1291 0
-394 -1292 0
-395 -1293 0
-391 -1298 0
-392 -1299 0
-395 -1300 0
-389 -1320 0
-390 -1321 0
-391 -1323 0
-394 -1324 0
-395 -1325 0
-389 -1327 0
-391 -1330 0
-392 -1331 0
-393 -1332 0
-394 -1333 0
-395 -1334 0
-389 -1336 0
-392 -1338 0
-393 -1339 0
-394 -1340 0
-395 -1341 0
-389 -1343 0
-391 -1346 0
-394 -1347 0
-395 -1348 0
-390 -1350 0
-391 -1353 0
-394 -1354 0
-395 -1355 0
-390 -1357 0
-391 -1359 0
-392 -1360 0
-393 -1361 0
-395 -1362 0
-390 -1431 0
-391 -1433 0
-392 -1434 0
-394 -1435 0
-395 -1436 0
-392 -1439 0
-393 -1440 0
-394 -1441 0
-395 -1442 0
-391 -1446 0
-392 -1447 0
-395 -1448 0
-391 -1458 0
-392 -1459 0
-393 -1460 0
-394 -1461 0
-395 -1462 0
-389 -1479 0
-391 -1481 0
-392 -1482 0
-394 -1483 0
-395 -1484 0
-389 -1486 0
-392 -1488 0
-393 -1489 0
-394 -1490 0
-395 -1491 0
-390 -1501 0
-391 -1504 0
-392 -1505 0
-394 -1506 0
-395 -1507 0
-390 -1510 0
-392 -1511 0
-393 -1512 0
-395 -1513 0
-391 -1517 0
-393 -1518 0
-395 -1519 0
-392 -1523 0
-394 -1524 0
-395 -1525 0
-389 -1553 0
-390 -1554 0
-392 -1556 0
-394 -1557 0
-395 -1558 0
-389 -1560 0
-392 -1563 0
-393 -1564 0
-395 -1565 0
-389 -1568 0
-391 -1570 0
-392 -1571 0
-393 -1572 0
-394 -1573 0
-395 -1574 0
-389 -1577 0
-392 -1579 0
-395 -1580 0
-389 -1581 0
-392 -1584 0
-394 -1585 0
-395 -1586 0
-389 -1587 0
-391 -1589 0
-392 -1590 0
-393 -1591 0
-395 -1592 0
-391 -1637 0
-394 -1638 0
-395 -1639 0
-392 -1643 0
-393 -1644 0
-395 -1645 0
-390 -1717 0
-392 -1720 0
-395 -1721 0
-390 -1723 0
-391 -1725 0
-392 -1726 0
-394 -1727 0
-395 -1728 0
-390 -1730 0
-392 -1733 0
-393 -1734 0
-395 -1735 0
-391 -1740 0
-393 -1741 0
-395 -1742 0
-392 -1747 0
-394 -1748 0
-395 -1749 0
-391 -1753 0
-392 -1754 0
-395 -1755 0
-391 -1783 0
-392 -1784 0
-393 -1785 0
-394 -1786 0
-395 -1787 0
-389 -1788 0
-391 -1790 0
-393 -1791 0
-394 -1792 0
-395 -1793 0
-389 -1794 0
-392 -1797 0
-394 -1798 0
-395 -1799 0
-391 -1838 0
-392 -1839 0
-393 -1840 0
-394 -1841 0
-395 -1842 0
-391 -1847 0
-393 -1848 0
-394 -1849 0
-395 -1850 0
-392 -1854 0
-393 -1855 0
-394 -1856 0
-395 -1857 0
-389 -1866 0
-392 -1867 0
-393 -1868 0
-394 -1869 0
-395 -1870 0
-390 -1872 0
-392 -1874 0
-393 -1875 0
-394 -1876 0
-395 -1877 0
-393 -1928 0
-394 -1929 0
-395 -1930 0
-391 -1933 0
-393 -1934 0
-394 -1935 0
-395 -1936 0
-392 -1939 0
-393 -1940 0
-394 -1941 0
-395 -1942 0
-397 -411 0
-398 -412 0
-401 -414 0
-399 -418 0
-400 -420 0
-401 -421 0
-400 -443 0
-401 -444 0
-397 -573 0
-398 -574 0
-399 -575 0
-401 -577 0
-396 -579 0
-397 -581 0
-399 -583 0
-400 -585 0
-401 -586 0
-396 -588 0
-397 -590 0
-398 -591 0
-401 -592 0
-399 -629 0
-401 -631 0
-397 -635 0
-398 -636 0
-400 -639 0
-401 -640 0
-396 -642 0
-397 -644 0
-401 -646 0
-397 -649 0
-400 -652 0
-401 -653 0
-398 -656 0
-399 -658 0
-401 -660 0
-396 -661 0
-399 -664 0
-400 -666 0
-401 -667 0
-398 -670 0
-401 -673 0
-396 -682 0
-400 -685 0
-401 -686 0
-396 -688 0
-397 -690 0
-398 -691 0
-399 -693 0
-401 -695 0
-399 -746 0
-401 -748 0
-397 -751 0
-398 -752 0
-400 -753 0
-401 -754 0
-398 -789 0
-399 -790 0
-400 -791 0
-401 -792 0
-397 -795 0
-401 -798 0
-396 -808 0
-397 -810 0
-398 -811 0
-400 -813 0
-401 -814 0
-396 -824 0
-397 -825 0
-398 -826 0
-399 -828 0
-400 -829 0
-401 -830 0
-396 -834 0
-397 -835 0
-401 -837 0
-396 -846 0
-398 -847 0
-400 -848 0
-401 -849 0
-396 -852 0
-397 -853 0
-399 -855 0
-400 -857 0
-401 -858 0
-396 -866 0
-398 -867 0
-399 -868 0
-400 -870 0
-401 -871 0
-396 -873 0
-397 -874 0
-398 -875 0
-401 -878 0
-398 -895 0
-401 -897 0
-398 -918 0
-399 -919 0
-401 -921 0
-397 -925 0
-400 -927 0
-401 -928 0
-396 -931 0
-397 -933 0
-398 -934 0
-401 -935 0
-397 -939 0
-398 -940 0
-400 -943 0
-401 -944 0
-399 -949 0
-401 -950 0
-396 -960 0
-398 -962 0
-399 -964 0
-400 -965 0
-401 -966 0
-396 -975 0
-398 -976 0
-400 -978 0
-401 -979 0
-396 -982 0
-397 -983 0
-399 -985 0
-401 -986 0
-397 -989 0
-398 -990 0
-399 -992 0
-401 -993 0
-398 -996 0
-400 -999 0
-401 -1000 0
-396 -1002 0
-398 -1004 0
-401 -1007 0
-396 -1022 0
-397 -1023 0
-398 -1024 0
-400 -1026 0
-401 -1027 0
-396 -1029 0
-398 -1030 0
-399 -1032 0
-401 -1034 0
-398 -1044 0
-399 -1046 0
-400 -1048 0
-401 -1049 0
-397 -1053 0
-401 -1055 0
-397 -1073 0
-399 -1075 0
-401 -1077 0
-398 -1170 0
-401 -1172 0
-398 -1182 0
-399 -1184 0
-401 -1185 0
-397 -1189 0
-400 -1191 0
-401 -1192 0
-397 -1201 0
-398 -1202 0
-400 -1203 0
-401 -1204 0
-399 -1208 0
-401 -1210 0
-397 -1235 0
-398 -1236 0
-399 -1237 0
-401 -1239 0
-398 -1242 0
-400 -1245 0
-401 -1246 0
-397 -1289 0
-399 -1290 0
-400 -1292 0
-401 -1293 0
-397 -1296 0
-398 -1297 0
-399 -1299 0
-401 -1300 0
-396 -1302 0
-397 -1304 0
-399 -1305 0
-400 -1306 0
-401 -1307 0
-399 -1310 0
-400 -1312 0
-401 -1313 0
-397 -1315 0
-398 -1316 0
-400 -1318 0
-401 -1319 0
-396 -1320 0
-397 -1322 0
-400 -1324 0
-401 -1325 0
-396 -1336 0
-397 -1337 0
-399 -1338 0
-400 -1340 0
-401 -1341 0
-396 -1343 0
-397 -1344 0
-398 -1345 0
-400 -1347 0
-401 -1348 0
-397 -1358 0
-399 -1360 0
-401 -1362 0
-400 -1367 0
-401 -1368 0
-399 -1386 0
-400 -1388 0
-401 -1389 0
-397 -1392 0
-398 -1393 0
-401 -1396 0
-397 -1397 0
-398 -1398 0
-399 -1400 0
-400 -1402 0
-401 -1403 0
-397 -1406 0
-399 -1407 0
-400 -1409 0
-401 -1410 0
-397 -1419 0
-399 -1421 0
-400 -1422 0
-401 -1423 0
-397 -1426 0
-398 -1427 0
-399 -1428 0
-401 -1430 0
-396 -1465 0
-400 -1467 0
-401 -1468 0
-396 -1471 0
-397 -1472 0
-398 -1473 0
-399 -1475 0
-401 -1477 0
-396 -1479 0
-397 -1480 0
-399 -1482 0
-400 -1483 0
-401 -1484 0
-396 -1486 0
-398 -1487 0
-399 -1488 0
-400 -1490 0
-401 -1491 0
-397 -1516 0
-401 -1519 0
-398 -1522 0
-399 -1523 0
-400 -1524 0
-401 -1525 0
-396 -1527 0
-399 -1530 0
-401 -1531 0
-397 -1534 0
-399 -1535 0
-400 -1537 0
-401 -1538 0
-397 -1541 0
-398 -1542 0
-399 -1544 0
-401 -1545 0
-396 -1553 0
-397 -1555 0
-399 -1556 0
-400 -1557 0
-401 -1558 0
-396 -1568 0
-397 -1569 0
-399 -1571 0
-400 -1573 0
-401 -1574 0
-396 -1577 0
-398 -1578 0
-399 -1579 0
-401 -1580 0
-396 -1581 0
-397 -1582 0
-398 -1583 0
-399 -1584 0
-400 -1585 0
-401 -1586 0
-396 -1587 0
-397 -1588 0
-399 -1590 0
-401 -1592 0
-397 -1595 0
-400 -1598 0
-401 -1599 0
-398 -1602 0
-399 -1604 0
-401 -1606 0
-398 -1623 0
-401 -1626 0
-397 -1689 0
-399 -1691 0
-401 -1693 0
-397 -1704 0
-401 -1706 0
-398 -1710 0
-399 -1712 0
-400 -1714 0
-401 -1715 0
-397 -1724 0
-399 -1726 0
-400 -1727 0
-401 -1728 0
-397 -1731 0
-398 -1732 0
-399 -1733 0
-401 -1735 0
-397 -1751 0
-398 -1752 0
-399 -1754 0
-401 -1755 0
-397 -1757 0
-398 -1758 0
-401 -1761 0
-397 -1763 0
-399 -1764 0
-400 -1766 0
-401 -1767 0
-396 -1788 0
-398 -1789 0
-400 -1792 0
-401 -1793 0
-396 -1794 0
-397 -1795 0
-398 -1796 0
-399 -1797 0
-400 -1798 0
-401 -1799 0
-397 -1813 0
-398 -1814 0
-400 -1816 0
-401 -1817 0
-398 -1819 0
-399 -1821 0
-401 -1823 0
-398 -1825 0
-399 -1827 0
-400 -1828 0
-401 -1829 0
-397 -1831 0
-398 -1832 0
-401 -1835 0
-396 -1859 0
-397 -1860 0
-400 -1863 0
-401 -1864 0
-396 -1866 0
-399 -1867 0
-400 -1869 0
-401 -1870 0
-397 -1880 0
-399 -1882 0
-400 -1883 0
-401 -1884 0
-400 -1903 0
-401 -1904 0
-399 -1914 0
-400 -1916 0
-401 -1917 0
-397 -1920 0
-398 -1921 0
-401 -1924 0
-397 -1932 0
-400 -1935 0
-401 -1936 0
-398 -1938 0
-399 -1939 0
-400 -1941 0
-401 -1942 0
-397 -1943 0
-398 -1944 0
-399 -1946 0
-400 -1948 0
-401 -1949 0
-403 -572 0
-405 -573 0
-407 -577 0
-403 -578 0
-404 -580 0
-405 -581 0
-406 -585 0
-407 -586 0
-403 -587 0
-404 -589 0
-405 -590 0
-407 -592 0
-403 -593 0
-406 -598 0
-407 -599 0
-403 -600 0
-405 -602 0
-407 -606 0
-404 -608 0
-405 -609 0
-406 -612 0
-407 -613 0
-403 -669 0
-407 -673 0
-404 -683 0
-406 -685 0
-407 -686 0
-404 -689 0
-405 -690 0
-407 -695 0
-405 -697 0
-407 -701 0
-406 -706 0
-407 -707 0
-403 -800 0
-405 -801 0
-406 -804 0
-407 -805 0
-402 -822 0
-403 -823 0
-405 -825 0
-406 -829 0
-407 -830 0
-402 -832 0
-403 -833 0
-405 -835 0
-407 -837 0
-403 -845 0
-406 -848 0
-407 -849 0
-403 -851 0
-405 -853 0
-406 -857 0
-407 -858 0
-402 -860 0
-405 -862 0
-406 -863 0
-407 -864 0
-403 -865 0
-406 -870 0
-407 -871 0
-403 -872 0
-405 -874 0
-407 -878 0
-402 -879 0
-405 -881 0
-407 -885 0
-406 -890 0
-407 -891 0
-403 -952 0
-406 -956 0
-407 -957 0
-402 -974 0
-406 -978 0
-407 -979 0
-402 -981 0
-405 -983 0
-407 -986 0
-405 -1023 0
-406 -1026 0
-407 -1027 0
-407 -1034 0
-403 -1072 0
-405 -1073 0
-407 -1077 0
-406 -1115 0
-407 -1116 0
-405 -1119 0
-407 -1122 0
-407 -1153 0
-405 -1156 0
-406 -1159 0
-407 -1160 0
-403 -1273 0
-404 -1274 0
-405 -1275 0
-406 -1278 0
-407 -1279 0
-403 -1280 0
-404 -1281 0
-405 -1282 0
-406 -1285 0
-407 -1286 0
-402 -1287 0
-403 -1288 0
-405 -1289 0
-406 -1292 0
-407 -1293 0
-402 -1294 0
-403 -1295 0
-405 -1296 0
-407 -1300 0
-402 -1301 0
-404 -1303 0
-405 -1304 0
-406 -1306 0
-407 -1307 0
-403 -1308 0
-406 -1312 0
-407 -1313 0
-403 -1314 0
-405 -1315 0
-406 -1318 0
-407 -1319 0
-404 -1321 0
-405 -1322 0
-406 -1324 0
-407 -1325 0
-402 -1326 0
-405 -1328 0
-406 -1333 0
-407 -1334 0
-404 -1370 0
-406 -1374 0
-407 -1375 0
-404 -1377 0
-405 -1378 0
-406 -1381 0
-407 -1382 0
-402 -1384 0
-406 -1388 0
-407 -1389 0
-402 -1391 0
-405 -1392 0
-407 -1396 0
-405 -1397 0
-406 -1402 0
-407 -1403 0
-404 -1418 0
-405 -1419 0
-406 -1422 0
-407 -1423 0
-404 -1425 0
-405 -1426 0
-407 -1430 0
-406 -1441 0
-407 -1442 0
-405 -1444 0
-407 -1448 0
-405 -1450 0
-406 -1455 0
-407 -1456 0
-403 -1457 0
-406 -1461 0
-407 -1462 0
-402 -1463 0
-403 -1464 0
-406 -1467 0
-407 -1468 0
-402 -1469 0
-403 -1470 0
-405 -1472 0
-407 -1477 0
-403 -1478 0
-405 -1480 0
-406 -1483 0
-407 -1484 0
-403 -1485 0
-406 -1490 0
-407 -1491 0
-402 -1492 0
-406 -1497 0
-407 -1498 0
-403 -1547 0
-405 -1548 0
-406 -1550 0
-407 -1551 0
-402 -1567 0
-405 -1569 0
-406 -1573 0
-407 -1574 0
-402 -1576 0
-407 -1580 0
-405 -1582 0
-406 -1585 0
-407 -1586 0
-405 -1588 0
-407 -1592 0
-403 -1622 0
-407 -1626 0
-405 -1663 0
-406 -1666 0
-407 -1667 0
-407 -1674 0
-405 -1676 0
-407 -1680 0
-406 -1685 0
-407 -1686 0
-405 -1751 0
-407 -1755 0
-404 -1800 0
-405 -1801 0
-406 -1804 0
-407 -1805 0
-404 -1806 0
-406 -1810 0
-407 -1811 0
-402 -1812 0
-405 -1813 0
-406 -1816 0
-407 -1817 0
-402 -1818 0
-407 -1823 0
-404 -1824 0
-406 -1828 0
-407 -1829 0
-404 -1830 0
-405 -1831 0
-407 -1835 0
-405 -1836 0
-406 -1841 0
-407 -1842 0
-402 -1844 0
-403 -1845 0
-406 -1849 0
-407 -1850 0
-402 -1851 0
-403 -1852 0
-405 -1853 0
-406 -1856 0
-407 -1857 0
-402 -1858 0
-405 -1860 0
-406 -1863 0
-407 -1864 0
-402 -1865 0
-406 -1869 0
-407 -1870 0
-402 -1886 0
-405 -1887 0
-406 -1890 0
-407 -1891 0
-402 -1893 0
-406 -1897 0
-407 -1898 0
-402 -1912 0
-406 -1916 0
-407 -1917 0
-402 -1919 0
-405 -1920 0
-407 -1924 0
-405 -1932 0
-406 -1935 0
-407 -1936 0
-406 -1941 0
-407 -1942 0
-405 -1943 0
-406 -1948 0
-407 -1949 0
-408 -565 0
-411 -567 0
-412 -568 0
-413 -569 0
-414 -571 0
-409 -572 0
-411 -573 0
-412 -574 0
-414 -577 0
-409 -587 0
-410 -589 0
-411 -590 0
-412 -591 0
-414 -592 0
-409 -593 0
-412 -595 0
-414 -599 0
-410 -608 0
-411 -609 0
-412 -610 0
-414 -613 0
-409 -633 0
-410 -634 0
-411 -635 0
-412 -636 0
-413 -637 0
-414 -640 0
-409 -654 0
-410 -655 0
-412 -656 0
-413 -657 0
-414 -660 0
-408 -668 0
-409 -669 0
-412 -670 0
-413 -671 0
-414 -673 0
-410 -676 0
-412 -677 0
-413 -678 0
-414 -680 0
-408 -687 0
-410 -689 0
-411 -690 0
-412 -691 0
-413 -692 0
-414 -695 0
-411 -697 0
-413 -698 0
-414 -701 0
-409 -715 0
-410 -716 0
-411 -717 0
-412 -718 0
-414 -721 0
-410 -730 0
-412 -731 0
-414 -734 0
-408 -768 0
-410 -769 0
-412 -770 0
-413 -771 0
-414 -774 0
-410 -781 0
-412 -782 0
-413 -783 0
-414 -786 0
-409 -794 0
-411 -795 0
-413 -796 0
-414 -798 0
-409 -816 0
-411 -818 0
-414 -820 0
-408 -831 0
-409 -833 0
-411 -835 0
-414 -837 0
-409 -839 0
-413 -841 0
-414 -843 0
-408 -850 0
-409 -851 0
-411 -853 0
-413 -854 0
-414 -858 0
-408 -859 0
-411 -862 0
-414 -864 0
-409 -872 0
-411 -874 0
-412 -875 0
-413 -876 0
-414 -878 0
-411 -881 0
-412 -882 0
-414 -885 0
-412 -887 0
-413 -888 0
-414 -891 0
-408 -922 0
-409 -924 0
-411 -925 0
-413 -926 0
-414 -928 0
-408 -945 0
-409 -947 0
-413 -948 0
-414 -950 0
-408 -967 0
-413 -970 0
-414 -972 0
-408 -980 0
-411 -983 0
-413 -984 0
-414 -986 0
-409 -995 0
-412 -996 0
-413 -997 0
-414 -1000 0
-412 -1010 0
-413 -1011 0
-414 -1014 0
-411 -1017 0
-412 -1018 0
-413 -1019 0
-414 -1020 0
-408 -1028 0
-412 -1030 0
-413 -1031 0
-414 -1034 0
-408 -1062 0
-409 -1064 0
-411 -1065 0
-412 -1066 0
-414 -1070 0
-408 -1093 0
-409 -1094 0
-412 -1095 0
-413 -1096 0
-414 -1098 0
-408 -1105 0
-412 -1108 0
-414 -1110 0
-408 -1117 0
-411 -1119 0
-412 -1120 0
-414 -1122 0
-409 -1129 0
-413 -1130 0
-414 -1134 0
-414 -1146 0
-408 -1154 0
-411 -1156 0
-414 -1160 0
-411 -1162 0
-413 -1163 0
-414 -1166 0
-408 -1217 0
-412 -1219 0
-413 -1220 0
-414 -1222 0
-408 -1254 0
-413 -1256 0
-414 -1260 0
-408 -1267 0
-411 -1268 0
-413 -1269 0
-414 -1272 0
-409 -1280 0
-410 -1281 0
-411 -1282 0
-413 -1283 0
-414 -1286 0
-409 -1288 0
-411 -1289 0
-414 -1293 0
-410 -1303 0
-411 -1304 0
-414 -1307 0
-409 -1308 0
-413 -1309 0
-414 -1313 0
-410 -1321 0
-411 -1322 0
-413 -1323 0
-414 -1325 0
-408 -1335 0
-411 -1337 0
-414 -1341 0
-410 -1357 0
-411 -1358 0
-413 -1359 0
-414 -1362 0
-410 -1364 0
-413 -1365 0
-414 -1368 0
-408 -1376 0
-410 -1377 0
-411 -1378 0
-413 -1379 0
-414 -1382 0
-408 -1383 0
-413 -1385 0
-414 -1389 0
-411 -1397 0
-412 -1398 0
-413 -1399 0
-414 -1403 0
-410 -1412 0
-411 -1413 0
-412 -1414 0
-414 -1416 0
-408 -1424 0
-410 -1425 0
-411 -1426 0
-412 -1427 0
-414 -1430 0
-410 -1431 0
-412 -1432 0
-413 -1433 0
-414 -1436 0
-408 -1437 0
-412 -1438 0
-414 -1442 0
-409 -1470 0
-411 -1472 0
-412 -1473 0
-413 -1474 0
-414 -1477 0
-409 -1485 0
-412 -1487 0
-414 -1491 0
-412 -1494 0
-413 -1495 0
-414 -1498 0
-409 -1521 0
-412 -1522 0
-414 -1525 0
-409 -1540 0
-411 -1541 0
-412 -1542 0
-413 -1543 0
-414 -1545 0
-411 -1561 0
-412 -1562 0
-414 -1565 0
-408 -1575 0
-412 -1578 0
-414 -1580 0
-411 -1588 0
-413 -1589 0
-414 -1592 0
-409 -1615 0
-412 -1616 0
-413 -1617 0
-414 -1620 0
-409 -1640 0
-411 -1641 0
-412 -1642 0
-414 -1645 0
-411 -1657 0
-412 -1658 0
-413 -1659 0
-414 -1660 0
-408 -1668 0
-412 -1670 0
-413 -1671 0
-414 -1674 0
-412 -1682 0
-413 -1683 0
-414 -1686 0
-408 -1743 0
-411 -1745 0
-412 -1746 0
-414 -1749 0
-411 -1775 0
-412 -1776 0
-414 -1779 0
-411 -1781 0
-412 -1782 0
-413 -1783 0
-414 -1787 0
-412 -1789 0
-413 -1790 0
-414 -1793 0
-410 -1806 0
-412 -1807 0
-413 -1808 0
-414 -1811 0
-411 -1813 0
-412 -1814 0
-414 -1817 0
-410 -1830 0
-411 -1831 0
-412 -1832 0
-413 -1833 0
-414 -1835 0
-411 -1836 0
-412 -1837 0
-413 -1838 0
-414 -1842 0
-409 -1852 0
-411 -1853 0
-414 -1857 0
-411 -1860 0
-413 -1861 0
-414 -1864 0
-414 -1870 0
-411 -1880 0
-413 -1881 0
-414 -1884 0
-408 -1892 0
-413 -1894 0
-414 -1898 0
-412 -1906 0
-413 -1907 0
-414 -1910 0
-408 -1918 0
-411 -1920 0
-412 -1921 0
-413 -1922 0
-414 -1924 0
-411 -1926 0
-412 -1927 0
-414 -1930 0
-408 -1937 0
-412 -1938 0
-414 -1942 0
-415 -558 0
-418 -561 0
-419 -562 0
-420 -563 0
-421 -564 0
-416 -572 0
-418 -575 0
-419 -576 0
-421 -577 0
-416 -578 0
-417 -580 0
-418 -583 0
-419 -584 0
-420 -585 0
-421 -586 0
-416 -600 0
-419 -605 0
-421 -606 0
-417 -608 0
-419 -611 0
-420 -612 0
-421 -613 0
-416 -627 0
-417 -628 0
-418 -629 0
-419 -630 0
-421 -631 0
-416 -647 0
-417 -648 0
-419 -651 0
-420 -652 0
-421 -653 0
-415 -668 0
-416 -669 0
-419 -672 0
-421 -673 0
-417 -676 0
-419 -679 0
-421 -680 0
-415 -681 0
-417 -683 0
-419 -684 0
-420 -685 0
-421 -686 0
-419 -705 0
-420 -706 0
-421 -707 0
-416 -708 0
-417 -709 0
-418 -712 0
-419 -713 0
-421 -714 0
-417 -730 0
-418 -732 0
-419 -733 0
-421 -734 0
-415 -761 0
-417 -762 0
-418 -765 0
-419 -766 0
-421 -767 0
-417 -775 0
-418 -777 0
-419 -778 0
-420 -779 0
-421 -780 0
-416 -788 0
-418 -790 0
-420 -791 0
-421 -792 0
-416 -816 0
-418 -819 0
-421 -820 0
-415 -821 0
-416 -823 0
-418 -828 0
-420 -829 0
-421 -830 0
-416 -839 0
-420 -842 0
-421 -843 0
-415 -844 0
-416 -845 0
-420 -848 0
-421 -849 0
-415 -859 0
-420 -863 0
-421 -864 0
-416 -865 0
-418 -868 0
-419 -869 0
-420 -870 0
-421 -871 0
-418 -883 0
-419 -884 0
-421 -885 0
-419 -889 0
-420 -890 0
-421 -891 0
-415 -915 0
-416 -917 0
-418 -919 0
-419 -920 0
-421 -921 0
-415 -936 0
-416 -938 0
-419 -942 0
-420 -943 0
-421 -944 0
-415 -967 0
-419 -971 0
-421 -972 0
-415 -973 0
-419 -977 0
-420 -978 0
-421 -979 0
-416 -988 0
-418 -992 0
-421 -993 0
-418 -1012 0
-420 -1013 0
-421 -1014 0
-421 -1020 0
-415 -1021 0
-420 -1026 0
-421 -1027 0
-415 -1056 0
-416 -1058 0
-418 -1060 0
-421 -1061 0
-415 -1087 0
-416 -1088 0
-418 -1090 0
-420 -1091 0
-421 -1092 0
-415 -1105 0
-418 -1109 0
-421 -1110 0
-415 -1111 0
-418 -1114 0
-420 -1115 0
-421 -1116 0
-416 -1123 0
-418 -1126 0
-419 -1127 0
-421 -1128 0
-418 -1143 0
-419 -1144 0
-420 -1145 0
-421 -1146 0
-415 -1147 0
-418 -1151 0
-419 -1152 0
-421 -1153 0
-418 -1164 0
-419 -1165 0
-421 -1166 0
-415 -1211 0
-418 -1214 0
-419 -1215 0
-421 -1216 0
-415 -1247 0
-418 -1251 0
-420 -1252 0
-421 -1253 0
-415 -1261 0
-418 -1265 0
-421 -1266 0
-416 -1273 0
-417 -1274 0
-418 -1277 0
-420 -1278 0
-421 -1279 0
-416 -1295 0
-418 -1299 0
-421 -1300 0
-417 -1303 0
-418 -1305 0
-420 -1306 0
-421 -1307 0
-416 -1314 0
-420 -1318 0
-421 -1319 0
-417 -1321 0
-420 -1324 0
-421 -1325 0
-415 -1342 0
-420 -1347 0
-421 -1348 0
-417 -1357 0
-418 -1360 0
-419 -1361 0
-421 -1362 0
-417 -1364 0
-419 -1366 0
-420 -1367 0
-421 -1368 0
-415 -1369 0
-417 -1370 0
-419 -1373 0
-420 -1374 0
-421 -1375 0
-415 -1390 0
-419 -1395 0
-421 -1396 0
-417 -1412 0
-418 -1415 0
-421 -1416 0
-415 -1417 0
-417 -1418 0
-418 -1421 0
-420 -1422 0
-421 -1423 0
-417 -1431 0
-418 -1434 0
-420 -1435 0
-421 -1436 0
-415 -1443 0
-418 -1447 0
-421 -1448 0
-418 -1453 0
-419 -1454 0
-420 -1455 0
-421 -1456 0
-416 -1464 0
-420 -1467 0
-421 -1468 0
-416 -1478 0
-418 -1482 0
-420 -1483 0
-421 -1484 0
-418 -1496 0
-420 -1497 0
-421 -1498 0
-416 -1515 0
-419 -1518 0
-421 -1519 0
-416 -1533 0
-418 -1535 0
-419 -1536 0
-420 -1537 0
-421 -1538 0
-418 -1563 0
-419 -1564 0
-421 -1565 0
-415 -1566 0
-418 -1571 0
-419 -1572 0
-420 -1573 0
-421 -1574 0
-418 -1584 0
-420 -1585 0
-421 -1586 0
-416 -1608 0
-418 -1612 0
-421 -1613 0
-416 -1634 0
-420 -1638 0
-421 -1639 0
-421 -1660 0
-415 -1661 0
-420 -1666 0
-421 -1667 0
-418 -1678 0
-419 -1679 0
-421 -1680 0
-415 -1736 0
-419 -1741 0
-421 -1742 0
-418 -1771 0
-420 -1772 0
-421 -1773 0
-418 -1797 0
-420 -1798 0
-421 -1799 0
-417 -1800 0
-418 -1802 0
-419 -1803 0
-420 -1804 0
-421 -1805 0
-418 -1821 0
-419 -1822 0
-421 -1823 0
-417 -1824 0
-418 -1827 0
-420 -1828 0
-421 -1829 0
-416 -1845 0
-419 -1848 0
-420 -1849 0
-421 -1850 0
-419 -1862 0
-420 -1863 0
-421 -1864 0
-418 -1867 0
-419 -1868 0
-420 -1869 0
-421 -1870 0
-418 -1882 0
-420 -1883 0
-421 -1884 0
-415 -1885 0
-418 -1889 0
-420 -1890 0
-421 -1891 0
-418 -1908 0
-419 -1909 0
-421 -1910 0
-415 -1911 0
-418 -1914 0
-419 -1915 0
-420 -1916 0
-421 -1917 0
-419 -1928 0
-420 -1929 0
-421 -1930 0
-415 -1931 0
-419 -1934 0
-420 -1935 0
-421 -1936 0
-418 -1946 0
-419 -1947 0
-420 -1948 0
-421 -1949 0
-418 -1955 0
-419 -1956 0
-420 -1957 0
-421 -1958 0
-424 -587 0
-425 -589 0
-426 -590 0
-431 -592 0
-424 -600 0
-426 -602 0
-427 -604 0
-429 -605 0
-431 -606 0
-425 -608 0
-426 -609 0
-429 -611 0
-430 -612 0
-431 -613 0
-424 -620 0
-425 -621 0
-426 -622 0
-427 -623 0
-428 -624 0
-431 -625 0
-424 -654 0
-425 -655 0
-427 -657 0
-428 -658 0
-429 -659 0
-431 -660 0
-425 -662 0
-427 -663 0
-428 -664 0
-429 -665 0
-430 -666 0
-431 -667 0
-422 -687 0
-425 -689 0
-426 -690 0
-427 -692 0
-428 -693 0
-429 -694 0
-431 -695 0
-427 -704 0
-429 -705 0
-430 -706 0
-431 -707 0
-423 -793 0
-424 -794 0
-426 -795 0
-427 -796 0
-429 -797 0
-431 -798 0
-422 -799 0
-424 -800 0
-426 -801 0
-429 -803 0
-430 -804 0
-431 -805 0
-423 -806 0
-424 -807 0
-425 -809 0
-426 -810 0
-429 -812 0
-430 -813 0
-431 -814 0
-422 -831 0
-423 -832 0
-424 -833 0
-426 -835 0
-429 -836 0
-431 -837 0
-423 -838 0
-424 -839 0
-427 -841 0
-430 -842 0
-431 -843 0
-422 -844 0
-424 -845 0
-430 -848 0
-431 -849 0
-422 -859 0
-423 -860 0
-426 -862 0
-430 -863 0
-431 -864 0
-424 -865 0
-428 -868 0
-429 -869 0
-430 -870 0
-431 -871 0
-423 -879 0
-426 -881 0
-428 -883 0
-429 -884 0
-431 -885 0
-422 -905 0
-423 -906 0
-424 -907 0
-425 -908 0
-426 -909 0
-427 -911 0
-428 -912 0
-429 -913 0
-431 -914 0
-422 -945 0
-423 -946 0
-424 -947 0
-427 -948 0
-428 -949 0
-431 -950 0
-422 -951 0
-424 -952 0
-427 -954 0
-428 -955 0
-430 -956 0
-431 -957 0
-422 -958 0
-423 -959 0
-425 -961 0
-427 -963 0
-428 -964 0
-430 -965 0
-431 -966 0
-422 -980 0
-423 -981 0
-426 -983 0
-427 -984 0
-428 -985 0
-431 -986 0
-423 -994 0
-424 -995 0
-427 -997 0
-429 -998 0
-430 -999 0
-431 -1000 0
-423 -1001 0
-425 -1003 0
-427 -1005 0
-429 -1006 0
-431 -1007 0
-423 -1015 0
-426 -1017 0
-427 -1019 0
-431 -1020 0
-422 -1021 0
-426 -1023 0
-427 -1025 0
-430 -1026 0
-431 -1027 0
-422 -1050 0
-424 -1051 0
-425 -1052 0
-426 -1053 0
-429 -1054 0
-431 -1055 0
-422 -1093 0
-424 -1094 0
-427 -1096 0
-429 -1097 0
-431 -1098 0
-422 -1099 0
-425 -1101 0
-429 -1102 0
-430 -1103 0
-431 -1104 0
-422 -1117 0
-426 -1119 0
-429 -1121 0
-431 -1122 0
-424 -1129 0
-427 -1130 0
-428 -1131 0
-429 -1132 0
-430 -1133 0
-431 -1134 0
-425 -1136 0
-428 -1138 0
-429 -1139 0
-431 -1140 0
-422 -1154 0
-426 -1156 0
-428 -1157 0
-429 -1158 0
-430 -1159 0
-431 -1160 0
-426 -1162 0
-427 -1163 0
-428 -1164 0
-429 -1165 0
-431 -1166 0
-422 -1205 0
-425 -1206 0
-427 -1207 0
-428 -1208 0
-429 -1209 0
-431 -1210 0
-422 -1240 0
-425 -1241 0
-427 -1243 0
-429 -1244 0
-430 -1245 0
-431 -1246 0
-422 -1267 0
-426 -1268 0
-427 -1269 0
-429 -1270 0
-430 -1271 0
-431 -1272 0
-424 -1273 0
-425 -1274 0
-426 -1275 0
-428 -1277 0
-430 -1278 0
-431 -1279 0
-423 -1294 0
-424 -1295 0
-426 -1296 0
-427 -1298 0
-428 -1299 0
-431 -1300 0
-423 -1301 0
-425 -1303 0
-426 -1304 0
-428 -1305 0
-430 -1306 0
-431 -1307 0
-424 -1308 0
-427 -1309 0
-428 -1310 0
-429 -1311 0
-430 -1312 0
-431 -1313 0
-423 -1326 0
-426 -1328 0
-427 -1330 0
-428 -1331 0
-429 -1332 0
-430 -1333 0
-431 -1334 0
-422 -1335 0
-426 -1337 0
-428 -1338 0
-429 -1339 0
-430 -1340 0
-431 -1341 0
-423 -1349 0
-425 -1350 0
-426 -1351 0
-427 -1353 0
-430 -1354 0
-431 -1355 0
-423 -1363 0
-425 -1364 0
-427 -1365 0
-429 -1366 0
-430 -1367 0
-431 -1368 0
-422 -1369 0
-425 -1370 0
-427 -1372 0
-429 -1373 0
-430 -1374 0
-431 -1375 0
-422 -1390 0
-423 -1391 0
-426 -1392 0
-427 -1394 0
-429 -1395 0
-431 -1396 0
-426 -1397 0
-427 -1399 0
-428 -1400 0
-429 -1401 0
-430 -1402 0
-431 -1403 0
-425 -1405 0
-426 -1406 0
-428 -1407 0
-429 -1408 0
-430 -1409 0
-431 -1410 0
-422 -1424 0
-425 -1425 0
-426 -1426 0
-428 -1428 0
-429 -1429 0
-431 -1430 0
-425 -1431 0
-427 -1433 0
-428 -1434 0
-430 -1435 0
-431 -1436 0
-422 -1443 0
-426 -1444 0
-427 -1446 0
-428 -1447 0
-431 -1448 0
-426 -1450 0
-427 -1452 0
-428 -1453 0
-429 -1454 0
-430 -1455 0
-431 -1456 0
-424 -1457 0
-427 -1458 0
-428 -1459 0
-429 -1460 0
-430 -1461 0
-431 -1462 0
-423 -1469 0
-424 -1470 0
-426 -1472 0
-427 -1474 0
-428 -1475 0
-429 -1476 0
-431 -1477 0
-424 -1478 0
-426 -1480 0
-427 -1481 0
-428 -1482 0
-430 -1483 0
-431 -1484 0
-423 -1492 0
-427 -1495 0
-428 -1496 0
-430 -1497 0
-431 -1498 0
-423 -1508 0
-424 -1509 0
-425 -1510 0
-428 -1511 0
-429 -1512 0
-431 -1513 0
-423 -1539 0
-424 -1540 0
-426 -1541 0
-427 -1543 0
-428 -1544 0
-431 -1545 0
-422 -1546 0
-424 -1547 0
-426 -1548 0
-428 -1549 0
-430 -1550 0
-431 -1551 0
-423 -1552 0
-425 -1554 0
-426 -1555 0
-428 -1556 0
-430 -1557 0
-431 -1558 0
-422 -1575 0
-423 -1576 0
-428 -1579 0
-431 -1580 0
-426 -1582 0
-428 -1584 0
-430 -1585 0
-431 -1586 0
-424 -1600 0
-425 -1601 0
-427 -1603 0
-428 -1604 0
-429 -1605 0
-431 -1606 0
-424 -1640 0
-426 -1641 0
-428 -1643 0
-429 -1644 0
-431 -1645 0
-425 -1647 0
-426 -1648 0
-427 -1650 0
-428 -1651 0
-429 -1652 0
-430 -1653 0
-431 -1654 0
-422 -1668 0
-427 -1671 0
-428 -1672 0
-429 -1673 0
-431 -1674 0
-427 -1683 0
-429 -1684 0
-430 -1685 0
-431 -1686 0
-422 -1729 0
-425 -1730 0
-426 -1731 0
-428 -1733 0
-429 -1734 0
-431 -1735 0
-425 -1762 0
-426 -1763 0
-428 -1764 0
-429 -1765 0
-430 -1766 0
-431 -1767 0
-426 -1781 0
-427 -1783 0
-428 -1784 0
-429 -1785 0
-430 -1786 0
-431 -1787 0
-427 -1790 0
-429 -1791 0
-430 -1792 0
-431 -1793 0
-425 -1800 0
-426 -1801 0
-428 -1802 0
-429 -1803 0
-430 -1804 0
-431 -1805 0
-423 -1818 0
-427 -1820 0
-428 -1821 0
-429 -1822 0
-431 -1823 0
-425 -1830 0
-426 -1831 0
-427 -1833 0
-429 -1834 0
-431 -1835 0
-423 -1844 0
-424 -1845 0
-427 -1847 0
-429 -1848 0
-430 -1849 0
-431 -1850 0
-423 -1858 0
-426 -1860 0
-427 -1861 0
-429 -1862 0
-430 -1863 0
-431 -1864 0
-423 -1871 0
-425 -1872 0
-428 -1874 0
-429 -1875 0
-430 -1876 0
-431 -1877 0
-423 -1879 0
-426 -1880 0
-427 -1881 0
-428 -1882 0
-430 -1883 0
-431 -1884 0
-422 -1885 0
-423 -1886 0
-426 -1887 0
-428 -1889 0
-430 -1890 0
-431 -1891 0
-423 -1899 0
-425 -1900 0
-427 -1901 0
-429 -1902 0
-430 -1903 0
-431 -1904 0
-422 -1918 0
-423 -1919 0
-426 -1920 0
-427 -1922 0
-429 -1923 0
-431 -1924 0
-423 -1925 0
-426 -1926 0
-429 -1928 0
-430 -1929 0
-431 -1930 0
-422 -1931 0
-426 -1932 0
-427 -1933 0
-429 -1934 0
-430 -1935 0
-431 -1936 0
-426 -1943 0
-427 -1945 0
-428 -1946 0
-429 -1947 0
-430 -1948 0
-431 -1949 0
-434 -578 0
-435 -580 0
-437 -585 0
-438 -586 0
-434 -593 0
-436 -595 0
-437 -598 0
-438 -599 0
-435 -608 0
-436 -610 0
-437 -612 0
-438 -613 0
-434 -614 0
-435 -615 0
-436 -616 0
-437 -618 0
-438 -619 0
-434 -647 0
-435 -648 0
-437 -652 0
-438 -653 0
-435 -662 0
-437 -666 0
-438 -667 0
-432 -681 0
-435 -683 0
-437 -685 0
-438 -686 0
-438 -701 0
-433 -787 0
-434 -788 0
-436 -789 0
-437 -791 0
-438 -792 0
-432 -799 0
-434 -800 0
-436 -802 0
-437 -804 0
-438 -805 0
-433 -806 0
-434 -807 0
-435 -809 0
-436 -811 0
-437 -813 0
-438 -814 0
-432 -821 0
-433 -822 0
-434 -823 0
-436 -826 0
-437 -829 0
-438 -830 0
-433 -838 0
-434 -839 0
-437 -842 0
-438 -843 0
-432 -850 0
-434 -851 0
-437 -857 0
-438 -858 0
-432 -859 0
-433 -860 0
-437 -863 0
-438 -864 0
-434 -872 0
-436 -875 0
-438 -878 0
-433 -879 0
-436 -882 0
-438 -885 0
-432 -898 0
-433 -899 0
-434 -900 0
-435 -901 0
-436 -902 0
-437 -903 0
-438 -904 0
-432 -936 0
-433 -937 0
-434 -938 0
-436 -940 0
-437 -943 0
-438 -944 0
-432 -951 0
-434 -952 0
-436 -953 0
-437 -956 0
-438 -957 0
-432 -958 0
-433 -959 0
-435 -961 0
-436 -962 0
-437 -965 0
-438 -966 0
-432 -973 0
-433 -974 0
-436 -976 0
-437 -978 0
-438 -979 0
-433 -987 0
-434 -988 0
-436 -990 0
-438 -993 0
-433 -1001 0
-435 -1003 0
-436 -1004 0
-438 -1007 0
-433 -1015 0
-436 -1018 0
-438 -1020 0
-432 -1028 0
-436 -1030 0
-438 -1034 0
-432 -1041 0
-434 -1042 0
-435 -1043 0
-436 -1044 0
-437 -1048 0
-438 -1049 0
-432 -1087 0
-434 -1088 0
-437 -1091 0
-438 -1092 0
-432 -1099 0
-435 -1101 0
-437 -1103 0
-438 -1104 0
-432 -1111 0
-437 -1115 0
-438 -1116 0
-434 -1123 0
-436 -1125 0
-438 -1128 0
-435 -1136 0
-436 -1137 0
-438 -1140 0
-432 -1147 0
-436 -1149 0
-438 -1153 0
-438 -1166 0
-432 -1199 0
-435 -1200 0
-436 -1202 0
-437 -1203 0
-438 -1204 0
-432 -1233 0
-435 -1234 0
-436 -1236 0
-438 -1239 0
-432 -1261 0
-436 -1263 0
-438 -1266 0
-434 -1280 0
-435 -1281 0
-437 -1285 0
-438 -1286 0
-433 -1287 0
-434 -1288 0
-437 -1292 0
-438 -1293 0
-433 -1301 0
-435 -1303 0
-437 -1306 0
-438 -1307 0
-434 -1314 0
-436 -1316 0
-437 -1318 0
-438 -1319 0
-433 -1326 0
-436 -1329 0
-437 -1333 0
-438 -1334 0
-432 -1342 0
-436 -1345 0
-437 -1347 0
-438 -1348 0
-433 -1349 0
-435 -1350 0
-436 -1352 0
-437 -1354 0
-438 -1355 0
-433 -1363 0
-435 -1364 0
-437 -1367 0
-438 -1368 0
-432 -1376 0
-435 -1377 0
-437 -1381 0
-438 -1382 0
-432 -1383 0
-433 -1384 0
-437 -1388 0
-438 -1389 0
-435 -1405 0
-437 -1409 0
-438 -1410 0
-432 -1417 0
-435 -1418 0
-437 -1422 0
-438 -1423 0
-435 -1431 0
-436 -1432 0
-437 -1435 0
-438 -1436 0
-432 -1437 0
-436 -1438 0
-437 -1441 0
-438 -1442 0
-434 -1457 0
-437 -1461 0
-438 -1462 0
-433 -1463 0
-434 -1464 0
-437 -1467 0
-438 -1468 0
-434 -1485 0
-436 -1487 0
-437 -1490 0
-438 -1491 0
-433 -1492 0
-436 -1494 0
-437 -1497 0
-438 -1498 0
-433 -1499 0
-434 -1500 0
-435 -1501 0
-436 -1503 0
-437 -1506 0
-438 -1507 0
-433 -1532 0
-434 -1533 0
-437 -1537 0
-438 -1538 0
-432 -1546 0
-434 -1547 0
-437 -1550 0
-438 -1551 0
-433 -1552 0
-435 -1554 0
-437 -1557 0
-438 -1558 0
-432 -1566 0
-433 -1567 0
-437 -1573 0
-438 -1574 0
-438 -1592 0
-434 -1593 0
-435 -1594 0
-437 -1598 0
-438 -1599 0
-434 -1634 0
-436 -1636 0
-437 -1638 0
-438 -1639 0
-435 -1647 0
-436 -1649 0
-437 -1653 0
-438 -1654 0
-432 -1661 0
-436 -1664 0
-437 -1666 0
-438 -1667 0
-438 -1680 0
-432 -1722 0
-435 -1723 0
-437 -1727 0
-438 -1728 0
-435 -1756 0
-436 -1758 0
-438 -1761 0
-436 -1796 0
-437 -1798 0
-438 -1799 0
-435 -1806 0
-436 -1807 0
-437 -1810 0
-438 -1811 0
-433 -1812 0
-436 -1814 0
-437 -1816 0
-438 -1817 0
-435 -1824 0
-436 -1825 0
-437 -1828 0
-438 -1829 0
-436 -1837 0
-437 -1841 0
-438 -1842 0
-433 -1851 0
-434 -1852 0
-437 -1856 0
-438 -1857 0
-433 -1858 0
-437 -1863 0
-438 -1864 0
-433 -1871 0
-435 -1872 0
-436 -1873 0
-437 -1876 0
-438 -1877 0
-433 -1879 0
-437 -1883 0
-438 -1884 0
-432 -1892 0
-433 -1893 0
-437 -1897 0
-438 -1898 0
-433 -1899 0
-435 -1900 0
-437 -1903 0
-438 -1904 0
-432 -1911 0
-433 -1912 0
-437 -1916 0
-438 -1917 0
-433 -1925 0
-436 -1927 0
-437 -1929 0
-438 -1930 0
-432 -1937 0
-436 -1938 0
-437 -1941 0
-438 -1942 0
-441 -553 0
-442 -555 0
-443 -556 0
-444 -557 0
-440 -593 0
-443 -598 0
-444 -599 0
-440 -600 0
-442 -604 0
-444 -606 0
-441 -608 0
-443 -612 0
-444 -613 0
-440 -647 0
-441 -648 0
-442 -650 0
-443 -652 0
-444 -653 0
-440 -654 0
-441 -655 0
-442 -657 0
-444 -660 0
-441 -662 0
-442 -663 0
-443 -666 0
-444 -667 0
-441 -676 0
-442 -678 0
-444 -680 0
-442 -698 0
-444 -701 0
-442 -704 0
-443 -706 0
-444 -707 0
-441 -730 0
-444 -734 0
-441 -755 0
-442 -758 0
-444 -760 0
-440 -788 0
-443 -791 0
-444 -792 0
-440 -794 0
-442 -796 0
-444 -798 0
-440 -807 0
-441 -809 0
-443 -813 0
-444 -814 0
-440 -816 0
-444 -820 0
-439 -844 0
-440 -845 0
-443 -848 0
-444 -849 0
-439 -850 0
-440 -851 0
-442 -854 0
-443 -857 0
-444 -858 0
-439 -859 0
-443 -863 0
-444 -864 0
-440 -865 0
-443 -870 0
-444 -871 0
-440 -872 0
-442 -876 0
-444 -878 0
-444 -885 0
-440 -893 0
-441 -894 0
-442 -896 0
-444 -897 0
-439 -936 0
-440 -938 0
-442 -941 0
-443 -943 0
-444 -944 0
-439 -945 0
-440 -947 0
-442 -948 0
-444 -950 0
-439 -958 0
-441 -961 0
-442 -963 0
-443 -965 0
-444 -966 0
-439 -967 0
-442 -970 0
-444 -972 0
-440 -988 0
-442 -991 0
-444 -993 0
-440 -995 0
-442 -997 0
-443 -999 0
-444 -1000 0
-441 -1003 0
-442 -1005 0
-444 -1007 0
-442 -1011 0
-443 -1013 0
-444 -1014 0
-439 -1021 0
-442 -1025 0
-443 -1026 0
-444 -1027 0
-439 -1028 0
-442 -1031 0
-444 -1034 0
-440 -1036 0
-441 -1037 0
-444 -1040 0
-439 -1087 0
-440 -1088 0
-443 -1091 0
-444 -1092 0
-439 -1093 0
-440 -1094 0
-442 -1096 0
-444 -1098 0
-439 -1099 0
-441 -1101 0
-443 -1103 0
-444 -1104 0
-439 -1105 0
-444 -1110 0
-440 -1123 0
-444 -1128 0
-440 -1129 0
-442 -1130 0
-443 -1133 0
-444 -1134 0
-441 -1136 0
-444 -1140 0
-443 -1145 0
-444 -1146 0
-439 -1193 0
-441 -1195 0
-442 -1197 0
-444 -1198 0
-441 -1225 0
-442 -1228 0
-443 -1231 0
-444 -1232 0
-439 -1261 0
-442 -1264 0
-444 -1266 0
-439 -1267 0
-442 -1269 0
-443 -1271 0
-444 -1272 0
-440 -1273 0
-441 -1274 0
-443 -1278 0
-444 -1279 0
-440 -1280 0
-441 -1281 0
-442 -1283 0
-443 -1285 0
-444 -1286 0
-440 -1288 0
-443 -1292 0
-444 -1293 0
-440 -1295 0
-442 -1298 0
-444 -1300 0
-441 -1303 0
-443 -1306 0
-444 -1307 0
-439 -1335 0
-443 -1340 0
-444 -1341 0
-439 -1342 0
-442 -1346 0
-443 -1347 0
-444 -1348 0
-441 -1350 0
-442 -1353 0
-443 -1354 0
-444 -1355 0
-441 -1357 0
-442 -1359 0
-444 -1362 0
-439 -1369 0
-441 -1370 0
-442 -1372 0
-443 -1374 0
-444 -1375 0
-439 -1376 0
-441 -1377 0
-442 -1379 0
-443 -1381 0
-444 -1382 0
-439 -1383 0
-442 -1385 0
-443 -1388 0
-444 -1389 0
-439 -1390 0
-442 -1394 0
-444 -1396 0
-441 -1405 0
-443 -1409 0
-444 -1410 0
-441 -1412 0
-444 -1416 0
-439 -1437 0
-443 -1441 0
-444 -1442 0
-439 -1443 0
-442 -1446 0
-444 -1448 0
-442 -1452 0
-443 -1455 0
-444 -1456 0
-440 -1478 0
-442 -1481 0
-443 -1483 0
-444 -1484 0
-440 -1485 0
-443 -1490 0
-444 -1491 0
-442 -1495 0
-443 -1497 0
-444 -1498 0
-440 -1533 0
-443 -1537 0
-444 -1538 0
-440 -1540 0
-442 -1543 0
-444 -1545 0
-441 -1554 0
-443 -1557 0
-444 -1558 0
-444 -1565 0
-443 -1585 0
-444 -1586 0
-442 -1589 0
-444 -1592 0
-440 -1634 0
-442 -1637 0
-443 -1638 0
-444 -1639 0
-440 -1640 0
-444 -1645 0
-441 -1647 0
-442 -1650 0
-443 -1653 0
-444 -1654 0
-442 -1659 0
-444 -1660 0
-441 -1717 0
-444 -1721 0
-442 -1783 0
-443 -1786 0
-444 -1787 0
-442 -1790 0
-443 -1792 0
-444 -1793 0
-443 -1798 0
-444 -1799 0
-441 -1800 0
-443 -1804 0
-444 -1805 0
-441 -1806 0
-442 -1808 0
-443 -1810 0
-444 -1811 0
-443 -1816 0
-444 -1817 0
-442 -1820 0
-444 -1823 0
-442 -1838 0
-443 -1841 0
-444 -1842 0
-440 -1845 0
-442 -1847 0
-443 -1849 0
-444 -1850 0
-440 -1852 0
-443 -1856 0
-444 -1857 0
-442 -1861 0
-443 -1863 0
-444 -1864 0
-441 -1872 0
-443 -1876 0
-444 -1877 0
-439 -1885 0
-443 -1890 0
-444 -1891 0
-439 -1892 0
-442 -1894 0
-443 -1897 0
-444 -1898 0
-441 -1900 0
-442 -1901 0
-443 -1903 0
-444 -1904 0
-442 -1907 0
-444 -1910 0
-439 -1931 0
-442 -1933 0
-443 -1935 0
-444 -1936 0
-439 -1937 0
-443 -1941 0
-444 -1942 0
-442 -1945 0
-443 -1948 0
-444 -1949 0
-451 -577 0
-447 -594 0
-450 -598 0
-451 -599 0
-447 -601 0
-449 -604 0
-451 -606 0
-448 -648 0
-449 -650 0
-450 -652 0
-451 -653 0
-448 -655 0
-449 -657 0
-451 -660 0
-445 -668 0
-449 -671 0
-451 -673 0
-447 -696 0
-449 -698 0
-451 -701 0
-447 -702 0
-449 -704 0
-450 -706 0
-451 -707 0
-446 -787 0
-450 -791 0
-451 -792 0
-446 -793 0
-449 -796 0
-451 -798 0
-445 -799 0
-450 -804 0
-451 -805 0
-446 -838 0
-447 -840 0
-449 -841 0
-450 -842 0
-451 -843 0
-445 -844 0
-447 -846 0
-450 -848 0
-451 -849 0
-445 -850 0
-447 -852 0
-449 -854 0
-450 -857 0
-451 -858 0
-447 -866 0
-450 -870 0
-451 -871 0
-447 -873 0
-449 -876 0
-451 -878 0
-447 -886 0
-449 -888 0
-450 -890 0
-451 -891 0
-445 -936 0
-446 -937 0
-449 -941 0
-450 -943 0
-451 -944 0
-445 -945 0
-446 -946 0
-449 -948 0
-451 -950 0
-445 -951 0
-449 -954 0
-450 -956 0
-451 -957 0
-446 -987 0
-449 -991 0
-451 -993 0
-446 -994 0
-449 -997 0
-450 -999 0
-451 -1000 0
-446 -1015 0
-447 -1016 0
-449 -1019 0
-451 -1020 0
-445 -1021 0
-447 -1022 0
-449 -1025 0
-450 -1026 0
-451 -1027 0
-445 -1028 0
-447 -1029 0
-449 -1031 0
-451 -1034 0
-445 -1087 0
-450 -1091 0
-451 -1092 0
-445 -1093 0
-449 -1096 0
-451 -1098 0
-451 -1128 0
-449 -1130 0
-450 -1133 0
-451 -1134 0
-447 -1161 0
-449 -1163 0
-451 -1166 0
-445 -1261 0
-449 -1264 0
-451 -1266 0
-445 -1267 0
-449 -1269 0
-450 -1271 0
-451 -1272 0
-448 -1274 0
-450 -1278 0
-451 -1279 0
-448 -1281 0
-449 -1283 0
-450 -1285 0
-451 -1286 0
-446 -1287 0
-450 -1292 0
-451 -1293 0
-446 -1294 0
-449 -1298 0
-451 -1300 0
-447 -1320 0
-448 -1321 0
-449 -1323 0
-450 -1324 0
-451 -1325 0
-446 -1326 0
-447 -1327 0
-449 -1330 0
-450 -1333 0
-451 -1334 0
-445 -1335 0
-447 -1336 0
-450 -1340 0
-451 -1341 0
-445 -1342 0
-447 -1343 0
-449 -1346 0
-450 -1347 0
-451 -1348 0
-446 -1363 0
-448 -1364 0
-449 -1365 0
-450 -1367 0
-451 -1368 0
-445 -1369 0
-448 -1370 0
-449 -1372 0
-450 -1374 0
-451 -1375 0
-445 -1376 0
-448 -1377 0
-449 -1379 0
-450 -1381 0
-451 -1382 0
-445 -1383 0
-446 -1384 0
-449 -1385 0
-450 -1388 0
-451 -1389 0
-445 -1390 0
-446 -1391 0
-449 -1394 0
-451 -1396 0
-448 -1431 0
-449 -1433 0
-450 -1435 0
-451 -1436 0
-445 -1437 0
-450 -1441 0
-451 -1442 0
-445 -1443 0
-449 -1446 0
-451 -1448 0
-449 -1452 0
-450 -1455 0
-451 -1456 0
-449 -1458 0
-450 -1461 0
-451 -1462 0
-447 -1479 0
-449 -1481 0
-450 -1483 0
-451 -1484 0
-447 -1486 0
-450 -1490 0
-451 -1491 0
-446 -1532 0
-450 -1537 0
-451 -1538 0
-446 -1539 0
-449 -1543 0
-451 -1545 0
-445 -1546 0
-450 -1550 0
-451 -1551 0
-447 -1581 0
-450 -1585 0
-451 -1586 0
-447 -1587 0
-449 -1589 0
-451 -1592 0
-449 -1637 0
-450 -1638 0
-451 -1639 0
-451 -1645 0
-449 -1783 0
-450 -1786 0
-451 -1787 0
-447 -1788 0
-449 -1790 0
-450 -1792 0
-451 -1793 0
-447 -1794 0
-450 -1798 0
-451 -1799 0
-448 -1800 0
-450 -1804 0
-451 -1805 0
-448 -1806 0
-449 -1808 0
-450 -1810 0
-451 -1811 0
-446 -1812 0
-450 -1816 0
-451 -1817 0
-446 -1818 0
-449 -1820 0
-451 -1823 0
-449 -1838 0
-450 -1841 0
-451 -1842 0
-446 -1844 0
-449 -1847 0
-450 -1849 0
-451 -1850 0
-446 -1851 0
-450 -1856 0
-451 -1857 0
-446 -1865 0
-447 -1866 0
-450 -1869 0
-451 -1870 0
-446 -1879 0
-449 -1881 0
-450 -1883 0
-451 -1884 0
-445 -1885 0
-446 -1886 0
-450 -1890 0
-451 -1891 0
-445 -1892 0
-446 -1893 0
-449 -1894 0
-450 -1897 0
-451 -1898 0
-446 -1925 0
-450 -1929 0
-451 -1930 0
-445 -1931 0
-449 -1933 0
-450 -1935 0
-451 -1936 0
-445 -1937 0
-450 -1941 0
-451 -1942 0
-449 -1945 0
-450 -1948 0
-451 -1949 0
-452 -546 0
-454 -548 0
-456 -549 0
-457 -551 0
-453 -572 0
-455 -573 0
-456 -576 0
-457 -577 0
-453 -578 0
-454 -580 0
-455 -581 0
-456 -584 0
-457 -586 0
-453 -600 0
-455 -602 0
-456 -605 0
-457 -606 0
-454 -608 0
-455 -609 0
-456 -611 0
-457 -613 0
-453 -620 0
-454 -621 0
-455 -622 0
-457 -625 0
-453 -633 0
-454 -634 0
-455 -635 0
-456 -638 0
-457 -640 0
-454 -643 0
-455 -644 0
-456 -645 0
-457 -646 0
-452 -687 0
-454 -689 0
-455 -690 0
-456 -694 0
-457 -695 0
-456 -705 0
-457 -707 0
-453 -715 0
-454 -716 0
-455 -717 0
-457 -721 0
-454 -723 0
-455 -724 0
-457 -728 0
-452 -749 0
-454 -750 0
-455 -751 0
-457 -754 0
-454 -781 0
-457 -786 0
-453 -794 0
-455 -795 0
-456 -797 0
-457 -798 0
-452 -799 0
-453 -800 0
-455 -801 0
-456 -803 0
-457 -805 0
-453 -807 0
-454 -809 0
-455 -810 0
-456 -812 0
-457 -814 0
-453 -816 0
-455 -818 0
-457 -820 0
-452 -821 0
-453 -823 0
-455 -825 0
-457 -830 0
-452 -850 0
-453 -851 0
-455 -853 0
-456 -856 0
-457 -858 0
-452 -859 0
-455 -862 0
-457 -864 0
-453 -865 0
-456 -869 0
-457 -871 0
-456 -889 0
-457 -891 0
-452 -905 0
-453 -907 0
-454 -908 0
-455 -909 0
-456 -913 0
-457 -914 0
-452 -922 0
-453 -924 0
-455 -925 0
-457 -928 0
-452 -929 0
-454 -932 0
-455 -933 0
-457 -935 0
-452 -980 0
-455 -983 0
-457 -986 0
-453 -995 0
-456 -998 0
-457 -1000 0
-454 -1003 0
-456 -1006 0
-457 -1007 0
-457 -1014 0
-452 -1028 0
-456 -1033 0
-457 -1034 0
-452 -1050 0
-453 -1051 0
-454 -1052 0
-455 -1053 0
-456 -1054 0
-457 -1055 0
-452 -1062 0
-453 -1064 0
-455 -1065 0
-456 -1068 0
-457 -1070 0
-452 -1071 0
-453 -1072 0
-455 -1073 0
-456 -1076 0
-457 -1077 0
-452 -1078 0
-454 -1081 0
-455 -1082 0
-456 -1085 0
-457 -1086 0
-452 -1117 0
-455 -1119 0
-456 -1121 0
-457 -1122 0
-453 -1129 0
-456 -1132 0
-457 -1134 0
-454 -1136 0
-456 -1139 0
-457 -1140 0
-456 -1144 0
-457 -1146 0
-452 -1147 0
-456 -1152 0
-457 -1153 0
-452 -1186 0
-454 -1188 0
-455 -1189 0
-456 -1190 0
-457 -1192 0
-452 -1240 0
-454 -1241 0
-456 -1244 0
-457 -1246 0
-452 -1254 0
-456 -1258 0
-457 -1260 0
-453 -1273 0
-454 -1274 0
-455 -1275 0
-457 -1279 0
-453 -1288 0
-455 -1289 0
-456 -1291 0
-457 -1293 0
-453 -1314 0
-455 -1315 0
-457 -1319 0
-454 -1321 0
-455 -1322 0
-457 -1325 0
-455 -1328 0
-456 -1332 0
-457 -1334 0
-452 -1335 0
-455 -1337 0
-456 -1339 0
-457 -1341 0
-454 -1350 0
-455 -1351 0
-457 -1355 0
-454 -1357 0
-455 -1358 0
-456 -1361 0
-457 -1362 0
-452 -1376 0
-454 -1377 0
-455 -1378 0
-457 -1382 0
-452 -1390 0
-455 -1392 0
-456 -1395 0
-457 -1396 0
-454 -1405 0
-455 -1406 0
-456 -1408 0
-457 -1410 0
-454 -1412 0
-455 -1413 0
-457 -1416 0
-452 -1417 0
-454 -1418 0
-455 -1419 0
-457 -1423 0
-452 -1443 0
-455 -1444 0
-457 -1448 0
-453 -1457 0
-456 -1460 0
-457 -1462 0
-453 -1464 0
-457 -1468 0
-453 -1485 0
-456 -1489 0
-457 -1491 0
-457 -1498 0
-453 -1509 0
-454 -1510 0
-456 -1512 0
-457 -1513 0
-453 -1521 0
-457 -1525 0
-454 -1528 0
-457 -1531 0
-452 -1575 0
-457 -1580 0
-455 -1588 0
-456 -1591 0
-457 -1592 0
-453 -1600 0
-454 -1601 0
-456 -1605 0
-457 -1606 0
-453 -1615 0
-456 -1618 0
-457 -1620 0
-452 -1621 0
-453 -1622 0
-456 -1625 0
-457 -1626 0
-454 -1629 0
-456 -1632 0
-457 -1633 0
-452 -1668 0
-456 -1673 0
-457 -1674 0
-455 -1676 0
-456 -1679 0
-457 -1680 0
-452 -1707 0
-454 -1709 0
-456 -1713 0
-457 -1715 0
-454 -1762 0
-455 -1763 0
-456 -1765 0
-457 -1767 0
-455 -1775 0
-456 -1777 0
-457 -1779 0
-456 -1791 0
-457 -1793 0
-454 -1806 0
-457 -1811 0
-456 -1822 0
-457 -1823 0
-454 -1824 0
-457 -1829 0
-453 -1845 0
-456 -1848 0
-457 -1850 0
-456 -1868 0
-457 -1870 0
-454 -1872 0
-456 -1875 0
-457 -1877 0
-452 -1892 0
-456 -1896 0
-457 -1898 0
-454 -1900 0
-456 -1902 0
-457 -1904 0
-456 -1909 0
-457 -1910 0
-452 -1911 0
-456 -1915 0
-457 -1917 0
-452 -1937 0
-456 -1940 0
-457 -1942 0
-455 -1943 0
-456 -1947 0
-457 -1949 0
-458 -537 0
-460 -539 0
-461 -540 0
-462 -541 0
-463 -542 0
-464 -543 0
-465 -544 0
-466 -545 0
-459 -572 0
-461 -573 0
-462 -574 0
-464 -575 0
-466 -577 0
-459 -587 0
-460 -589 0
-461 -590 0
-462 -591 0
-466 -592 0
-459 -593 0
-462 -595 0
-464 -596 0
-465 -598 0
-466 -599 0
-460 -608 0
-461 -609 0
-462 -610 0
-465 -612 0
-466 -613 0
-459 -614 0
-460 -615 0
-462 -616 0
-465 -618 0
-466 -619 0
-459 -627 0
-460 -628 0
-464 -629 0
-466 -631 0
-460 -643 0
-461 -644 0
-466 -646 0
-458 -681 0
-460 -683 0
-465 -685 0
-466 -686 0
-461 -697 0
-463 -698 0
-464 -699 0
-466 -701 0
-459 -708 0
-460 -709 0
-462 -710 0
-463 -711 0
-464 -712 0
-466 -714 0
-460 -723 0
-461 -724 0
-462 -725 0
-463 -726 0
-464 -727 0
-466 -728 0
-458 -743 0
-460 -744 0
-463 -745 0
-464 -746 0
-466 -748 0
-460 -775 0
-461 -776 0
-464 -777 0
-465 -779 0
-466 -780 0
-459 -788 0
-462 -789 0
-464 -790 0
-465 -791 0
-466 -792 0
-458 -799 0
-459 -800 0
-461 -801 0
-462 -802 0
-465 -804 0
-466 -805 0
-459 -807 0
-460 -809 0
-461 -810 0
-462 -811 0
-465 -813 0
-466 -814 0
-459 -816 0
-461 -818 0
-464 -819 0
-466 -820 0
-458 -831 0
-459 -833 0
-461 -835 0
-466 -837 0
-458 -844 0
-459 -845 0
-462 -847 0
-465 -848 0
-466 -849 0
-458 -859 0
-461 -862 0
-465 -863 0
-466 -864 0
-459 -872 0
-461 -874 0
-462 -875 0
-463 -876 0
-466 -878 0
-462 -887 0
-463 -888 0
-465 -890 0
-466 -891 0
-458 -898 0
-459 -900 0
-460 -901 0
-462 -902 0
-465 -903 0
-466 -904 0
-458 -915 0
-459 -917 0
-462 -918 0
-464 -919 0
-466 -921 0
-458 -929 0
-460 -932 0
-461 -933 0
-462 -934 0
-466 -935 0
-458 -973 0
-462 -976 0
-465 -978 0
-466 -979 0
-459 -988 0
-461 -989 0
-462 -990 0
-463 -991 0
-464 -992 0
-466 -993 0
-460 -1003 0
-462 -1004 0
-463 -1005 0
-466 -1007 0
-462 -1010 0
-463 -1011 0
-464 -1012 0
-465 -1013 0
-466 -1014 0
-458 -1021 0
-461 -1023 0
-462 -1024 0
-463 -1025 0
-465 -1026 0
-466 -1027 0
-458 -1041 0
-459 -1042 0
-460 -1043 0
-462 -1044 0
-463 -1045 0
-464 -1046 0
-465 -1048 0
-466 -1049 0
-458 -1056 0
-459 -1058 0
-463 -1059 0
-464 -1060 0
-466 -1061 0
-458 -1071 0
-459 -1072 0
-461 -1073 0
-463 -1074 0
-464 -1075 0
-466 -1077 0
-458 -1078 0
-460 -1081 0
-461 -1082 0
-463 -1083 0
-464 -1084 0
-466 -1086 0
-458 -1111 0
-463 -1113 0
-464 -1114 0
-465 -1115 0
-466 -1116 0
-459 -1123 0
-461 -1124 0
-462 -1125 0
-464 -1126 0
-466 -1128 0
-460 -1136 0
-462 -1137 0
-464 -1138 0
-466 -1140 0
-464 -1143 0
-465 -1145 0
-466 -1146 0
-458 -1154 0
-461 -1156 0
-464 -1157 0
-465 -1159 0
-466 -1160 0
-458 -1179 0
-460 -1181 0
-462 -1182 0
-463 -1183 0
-464 -1184 0
-466 -1185 0
-458 -1233 0
-460 -1234 0
-461 -1235 0
-462 -1236 0
-464 -1237 0
-466 -1239 0
-458 -1247 0
-461 -1249 0
-462 -1250 0
-464 -1251 0
-465 -1252 0
-466 -1253 0
-459 -1280 0
-460 -1281 0
-461 -1282 0
-463 -1283 0
-465 -1285 0
-466 -1286 0
-459 -1295 0
-461 -1296 0
-462 -1297 0
-463 -1298 0
-464 -1299 0
-466 -1300 0
-459 -1308 0
-463 -1309 0
-464 -1310 0
-465 -1312 0
-466 -1313 0
-460 -1321 0
-461 -1322 0
-463 -1323 0
-465 -1324 0
-466 -1325 0
-461 -1328 0
-462 -1329 0
-463 -1330 0
-464 -1331 0
-465 -1333 0
-466 -1334 0
-458 -1342 0
-461 -1344 0
-462 -1345 0
-463 -1346 0
-465 -1347 0
-466 -1348 0
-460 -1350 0
-461 -1351 0
-462 -1352 0
-463 -1353 0
-465 -1354 0
-466 -1355 0
-460 -1357 0
-461 -1358 0
-463 -1359 0
-464 -1360 0
-466 -1362 0
-458 -1369 0
-460 -1370 0
-462 -1371 0
-463 -1372 0
-465 -1374 0
-466 -1375 0
-458 -1383 0
-463 -1385 0
-464 -1386 0
-465 -1388 0
-466 -1389 0
-461 -1397 0
-462 -1398 0
-463 -1399 0
-464 -1400 0
-465 -1402 0
-466 -1403 0
-460 -1405 0
-461 -1406 0
-464 -1407 0
-465 -1409 0
-466 -1410 0
-460 -1412 0
-461 -1413 0
-462 -1414 0
-464 -1415 0
-466 -1416 0
-458 -1424 0
-460 -1425 0
-461 -1426 0
-462 -1427 0
-464 -1428 0
-466 -1430 0
-458 -1437 0
-462 -1438 0
-464 -1439 0
-465 -1441 0
-466 -1442 0
-461 -1450 0
-462 -1451 0
-463 -1452 0
-464 -1453 0
-465 -1455 0
-466 -1456 0
-459 -1457 0
-463 -1458 0
-464 -1459 0
-465 -1461 0
-466 -1462 0
-459 -1470 0
-461 -1472 0
-462 -1473 0
-463 -1474 0
-464 -1475 0
-466 -1477 0
-459 -1478 0
-461 -1480 0
-463 -1481 0
-464 -1482 0
-465 -1483 0
-466 -1484 0
-462 -1494 0
-463 -1495 0
-464 -1496 0
-465 -1497 0
-466 -1498 0
-459 -1500 0
-460 -1501 0
-461 -1502 0
-462 -1503 0
-463 -1504 0
-464 -1505 0
-465 -1506 0
-466 -1507 0
-459 -1515 0
-461 -1516 0
-463 -1517 0
-466 -1519 0
-460 -1528 0
-463 -1529 0
-464 -1530 0
-466 -1531 0
-458 -1566 0
-461 -1569 0
-463 -1570 0
-464 -1571 0
-465 -1573 0
-466 -1574 0
-461 -1582 0
-462 -1583 0
-464 -1584 0
-465 -1585 0
-466 -1586 0
-459 -1593 0
-460 -1594 0
-461 -1595 0
-463 -1596 0
-465 -1598 0
-466 -1599 0
-459 -1608 0
-461 -1609 0
-462 -1610 0
-463 -1611 0
-464 -1612 0
-466 -1613 0
-458 -1621 0
-459 -1622 0
-462 -1623 0
-463 -1624 0
-466 -1626 0
-460 -1629 0
-462 -1630 0
-463 -1631 0
-466 -1633 0
-458 -1661 0
-461 -1663 0
-462 -1664 0
-463 -1665 0
-465 -1666 0
-466 -1667 0
-462 -1682 0
-463 -1683 0
-465 -1685 0
-466 -1686 0
-458 -1701 0
-460 -1703 0
-461 -1704 0
-463 -1705 0
-466 -1706 0
-460 -1756 0
-461 -1757 0
-462 -1758 0
-463 -1759 0
-466 -1761 0
-461 -1769 0
-463 -1770 0
-464 -1771 0
-465 -1772 0
-466 -1773 0
-461 -1795 0
-462 -1796 0
-464 -1797 0
-465 -1798 0
-466 -1799 0
-460 -1800 0
-461 -1801 0
-464 -1802 0
-465 -1804 0
-466 -1805 0
-461 -1813 0
-462 -1814 0
-465 -1816 0
-466 -1817 0
-460 -1830 0
-461 -1831 0
-462 -1832 0
-463 -1833 0
-466 -1835 0
-461 -1836 0
-462 -1837 0
-463 -1838 0
-464 -1839 0
-465 -1841 0
-466 -1842 0
-459 -1852 0
-461 -1853 0
-464 -1854 0
-465 -1856 0
-466 -1857 0
-464 -1867 0
-465 -1869 0
-466 -1870 0
-460 -1872 0
-462 -1873 0
-464 -1874 0
-465 -1876 0
-466 -1877 0
-458 -1885 0
-461 -1887 0
-462 -1888 0
-464 -1889 0
-465 -1890 0
-466 -1891 0
-460 -1900 0
-463 -1901 0
-465 -1903 0
-466 -1904 0
-462 -1906 0
-463 -1907 0
-464 -1908 0
-466 -1910 0
-458 -1918 0
-461 -1920 0
-462 -1921 0
-463 -1922 0
-466 -1924 0
-458 -1931 0
-461 -1932 0
-463 -1933 0
-465 -1935 0
-466 -1936 0
-461 -1952 0
-462 -1953 0
-463 -1954 0
-464 -1955 0
-465 -1957 0
-466 -1958 0
-467 -524 0
-470 -526 0
-471 -527 0
-472 -529 0
-468 -579 0
-469 -580 0
-470 -581 0
-471 -583 0
-472 -586 0
-468 -588 0
-469 -589 0
-470 -590 0
-472 -592 0
-468 -594 0
-471 -596 0
-472 -599 0
-468 -601 0
-470 -602 0
-472 -606 0
-469 -628 0
-471 -629 0
-472 -631 0
-469 -634 0
-470 -635 0
-472 -640 0
-467 -668 0
-472 -673 0
-468 -696 0
-470 -697 0
-471 -699 0
-472 -701 0
-468 -702 0
-472 -707 0
-469 -709 0
-471 -712 0
-472 -714 0
-469 -716 0
-470 -717 0
-471 -719 0
-472 -721 0
-469 -775 0
-470 -776 0
-471 -777 0
-472 -780 0
-469 -781 0
-471 -784 0
-472 -786 0
-471 -790 0
-472 -792 0
-470 -795 0
-472 -798 0
-467 -799 0
-470 -801 0
-472 -805 0
-468 -817 0
-470 -818 0
-471 -819 0
-472 -820 0
-467 -821 0
-468 -824 0
-470 -825 0
-471 -828 0
-472 -830 0
-467 -831 0
-468 -834 0
-470 -835 0
-472 -837 0
-468 -866 0
-471 -868 0
-472 -871 0
-468 -873 0
-470 -874 0
-472 -878 0
-468 -880 0
-470 -881 0
-471 -883 0
-472 -885 0
-467 -915 0
-471 -919 0
-472 -921 0
-467 -922 0
-470 -925 0
-472 -928 0
-470 -989 0
-471 -992 0
-472 -993 0
-472 -1000 0
-468 -1009 0
-471 -1012 0
-472 -1014 0
-467 -1056 0
-471 -1060 0
-472 -1061 0
-467 -1062 0
-470 -1065 0
-471 -1067 0
-472 -1070 0
-467 -1071 0
-470 -1073 0
-471 -1075 0
-472 -1077 0
-470 -1124 0
-471 -1126 0
-472 -1128 0
-471 -1131 0
-472 -1134 0
-468 -1142 0
-471 -1143 0
-472 -1146 0
-467 -1147 0
-468 -1148 0
-471 -1151 0
-472 -1153 0
-467 -1154 0
-468 -1155 0
-470 -1156 0
-471 -1157 0
-472 -1160 0
-467 -1247 0
-470 -1249 0
-471 -1251 0
-472 -1253 0
-467 -1254 0
-471 -1257 0
-472 -1260 0
-469 -1274 0
-470 -1275 0
-471 -1277 0
-472 -1279 0
-469 -1281 0
-470 -1282 0
-472 -1286 0
-468 -1302 0
-469 -1303 0
-470 -1304 0
-471 -1305 0
-472 -1307 0
-471 -1310 0
-472 -1313 0
-470 -1315 0
-472 -1319 0
-468 -1327 0
-470 -1328 0
-471 -1331 0
-472 -1334 0
-467 -1335 0
-468 -1336 0
-470 -1337 0
-471 -1338 0
-472 -1341 0
-467 -1342 0
-468 -1343 0
-470 -1344 0
-472 -1348 0
-469 -1357 0
-470 -1358 0
-471 -1360 0
-472 -1362 0
-467 -1383 0
-471 -1386 0
-472 -1389 0
-467 -1390 0
-470 -1392 0
-472 -1396 0
-470 -1397 0
-471 -1400 0
-472 -1403 0
-469 -1412 0
-470 -1413 0
-471 -1415 0
-472 -1416 0
-467 -1417 0
-469 -1418 0
-470 -1419 0
-471 -1421 0
-472 -1423 0
-467 -1424 0
-469 -1425 0
-470 -1426 0
-471 -1428 0
-472 -1430 0
-467 -1437 0
-471 -1439 0
-472 -1442 0
-467 -1443 0
-470 -1444 0
-471 -1447 0
-472 -1448 0
-471 -1459 0
-472 -1462 0
-468 -1465 0
-472 -1468 0
-468 -1471 0
-470 -1472 0
-471 -1475 0
-472 -1477 0
-470 -1516 0
-472 -1519 0
-471 -1523 0
-472 -1525 0
-470 -1609 0
-471 -1612 0
-472 -1613 0
-472 -1620 0
-467 -1621 0
-472 -1626 0
-468 -1675 0
-470 -1676 0
-471 -1678 0
-472 -1680 0
-468 -1681 0
-472 -1686 0
-470 -1769 0
-471 -1771 0
-472 -1773 0
-470 -1775 0
-472 -1779 0
-468 -1788 0
-472 -1793 0
-468 -1794 0
-470 -1795 0
-471 -1797 0
-472 -1799 0
-470 -1813 0
-472 -1817 0
-471 -1821 0
-472 -1823 0
-469 -1824 0
-471 -1827 0
-472 -1829 0
-469 -1830 0
-470 -1831 0
-472 -1835 0
-470 -1836 0
-471 -1839 0
-472 -1842 0
-472 -1850 0
-470 -1853 0
-471 -1854 0
-472 -1857 0
-468 -1859 0
-470 -1860 0
-472 -1864 0
-471 -1908 0
-472 -1910 0
-467 -1911 0
-471 -1914 0
-472 -1917 0
-467 -1918 0
-470 -1920 0
-472 -1924 0
-470 -1943 0
-471 -1946 0
-472 -1949 0
-470 -1952 0
-471 -1955 0
-472 -1958 0
-475 -519 0
-476 -520 0
-477 -521 0
-478 -522 0
-479 -523 0
-474 -578 0
-475 -581 0
-477 -584 0
-478 -585 0
-479 -586 0
-474 -587 0
-475 -590 0
-476 -591 0
-479 -592 0
-475 -609 0
-476 -610 0
-477 -611 0
-478 -612 0
-479 -613 0
-474 -614 0
-476 -616 0
-477 -617 0
-478 -618 0
-479 -619 0
-474 -620 0
-475 -622 0
-479 -625 0
-475 -644 0
-477 -645 0
-479 -646 0
-477 -665 0
-478 -666 0
-479 -667 0
-475 -724 0
-476 -725 0
-479 -728 0
-474 -788 0
-476 -789 0
-478 -791 0
-479 -792 0
-474 -794 0
-475 -795 0
-477 -797 0
-479 -798 0
-473 -799 0
-474 -800 0
-475 -801 0
-476 -802 0
-477 -803 0
-478 -804 0
-479 -805 0
-474 -816 0
-475 -818 0
-479 -820 0
-473 -821 0
-474 -823 0
-475 -825 0
-476 -826 0
-478 -829 0
-479 -830 0
-473 -831 0
-474 -833 0
-475 -835 0
-477 -836 0
-479 -837 0
-474 -839 0
-478 -842 0
-479 -843 0
-473 -844 0
-474 -845 0
-476 -847 0
-478 -848 0
-479 -849 0
-473 -850 0
-474 -851 0
-475 -853 0
-477 -856 0
-478 -857 0
-479 -858 0
-473 -859 0
-475 -862 0
-478 -863 0
-479 -864 0
-474 -893 0
-476 -895 0
-479 -897 0
-473 -898 0
-474 -900 0
-476 -902 0
-478 -903 0
-479 -904 0
-473 -905 0
-474 -907 0
-475 -909 0
-476 -910 0
-477 -913 0
-479 -914 0
-473 -929 0
-475 -933 0
-476 -934 0
-479 -935 0
-473 -958 0
-476 -962 0
-478 -965 0
-479 -966 0
-474 -988 0
-475 -989 0
-476 -990 0
-479 -993 0
-474 -995 0
-476 -996 0
-477 -998 0
-478 -999 0
-479 -1000 0
-476 -1010 0
-478 -1013 0
-479 -1014 0
-475 -1017 0
-476 -1018 0
-479 -1020 0
-473 -1021 0
-475 -1023 0
-476 -1024 0
-478 -1026 0
-479 -1027 0
-473 -1028 0
-476 -1030 0
-477 -1033 0
-479 -1034 0
-474 -1036 0
-477 -1039 0
-479 -1040 0
-473 -1041 0
-474 -1042 0
-476 -1044 0
-477 -1047 0
-478 -1048 0
-479 -1049 0
-473 -1050 0
-474 -1051 0
-475 -1053 0
-477 -1054 0
-479 -1055 0
-473 -1078 0
-475 -1082 0
-477 -1085 0
-479 -1086 0
-473 -1099 0
-477 -1102 0
-478 -1103 0
-479 -1104 0
-474 -1123 0
-475 -1124 0
-476 -1125 0
-477 -1127 0
-479 -1128 0
-474 -1129 0
-477 -1132 0
-478 -1133 0
-479 -1134 0
-477 -1144 0
-478 -1145 0
-479 -1146 0
-473 -1147 0
-476 -1149 0
-477 -1152 0
-479 -1153 0
-473 -1154 0
-475 -1156 0
-477 -1158 0
-478 -1159 0
-479 -1160 0
-475 -1162 0
-477 -1165 0
-479 -1166 0
-473 -1167 0
-476 -1170 0
-477 -1171 0
-479 -1172 0
-475 -1226 0
-476 -1227 0
-477 -1230 0
-478 -1231 0
-479 -1232 0
-473 -1233 0
-475 -1235 0
-476 -1236 0
-477 -1238 0
-479 -1239 0
-473 -1240 0
-476 -1242 0
-477 -1244 0
-478 -1245 0
-479 -1246 0
-474 -1288 0
-475 -1289 0
-477 -1291 0
-478 -1292 0
-479 -1293 0
-474 -1295 0
-475 -1296 0
-476 -1297 0
-479 -1300 0
-474 -1308 0
-477 -1311 0
-478 -1312 0
-479 -1313 0
-474 -1314 0
-475 -1315 0
-476 -1316 0
-478 -1318 0
-479 -1319 0
-475 -1328 0
-476 -1329 0
-477 -1332 0
-478 -1333 0
-479 -1334 0
-473 -1335 0
-475 -1337 0
-477 -1339 0
-478 -1340 0
-479 -1341 0
-473 -1342 0
-475 -1344 0
-476 -1345 0
-478 -1347 0
-479 -1348 0
-475 -1358 0
-477 -1361 0
-479 -1362 0
-477 -1366 0
-478 -1367 0
-479 -1368 0
-473 -1369 0
-476 -1371 0
-477 -1373 0
-478 -1374 0
-479 -1375 0
-473 -1376 0
-475 -1378 0
-478 -1381 0
-479 -1382 0
-475 -1397 0
-476 -1398 0
-477 -1401 0
-478 -1402 0
-479 -1403 0
-475 -1413 0
-476 -1414 0
-479 -1416 0
-473 -1417 0
-475 -1419 0
-478 -1422 0
-479 -1423 0
-473 -1424 0
-475 -1426 0
-476 -1427 0
-477 -1429 0
-479 -1430 0
-476 -1432 0
-478 -1435 0
-479 -1436 0
-475 -1450 0
-476 -1451 0
-477 -1454 0
-478 -1455 0
-479 -1456 0
-474 -1457 0
-477 -1460 0
-478 -1461 0
-479 -1462 0
-474 -1464 0
-478 -1467 0
-479 -1468 0
-474 -1470 0
-475 -1472 0
-476 -1473 0
-477 -1476 0
-479 -1477 0
-474 -1478 0
-475 -1480 0
-478 -1483 0
-479 -1484 0
-474 -1485 0
-476 -1487 0
-477 -1489 0
-478 -1490 0
-479 -1491 0
-476 -1494 0
-478 -1497 0
-479 -1498 0
-474 -1500 0
-475 -1502 0
-476 -1503 0
-478 -1506 0
-479 -1507 0
-474 -1509 0
-477 -1512 0
-479 -1513 0
-479 -1531 0
-475 -1555 0
-478 -1557 0
-479 -1558 0
-475 -1582 0
-476 -1583 0
-478 -1585 0
-479 -1586 0
-475 -1588 0
-477 -1591 0
-479 -1592 0
-474 -1593 0
-475 -1595 0
-477 -1597 0
-478 -1598 0
-479 -1599 0
-474 -1600 0
-476 -1602 0
-477 -1605 0
-479 -1606 0
-476 -1630 0
-477 -1632 0
-479 -1633 0
-475 -1648 0
-476 -1649 0
-477 -1652 0
-478 -1653 0
-479 -1654 0
-475 -1676 0
-477 -1679 0
-479 -1680 0
-476 -1682 0
-477 -1684 0
-478 -1685 0
-479 -1686 0
-475 -1689 0
-477 -1692 0
-479 -1693 0
-475 -1757 0
-476 -1758 0
-477 -1760 0
-479 -1761 0
-475 -1763 0
-477 -1765 0
-478 -1766 0
-479 -1767 0
-476 -1789 0
-477 -1791 0
-478 -1792 0
-479 -1793 0
-475 -1795 0
-476 -1796 0
-478 -1798 0
-479 -1799 0
-475 -1801 0
-477 -1803 0
-478 -1804 0
-479 -1805 0
-476 -1807 0
-478 -1810 0
-479 -1811 0
-476 -1825 0
-478 -1828 0
-479 -1829 0
-475 -1831 0
-476 -1832 0
-477 -1834 0
-479 -1835 0
-475 -1880 0
-478 -1883 0
-479 -1884 0
-473 -1885 0
-475 -1887 0
-476 -1888 0
-478 -1890 0
-479 -1891 0
-473 -1892 0
-477 -1896 0
-478 -1897 0
-479 -1898 0
-476 -1906 0
-477 -1909 0
-479 -1910 0
-473 -1911 0
-477 -1915 0
-478 -1916 0
-479 -1917 0
-473 -1918 0
-475 -1920 0
-476 -1921 0
-477 -1923 0
-479 -1924 0
-475 -1926 0
-476 -1927 0
-477 -1928 0
-478 -1929 0
-479 -1930 0
-473 -1931 0
-475 -1932 0
-477 -1934 0
-478 -1935 0
-479 -1936 0
-473 -1937 0
-476 -1938 0
-477 -1940 0
-478 -1941 0
-479 -1942 0
-484 -573 0
-485 -574 0
-486 -576 0
-488 -577 0
-482 -579 0
-483 -580 0
-484 -581 0
-486 -584 0
-487 -585 0
-488 -586 0
-482 -588 0
-483 -589 0
-484 -590 0
-485 -591 0
-488 -592 0
-483 -615 0
-485 -616 0
-486 -617 0
-487 -618 0
-488 -619 0
-483 -621 0
-484 -622 0
-488 -625 0
-481 -787 0
-485 -789 0
-487 -791 0
-488 -792 0
-481 -793 0
-484 -795 0
-486 -797 0
-488 -798 0
-481 -806 0
-482 -808 0
-483 -809 0
-484 -810 0
-485 -811 0
-486 -812 0
-487 -813 0
-488 -814 0
-480 -821 0
-481 -822 0
-482 -824 0
-484 -825 0
-485 -826 0
-487 -829 0
-488 -830 0
-480 -831 0
-481 -832 0
-482 -834 0
-484 -835 0
-486 -836 0
-488 -837 0
-480 -844 0
-482 -846 0
-485 -847 0
-487 -848 0
-488 -849 0
-480 -850 0
-482 -852 0
-484 -853 0
-486 -856 0
-487 -857 0
-488 -858 0
-481 -879 0
-482 -880 0
-484 -881 0
-485 -882 0
-486 -884 0
-488 -885 0
-482 -886 0
-485 -887 0
-486 -889 0
-487 -890 0
-488 -891 0
-480 -898 0
-481 -899 0
-483 -901 0
-485 -902 0
-487 -903 0
-488 -904 0
-480 -905 0
-481 -906 0
-483 -908 0
-484 -909 0
-485 -910 0
-486 -913 0
-488 -914 0
-480 -951 0
-485 -953 0
-487 -956 0
-488 -957 0
-481 -987 0
-484 -989 0
-485 -990 0
-488 -993 0
-481 -994 0
-485 -996 0
-486 -998 0
-487 -999 0
-488 -1000 0
-481 -1001 0
-482 -1002 0
-483 -1003 0
-485 -1004 0
-486 -1006 0
-488 -1007 0
-480 -1021 0
-482 -1022 0
-484 -1023 0
-485 -1024 0
-487 -1026 0
-488 -1027 0
-480 -1028 0
-482 -1029 0
-485 -1030 0
-486 -1033 0
-488 -1034 0
-480 -1041 0
-483 -1043 0
-485 -1044 0
-486 -1047 0
-487 -1048 0
-488 -1049 0
-480 -1050 0
-483 -1052 0
-484 -1053 0
-486 -1054 0
-488 -1055 0
-480 -1071 0
-484 -1073 0
-486 -1076 0
-488 -1077 0
-484 -1124 0
-485 -1125 0
-486 -1127 0
-488 -1128 0
-486 -1132 0
-487 -1133 0
-488 -1134 0
-482 -1135 0
-483 -1136 0
-485 -1137 0
-486 -1139 0
-488 -1140 0
-480 -1147 0
-482 -1148 0
-485 -1149 0
-486 -1152 0
-488 -1153 0
-480 -1154 0
-482 -1155 0
-484 -1156 0
-486 -1158 0
-487 -1159 0
-488 -1160 0
-480 -1233 0
-483 -1234 0
-484 -1235 0
-485 -1236 0
-486 -1238 0
-488 -1239 0
-480 -1240 0
-483 -1241 0
-485 -1242 0
-486 -1244 0
-487 -1245 0
-488 -1246 0
-481 -1287 0
-484 -1289 0
-486 -1291 0
-487 -1292 0
-488 -1293 0
-481 -1294 0
-484 -1296 0
-485 -1297 0
-488 -1300 0
-481 -1301 0
-482 -1302 0
-483 -1303 0
-484 -1304 0
-487 -1306 0
-488 -1307 0
-486 -1311 0
-487 -1312 0
-488 -1313 0
-484 -1315 0
-485 -1316 0
-487 -1318 0
-488 -1319 0
-482 -1320 0
-483 -1321 0
-484 -1322 0
-487 -1324 0
-488 -1325 0
-480 -1335 0
-482 -1336 0
-484 -1337 0
-486 -1339 0
-487 -1340 0
-488 -1341 0
-480 -1342 0
-482 -1343 0
-484 -1344 0
-485 -1345 0
-487 -1347 0
-488 -1348 0
-481 -1349 0
-483 -1350 0
-484 -1351 0
-485 -1352 0
-487 -1354 0
-488 -1355 0
-480 -1369 0
-483 -1370 0
-485 -1371 0
-486 -1373 0
-487 -1374 0
-488 -1375 0
-480 -1376 0
-483 -1377 0
-484 -1378 0
-487 -1381 0
-488 -1382 0
-484 -1397 0
-485 -1398 0
-486 -1401 0
-487 -1402 0
-488 -1403 0
-483 -1405 0
-484 -1406 0
-486 -1408 0
-487 -1409 0
-488 -1410 0
-480 -1417 0
-483 -1418 0
-484 -1419 0
-487 -1422 0
-488 -1423 0
-480 -1424 0
-483 -1425 0
-484 -1426 0
-485 -1427 0
-486 -1429 0
-488 -1430 0
-484 -1450 0
-485 -1451 0
-486 -1454 0
-487 -1455 0
-488 -1456 0
-481 -1463 0
-482 -1465 0
-487 -1467 0
-488 -1468 0
-481 -1469 0
-482 -1471 0
-484 -1472 0
-485 -1473 0
-486 -1476 0
-488 -1477 0
-482 -1479 0
-484 -1480 0
-487 -1483 0
-488 -1484 0
-482 -1486 0
-485 -1487 0
-486 -1489 0
-487 -1490 0
-488 -1491 0
-481 -1499 0
-483 -1501 0
-484 -1502 0
-485 -1503 0
-487 -1506 0
-488 -1507 0
-481 -1508 0
-483 -1510 0
-486 -1512 0
-488 -1513 0
-480 -1546 0
-484 -1548 0
-487 -1550 0
-488 -1551 0
-482 -1581 0
-484 -1582 0
-485 -1583 0
-487 -1585 0
-488 -1586 0
-482 -1587 0
-484 -1588 0
-486 -1591 0
-488 -1592 0
-483 -1594 0
-484 -1595 0
-486 -1597 0
-487 -1598 0
-488 -1599 0
-483 -1601 0
-485 -1602 0
-486 -1605 0
-488 -1606 0
-480 -1621 0
-485 -1623 0
-486 -1625 0
-488 -1626 0
-482 -1675 0
-484 -1676 0
-486 -1679 0
-488 -1680 0
-482 -1681 0
-485 -1682 0
-486 -1684 0
-487 -1685 0
-488 -1686 0
-483 -1756 0
-484 -1757 0
-485 -1758 0
-486 -1760 0
-488 -1761 0
-483 -1762 0
-484 -1763 0
-486 -1765 0
-487 -1766 0
-488 -1767 0
-482 -1788 0
-485 -1789 0
-486 -1791 0
-487 -1792 0
-488 -1793 0
-482 -1794 0
-484 -1795 0
-485 -1796 0
-487 -1798 0
-488 -1799 0
-483 -1800 0
-484 -1801 0
-486 -1803 0
-487 -1804 0
-488 -1805 0
-483 -1806 0
-485 -1807 0
-487 -1810 0
-488 -1811 0
-483 -1824 0
-485 -1825 0
-487 -1828 0
-488 -1829 0
-483 -1830 0
-484 -1831 0
-485 -1832 0
-486 -1834 0
-488 -1835 0
-481 -1858 0
-482 -1859 0
-484 -1860 0
-486 -1862 0
-487 -1863 0
-488 -1864 0
-481 -1865 0
-482 -1866 0
-486 -1868 0
-487 -1869 0
-488 -1870 0
-481 -1871 0
-483 -1872 0
-485 -1873 0
-486 -1875 0
-487 -1876 0
-488 -1877 0
-480 -1885 0
-481 -1886 0
-484 -1887 0
-485 -1888 0
-487 -1890 0
-488 -1891 0
-480 -1892 0
-481 -1893 0
-486 -1896 0
-487 -1897 0
-488 -1898 0
-481 -1899 0
-483 -1900 0
-486 -1902 0
-487 -1903 0
-488 -1904 0
-480 -1911 0
-481 -1912 0
-486 -1915 0
-487 -1916 0
-488 -1917 0
-480 -1918 0
-481 -1919 0
-484 -1920 0
-485 -1921 0
-486 -1923 0
-488 -1924 0
-480 -1931 0
-484 -1932 0
-486 -1934 0
-487 -1935 0
-488 -1936 0
-480 -1937 0
-485 -1938 0
-486 -1940 0
-487 -1941 0
-488 -1942 0
-491 -511 0
-492 -512 0
-493 -513 0
-494 -514 0
-495 -516 0
-492 -573 0
-494 -576 0
-495 -577 0
-490 -588 0
-491 -589 0
-492 -590 0
-495 -592 0
-490 -601 0
-492 -602 0
-493 -604 0
-494 -605 0
-495 -606 0
-491 -621 0
-492 -622 0
-493 -623 0
-495 -625 0
-491 -634 0
-492 -635 0
-493 -637 0
-494 -638 0
-495 -640 0
-491 -655 0
-493 -657 0
-494 -659 0
-495 -660 0
-490 -702 0
-493 -704 0
-494 -705 0
-495 -707 0
-491 -716 0
-492 -717 0
-495 -721 0
-491 -781 0
-493 -783 0
-495 -786 0
-495 -792 0
-489 -799 0
-492 -801 0
-494 -803 0
-495 -805 0
-490 -808 0
-491 -809 0
-492 -810 0
-494 -812 0
-495 -814 0
-490 -817 0
-492 -818 0
-495 -820 0
-489 -831 0
-490 -834 0
-492 -835 0
-494 -836 0
-495 -837 0
-490 -840 0
-493 -841 0
-495 -843 0
-489 -850 0
-490 -852 0
-492 -853 0
-493 -854 0
-494 -856 0
-495 -858 0
-490 -866 0
-494 -869 0
-495 -871 0
-490 -880 0
-492 -881 0
-494 -884 0
-495 -885 0
-490 -886 0
-493 -888 0
-494 -889 0
-495 -891 0
-491 -894 0
-493 -896 0
-495 -897 0
-489 -905 0
-491 -908 0
-492 -909 0
-493 -911 0
-494 -913 0
-495 -914 0
-489 -922 0
-492 -925 0
-493 -926 0
-495 -928 0
-489 -945 0
-493 -948 0
-495 -950 0
-492 -989 0
-493 -991 0
-495 -993 0
-490 -1002 0
-491 -1003 0
-493 -1005 0
-494 -1006 0
-495 -1007 0
-490 -1009 0
-493 -1011 0
-495 -1014 0
-490 -1016 0
-492 -1017 0
-493 -1019 0
-495 -1020 0
-489 -1028 0
-490 -1029 0
-493 -1031 0
-494 -1033 0
-495 -1034 0
-491 -1037 0
-494 -1039 0
-495 -1040 0
-489 -1050 0
-491 -1052 0
-492 -1053 0
-494 -1054 0
-495 -1055 0
-489 -1062 0
-492 -1065 0
-494 -1068 0
-495 -1070 0
-489 -1093 0
-493 -1096 0
-494 -1097 0
-495 -1098 0
-492 -1124 0
-494 -1127 0
-495 -1128 0
-490 -1135 0
-491 -1136 0
-494 -1139 0
-495 -1140 0
-490 -1142 0
-494 -1144 0
-495 -1146 0
-489 -1154 0
-490 -1155 0
-492 -1156 0
-494 -1158 0
-495 -1160 0
-490 -1161 0
-492 -1162 0
-493 -1163 0
-494 -1165 0
-495 -1166 0
-491 -1225 0
-492 -1226 0
-493 -1228 0
-494 -1230 0
-495 -1232 0
-489 -1240 0
-491 -1241 0
-493 -1243 0
-494 -1244 0
-495 -1246 0
-489 -1254 0
-493 -1256 0
-494 -1258 0
-495 -1260 0
-489 -1267 0
-492 -1268 0
-493 -1269 0
-494 -1270 0
-495 -1272 0
-491 -1274 0
-492 -1275 0
-495 -1279 0
-492 -1289 0
-494 -1291 0
-495 -1293 0
-490 -1302 0
-491 -1303 0
-492 -1304 0
-495 -1307 0
-493 -1309 0
-494 -1311 0
-495 -1313 0
-490 -1320 0
-491 -1321 0
-492 -1322 0
-493 -1323 0
-495 -1325 0
-490 -1327 0
-492 -1328 0
-493 -1330 0
-494 -1332 0
-495 -1334 0
-489 -1342 0
-490 -1343 0
-492 -1344 0
-493 -1346 0
-495 -1348 0
-491 -1350 0
-492 -1351 0
-493 -1353 0
-495 -1355 0
-491 -1357 0
-492 -1358 0
-493 -1359 0
-494 -1361 0
-495 -1362 0
-491 -1364 0
-493 -1365 0
-494 -1366 0
-495 -1368 0
-489 -1376 0
-491 -1377 0
-492 -1378 0
-493 -1379 0
-495 -1382 0
-489 -1390 0
-492 -1392 0
-493 -1394 0
-494 -1395 0
-495 -1396 0
-492 -1397 0
-493 -1399 0
-494 -1401 0
-495 -1403 0
-491 -1405 0
-492 -1406 0
-494 -1408 0
-495 -1410 0
-491 -1412 0
-492 -1413 0
-495 -1416 0
-489 -1424 0
-491 -1425 0
-492 -1426 0
-494 -1429 0
-495 -1430 0
-491 -1431 0
-493 -1433 0
-495 -1436 0
-489 -1443 0
-492 -1444 0
-493 -1446 0
-495 -1448 0
-493 -1458 0
-494 -1460 0
-495 -1462 0
-490 -1471 0
-492 -1472 0
-493 -1474 0
-494 -1476 0
-495 -1477 0
-490 -1486 0
-494 -1489 0
-495 -1491 0
-491 -1510 0
-494 -1512 0
-495 -1513 0
-495 -1525 0
-492 -1541 0
-493 -1543 0
-495 -1545 0
-490 -1587 0
-492 -1588 0
-493 -1589 0
-494 -1591 0
-495 -1592 0
-491 -1601 0
-493 -1603 0
-494 -1605 0
-495 -1606 0
-493 -1617 0
-494 -1618 0
-495 -1620 0
-492 -1641 0
-494 -1644 0
-495 -1645 0
-490 -1681 0
-493 -1683 0
-494 -1684 0
-495 -1686 0
-491 -1762 0
-492 -1763 0
-494 -1765 0
-495 -1767 0
-492 -1775 0
-494 -1777 0
-495 -1779 0
-492 -1781 0
-493 -1783 0
-494 -1785 0
-495 -1787 0
-490 -1794 0
-492 -1795 0
-495 -1799 0
-491 -1806 0
-493 -1808 0
-495 -1811 0
-493 -1820 0
-494 -1822 0
-495 -1823 0
-491 -1830 0
-492 -1831 0
-493 -1833 0
-494 -1834 0
-495 -1835 0
-493 -1847 0
-494 -1848 0
-495 -1850 0
-490 -1859 0
-492 -1860 0
-493 -1861 0
-494 -1862 0
-495 -1864 0
-490 -1866 0
-494 -1868 0
-495 -1870 0
-491 -1872 0
-494 -1875 0
-495 -1877 0
-492 -1880 0
-493 -1881 0
-495 -1884 0
-489 -1892 0
-493 -1894 0
-494 -1896 0
-495 -1898 0
-491 -1900 0
-493 -1901 0
-494 -1902 0
-495 -1904 0
-493 -1907 0
-494 -1909 0
-495 -1910 0
-489 -1918 0
-492 -1920 0
-493 -1922 0
-494 -1923 0
-495 -1924 0
-492 -1926 0
-494 -1928 0
-495 -1930 0
-489 -1937 0
-494 -1940 0
-495 -1942 0
-492 -1943 0
-493 -1945 0
-494 -1947 0
-495 -1949 0
-498 -504 0
-499 -506 0
-500 -507 0
-501 -508 0
-502 -509 0
-499 -574 0
-500 -575 0
-502 -577 0
-497 -579 0
-498 -580 0
-500 -583 0
-501 -585 0
-502 -586 0
-497 -594 0
-499 -595 0
-500 -596 0
-501 -598 0
-502 -599 0
-498 -615 0
-499 -616 0
-501 -618 0
-502 -619 0
-498 -628 0
-500 -629 0
-502 -631 0
-498 -648 0
-501 -652 0
-502 -653 0
-497 -696 0
-500 -699 0
-502 -701 0
-498 -709 0
-499 -710 0
-500 -712 0
-502 -714 0
-498 -775 0
-500 -777 0
-501 -779 0
-502 -780 0
-502 -798 0
-496 -799 0
-499 -802 0
-501 -804 0
-502 -805 0
-497 -808 0
-498 -809 0
-499 -811 0
-501 -813 0
-502 -814 0
-497 -817 0
-500 -819 0
-502 -820 0
-496 -821 0
-497 -824 0
-499 -826 0
-500 -828 0
-501 -829 0
-502 -830 0
-497 -840 0
-501 -842 0
-502 -843 0
-496 -844 0
-497 -846 0
-499 -847 0
-501 -848 0
-502 -849 0
-497 -873 0
-499 -875 0
-502 -878 0
-497 -880 0
-499 -882 0
-500 -883 0
-502 -885 0
-497 -886 0
-499 -887 0
-501 -890 0
-502 -891 0
-498 -894 0
-499 -895 0
-502 -897 0
-496 -898 0
-498 -901 0
-499 -902 0
-501 -903 0
-502 -904 0
-496 -915 0
-499 -918 0
-500 -919 0
-502 -921 0
-496 -936 0
-499 -940 0
-501 -943 0
-502 -944 0
-499 -996 0
-501 -999 0
-502 -1000 0
-497 -1002 0
-498 -1003 0
-499 -1004 0
-502 -1007 0
-497 -1009 0
-499 -1010 0
-500 -1012 0
-501 -1013 0
-502 -1014 0
-497 -1016 0
-499 -1018 0
-502 -1020 0
-496 -1021 0
-497 -1022 0
-499 -1024 0
-501 -1026 0
-502 -1027 0
-498 -1037 0
-500 -1038 0
-502 -1040 0
-496 -1041 0
-498 -1043 0
-499 -1044 0
-500 -1046 0
-501 -1048 0
-502 -1049 0
-496 -1056 0
-500 -1060 0
-502 -1061 0
-496 -1087 0
-500 -1090 0
-501 -1091 0
-502 -1092 0
-500 -1131 0
-501 -1133 0
-502 -1134 0
-497 -1135 0
-498 -1136 0
-499 -1137 0
-500 -1138 0
-502 -1140 0
-497 -1142 0
-500 -1143 0
-501 -1145 0
-502 -1146 0
-496 -1147 0
-497 -1148 0
-499 -1149 0
-500 -1151 0
-502 -1153 0
-497 -1161 0
-500 -1164 0
-502 -1166 0
-498 -1225 0
-499 -1227 0
-500 -1229 0
-501 -1231 0
-502 -1232 0
-496 -1233 0
-498 -1234 0
-499 -1236 0
-500 -1237 0
-502 -1239 0
-496 -1247 0
-499 -1250 0
-500 -1251 0
-501 -1252 0
-502 -1253 0
-496 -1261 0
-499 -1263 0
-500 -1265 0
-502 -1266 0
-498 -1281 0
-501 -1285 0
-502 -1286 0
-499 -1297 0
-500 -1299 0
-502 -1300 0
-497 -1302 0
-498 -1303 0
-500 -1305 0
-501 -1306 0
-502 -1307 0
-499 -1316 0
-501 -1318 0
-502 -1319 0
-497 -1320 0
-498 -1321 0
-501 -1324 0
-502 -1325 0
-497 -1327 0
-499 -1329 0
-500 -1331 0
-501 -1333 0
-502 -1334 0
-496 -1335 0
-497 -1336 0
-500 -1338 0
-501 -1340 0
-502 -1341 0
-498 -1350 0
-499 -1352 0
-501 -1354 0
-502 -1355 0
-498 -1357 0
-500 -1360 0
-502 -1362 0
-498 -1364 0
-501 -1367 0
-502 -1368 0
-496 -1369 0
-498 -1370 0
-499 -1371 0
-501 -1374 0
-502 -1375 0
-496 -1383 0
-500 -1386 0
-501 -1388 0
-502 -1389 0
-498 -1405 0
-500 -1407 0
-501 -1409 0
-502 -1410 0
-498 -1412 0
-499 -1414 0
-500 -1415 0
-502 -1416 0
-496 -1417 0
-498 -1418 0
-500 -1421 0
-501 -1422 0
-502 -1423 0
-498 -1431 0
-499 -1432 0
-500 -1434 0
-501 -1435 0
-502 -1436 0
-496 -1437 0
-499 -1438 0
-500 -1439 0
-501 -1441 0
-502 -1442 0
-499 -1451 0
-500 -1453 0
-501 -1455 0
-502 -1456 0
-500 -1459 0
-501 -1461 0
-502 -1462 0
-497 -1465 0
-501 -1467 0
-502 -1468 0
-497 -1479 0
-500 -1482 0
-501 -1483 0
-502 -1484 0
-498 -1501 0
-499 -1503 0
-500 -1505 0
-501 -1506 0
-502 -1507 0
-502 -1519 0
-500 -1535 0
-501 -1537 0
-502 -1538 0
-497 -1581 0
-499 -1583 0
-500 -1584 0
-501 -1585 0
-502 -1586 0
-498 -1594 0
-501 -1598 0
-502 -1599 0
-499 -1610 0
-500 -1612 0
-502 -1613 0
-499 -1636 0
-501 -1638 0
-502 -1639 0
-497 -1675 0
-500 -1678 0
-502 -1680 0
-498 -1756 0
-499 -1758 0
-502 -1761 0
-500 -1771 0
-501 -1772 0
-502 -1773 0
-497 -1788 0
-499 -1789 0
-501 -1792 0
-502 -1793 0
-498 -1800 0
-500 -1802 0
-501 -1804 0
-502 -1805 0
-499 -1814 0
-501 -1816 0
-502 -1817 0
-498 -1824 0
-499 -1825 0
-500 -1827 0
-501 -1828 0
-502 -1829 0
-499 -1837 0
-500 -1839 0
-501 -1841 0
-502 -1842 0
-500 -1854 0
-501 -1856 0
-502 -1857 0
-497 -1859 0
-501 -1863 0
-502 -1864 0
-497 -1866 0
-500 -1867 0
-501 -1869 0
-502 -1870 0
-498 -1872 0
-499 -1873 0
-500 -1874 0
-501 -1876 0
-502 -1877 0
-500 -1882 0
-501 -1883 0
-502 -1884 0
-496 -1885 0
-499 -1888 0
-500 -1889 0
-501 -1890 0
-502 -1891 0
-498 -1900 0
-501 -1903 0
-502 -1904 0
-499 -1906 0
-500 -1908 0
-502 -1910 0
-496 -1911 0
-500 -1914 0
-501 -1916 0
-502 -1917 0
-499 -1927 0
-501 -1929 0
-502 -1930 0
-496 -1931 0
-501 -1935 0
-502 -1936 0
-499 -1953 0
-500 -1955 0
-501 -1957 0
-502 -1958 0
-503 -572 0
-505 -573 0
-506 -574 0
-507 -575 0
-509 -577 0
-503 -578 0
-504 -580 0
-505 -581 0
-507 -583 0
-508 -585 0
-509 -586 0
-503 -593 0
-506 -595 0
-507 -596 0
-508 -598 0
-509 -599 0
-503 -620 0
-504 -621 0
-505 -622 0
-507 -624 0
-509 -625 0
-503 -633 0
-504 -634 0
-505 -635 0
-506 -636 0
-508 -639 0
-509 -640 0
-504 -643 0
-505 -644 0
-509 -646 0
-503 -654 0
-504 -655 0
-506 -656 0
-507 -658 0
-509 -660 0
-504 -662 0
-507 -664 0
-508 -666 0
-509 -667 0
-503 -669 0
-506 -670 0
-509 -673 0
-504 -676 0
-506 -677 0
-509 -680 0
-504 -683 0
-508 -685 0
-509 -686 0
-506 -703 0
-508 -706 0
-509 -707 0
-503 -715 0
-504 -716 0
-505 -717 0
-506 -718 0
-507 -719 0
-508 -720 0
-509 -721 0
-504 -723 0
-505 -724 0
-506 -725 0
-507 -727 0
-509 -728 0
-504 -730 0
-506 -731 0
-507 -732 0
-509 -734 0
-504 -750 0
-505 -751 0
-506 -752 0
-508 -753 0
-509 -754 0
-504 -769 0
-506 -770 0
-508 -773 0
-509 -774 0
-503 -794 0
-505 -795 0
-509 -798 0
-503 -800 0
-505 -801 0
-506 -802 0
-508 -804 0
-509 -805 0
-503 -807 0
-504 -809 0
-505 -810 0
-506 -811 0
-508 -813 0
-509 -814 0
-503 -816 0
-505 -818 0
-507 -819 0
-509 -820 0
-503 -823 0
-505 -825 0
-506 -826 0
-507 -828 0
-508 -829 0
-509 -830 0
-503 -839 0
-508 -842 0
-509 -843 0
-503 -845 0
-506 -847 0
-508 -848 0
-509 -849 0
-503 -872 0
-505 -874 0
-506 -875 0
-509 -878 0
-505 -881 0
-506 -882 0
-507 -883 0
-509 -885 0
-506 -887 0
-508 -890 0
-509 -891 0
-503 -907 0
-504 -908 0
-505 -909 0
-506 -910 0
-507 -912 0
-509 -914 0
-503 -924 0
-505 -925 0
-508 -927 0
-509 -928 0
-504 -932 0
-505 -933 0
-506 -934 0
-509 -935 0
-503 -947 0
-507 -949 0
-509 -950 0
-503 -952 0
-506 -953 0
-507 -955 0
-508 -956 0
-509 -957 0
-504 -961 0
-506 -962 0
-507 -964 0
-508 -965 0
-509 -966 0
-509 -972 0
-506 -976 0
-508 -978 0
-509 -979 0
-506 -1030 0
-507 -1032 0
-509 -1034 0
-503 -1051 0
-504 -1052 0
-505 -1053 0
-509 -1055 0
-503 -1064 0
-505 -1065 0
-506 -1066 0
-507 -1067 0
-508 -1069 0
-509 -1070 0
-503 -1072 0
-505 -1073 0
-507 -1075 0
-509 -1077 0
-504 -1081 0
-505 -1082 0
-507 -1084 0
-509 -1086 0
-503 -1094 0
-506 -1095 0
-509 -1098 0
-504 -1101 0
-508 -1103 0
-509 -1104 0
-506 -1108 0
-507 -1109 0
-509 -1110 0
-507 -1114 0
-508 -1115 0
-509 -1116 0
-505 -1156 0
-507 -1157 0
-508 -1159 0
-509 -1160 0
-504 -1188 0
-505 -1189 0
-508 -1191 0
-509 -1192 0
-504 -1206 0
-507 -1208 0
-509 -1210 0
-506 -1219 0
-508 -1221 0
-509 -1222 0
-503 -1273 0
-504 -1274 0
-505 -1275 0
-506 -1276 0
-507 -1277 0
-508 -1278 0
-509 -1279 0
-503 -1288 0
-505 -1289 0
-507 -1290 0
-508 -1292 0
-509 -1293 0
-503 -1308 0
-507 -1310 0
-508 -1312 0
-509 -1313 0
-504 -1350 0
-505 -1351 0
-506 -1352 0
-508 -1354 0
-509 -1355 0
-504 -1357 0
-505 -1358 0
-507 -1360 0
-509 -1362 0
-504 -1364 0
-508 -1367 0
-509 -1368 0
-504 -1370 0
-506 -1371 0
-508 -1374 0
-509 -1375 0
-507 -1386 0
-508 -1388 0
-509 -1389 0
-504 -1405 0
-505 -1406 0
-507 -1407 0
-508 -1409 0
-509 -1410 0
-504 -1412 0
-505 -1413 0
-506 -1414 0
-507 -1415 0
-509 -1416 0
-504 -1418 0
-505 -1419 0
-507 -1421 0
-508 -1422 0
-509 -1423 0
-504 -1431 0
-506 -1432 0
-507 -1434 0
-508 -1435 0
-509 -1436 0
-506 -1438 0
-507 -1439 0
-508 -1441 0
-509 -1442 0
-505 -1450 0
-506 -1451 0
-507 -1453 0
-508 -1455 0
-509 -1456 0
-503 -1457 0
-507 -1459 0
-508 -1461 0
-509 -1462 0
-503 -1464 0
-508 -1467 0
-509 -1468 0
-503 -1478 0
-505 -1480 0
-507 -1482 0
-508 -1483 0
-509 -1484 0
-503 -1509 0
-504 -1510 0
-507 -1511 0
-509 -1513 0
-503 -1521 0
-506 -1522 0
-507 -1523 0
-508 -1524 0
-509 -1525 0
-504 -1528 0
-507 -1530 0
-509 -1531 0
-503 -1540 0
-505 -1541 0
-506 -1542 0
-507 -1544 0
-509 -1545 0
-503 -1547 0
-505 -1548 0
-507 -1549 0
-508 -1550 0
-509 -1551 0
-504 -1554 0
-505 -1555 0
-507 -1556 0
-508 -1557 0
-509 -1558 0
-505 -1561 0
-506 -1562 0
-507 -1563 0
-509 -1565 0
-505 -1569 0
-507 -1571 0
-508 -1573 0
-509 -1574 0
-505 -1588 0
-507 -1590 0
-509 -1592 0
-503 -1600 0
-504 -1601 0
-506 -1602 0
-507 -1604 0
-509 -1606 0
-503 -1615 0
-506 -1616 0
-508 -1619 0
-509 -1620 0
-503 -1622 0
-506 -1623 0
-509 -1626 0
-504 -1629 0
-506 -1630 0
-509 -1633 0
-503 -1640 0
-505 -1641 0
-506 -1642 0
-507 -1643 0
-509 -1645 0
-504 -1647 0
-505 -1648 0
-506 -1649 0
-507 -1651 0
-508 -1653 0
-509 -1654 0
-505 -1657 0
-506 -1658 0
-509 -1660 0
-505 -1663 0
-506 -1664 0
-508 -1666 0
-509 -1667 0
-506 -1682 0
-508 -1685 0
-509 -1686 0
-504 -1709 0
-506 -1710 0
-507 -1712 0
-508 -1714 0
-509 -1715 0
-504 -1730 0
-505 -1731 0
-506 -1732 0
-507 -1733 0
-509 -1735 0
-505 -1745 0
-506 -1746 0
-507 -1747 0
-508 -1748 0
-509 -1749 0
-505 -1751 0
-506 -1752 0
-507 -1754 0
-509 -1755 0
-504 -1800 0
-505 -1801 0
-507 -1802 0
-508 -1804 0
-509 -1805 0
-505 -1813 0
-506 -1814 0
-508 -1816 0
-509 -1817 0
-504 -1824 0
-506 -1825 0
-507 -1827 0
-508 -1828 0
-509 -1829 0
-505 -1836 0
-506 -1837 0
-507 -1839 0
-508 -1841 0
-509 -1842 0
-503 -1845 0
-506 -1846 0
-508 -1849 0
-509 -1850 0
-504 -1872 0
-506 -1873 0
-507 -1874 0
-508 -1876 0
-509 -1877 0
-505 -1880 0
-507 -1882 0
-508 -1883 0
-509 -1884 0
-505 -1887 0
-506 -1888 0
-507 -1889 0
-508 -1890 0
-509 -1891 0
-504 -1900 0
-508 -1903 0
-509 -1904 0
-506 -1906 0
-507 -1908 0
-509 -1910 0
-507 -1914 0
-508 -1916 0
-509 -1917 0
-505 -1926 0
-506 -1927 0
-508 -1929 0
-509 -1930 0
-505 -1932 0
-508 -1935 0
-509 -1936 0
-510 -572 0
-512 -573 0
-514 -576 0
-516 -577 0
-510 -587 0
-511 -589 0
-512 -590 0
-516 -592 0
-510 -600 0
-512 -602 0
-513 -604 0
-514 -605 0
-516 -606 0
-510 -614 0
-511 -615 0
-514 -617 0
-515 -618 0
-516 -619 0
-510 -627 0
-511 -628 0
-514 -630 0
-516 -631 0
-511 -643 0
-512 -644 0
-514 -645 0
-516 -646 0
-510 -647 0
-511 -648 0
-512 -649 0
-513 -650 0
-514 -651 0
-515 -652 0
-516 -653 0
-511 -662 0
-513 -663 0
-514 -665 0
-515 -666 0
-516 -667 0
-510 -669 0
-513 -671 0
-514 -672 0
-516 -673 0
-511 -676 0
-513 -678 0
-514 -679 0
-516 -680 0
-511 -689 0
-512 -690 0
-513 -692 0
-514 -694 0
-516 -695 0
-512 -697 0
-513 -698 0
-514 -700 0
-516 -701 0
-510 -708 0
-511 -709 0
-513 -711 0
-514 -713 0
-516 -714 0
-511 -723 0
-512 -724 0
-513 -726 0
-516 -728 0
-511 -730 0
-514 -733 0
-516 -734 0
-511 -744 0
-513 -745 0
-514 -747 0
-516 -748 0
-511 -762 0
-512 -763 0
-514 -766 0
-516 -767 0
-510 -788 0
-515 -791 0
-516 -792 0
-510 -800 0
-512 -801 0
-514 -803 0
-515 -804 0
-516 -805 0
-510 -807 0
-511 -809 0
-512 -810 0
-514 -812 0
-515 -813 0
-516 -814 0
-510 -816 0
-512 -818 0
-516 -820 0
-510 -833 0
-512 -835 0
-514 -836 0
-516 -837 0
-510 -839 0
-513 -841 0
-515 -842 0
-516 -843 0
-510 -851 0
-512 -853 0
-513 -854 0
-514 -856 0
-515 -857 0
-516 -858 0
-510 -865 0
-514 -869 0
-515 -870 0
-516 -871 0
-512 -881 0
-514 -884 0
-516 -885 0
-513 -888 0
-514 -889 0
-515 -890 0
-516 -891 0
-510 -900 0
-511 -901 0
-515 -903 0
-516 -904 0
-510 -917 0
-514 -920 0
-516 -921 0
-511 -932 0
-512 -933 0
-516 -935 0
-510 -938 0
-512 -939 0
-513 -941 0
-514 -942 0
-515 -943 0
-516 -944 0
-510 -952 0
-513 -954 0
-515 -956 0
-516 -957 0
-511 -961 0
-513 -963 0
-515 -965 0
-516 -966 0
-513 -970 0
-514 -971 0
-516 -972 0
-512 -983 0
-513 -984 0
-516 -986 0
-512 -1023 0
-513 -1025 0
-515 -1026 0
-516 -1027 0
-510 -1042 0
-511 -1043 0
-513 -1045 0
-514 -1047 0
-515 -1048 0
-516 -1049 0
-510 -1058 0
-513 -1059 0
-516 -1061 0
-510 -1072 0
-512 -1073 0
-513 -1074 0
-514 -1076 0
-516 -1077 0
-511 -1081 0
-512 -1082 0
-513 -1083 0
-514 -1085 0
-516 -1086 0
-510 -1088 0
-512 -1089 0
-515 -1091 0
-516 -1092 0
-511 -1101 0
-514 -1102 0
-515 -1103 0
-516 -1104 0
-516 -1110 0
-512 -1119 0
-514 -1121 0
-516 -1122 0
-513 -1150 0
-514 -1152 0
-516 -1153 0
-511 -1181 0
-513 -1183 0
-516 -1185 0
-511 -1200 0
-512 -1201 0
-515 -1203 0
-516 -1204 0
-512 -1213 0
-514 -1215 0
-516 -1216 0
-510 -1280 0
-511 -1281 0
-512 -1282 0
-513 -1283 0
-514 -1284 0
-515 -1285 0
-516 -1286 0
-510 -1295 0
-512 -1296 0
-513 -1298 0
-516 -1300 0
-510 -1314 0
-512 -1315 0
-513 -1317 0
-515 -1318 0
-516 -1319 0
-511 -1350 0
-512 -1351 0
-513 -1353 0
-515 -1354 0
-516 -1355 0
-511 -1357 0
-512 -1358 0
-513 -1359 0
-514 -1361 0
-516 -1362 0
-511 -1364 0
-513 -1365 0
-514 -1366 0
-515 -1367 0
-516 -1368 0
-511 -1377 0
-512 -1378 0
-513 -1379 0
-515 -1381 0
-516 -1382 0
-512 -1392 0
-513 -1394 0
-514 -1395 0
-516 -1396 0
-512 -1397 0
-513 -1399 0
-514 -1401 0
-515 -1402 0
-516 -1403 0
-511 -1405 0
-512 -1406 0
-514 -1408 0
-515 -1409 0
-516 -1410 0
-511 -1412 0
-512 -1413 0
-516 -1416 0
-511 -1425 0
-512 -1426 0
-514 -1429 0
-516 -1430 0
-511 -1431 0
-513 -1433 0
-515 -1435 0
-516 -1436 0
-512 -1444 0
-513 -1446 0
-516 -1448 0
-510 -1457 0
-513 -1458 0
-514 -1460 0
-515 -1461 0
-516 -1462 0
-510 -1470 0
-512 -1472 0
-513 -1474 0
-514 -1476 0
-516 -1477 0
-510 -1485 0
-514 -1489 0
-515 -1490 0
-516 -1491 0
-510 -1500 0
-511 -1501 0
-512 -1502 0
-513 -1504 0
-515 -1506 0
-516 -1507 0
-510 -1515 0
-512 -1516 0
-513 -1517 0
-514 -1518 0
-516 -1519 0
-511 -1528 0
-513 -1529 0
-516 -1531 0
-510 -1533 0
-512 -1534 0
-514 -1536 0
-515 -1537 0
-516 -1538 0
-510 -1547 0
-512 -1548 0
-515 -1550 0
-516 -1551 0
-511 -1554 0
-512 -1555 0
-515 -1557 0
-516 -1558 0
-512 -1561 0
-514 -1564 0
-516 -1565 0
-516 -1580 0
-512 -1582 0
-515 -1585 0
-516 -1586 0
-510 -1593 0
-511 -1594 0
-512 -1595 0
-513 -1596 0
-514 -1597 0
-515 -1598 0
-516 -1599 0
-510 -1608 0
-512 -1609 0
-513 -1611 0
-516 -1613 0
-510 -1622 0
-513 -1624 0
-514 -1625 0
-516 -1626 0
-511 -1629 0
-513 -1631 0
-514 -1632 0
-516 -1633 0
-510 -1634 0
-512 -1635 0
-513 -1637 0
-515 -1638 0
-516 -1639 0
-511 -1647 0
-512 -1648 0
-513 -1650 0
-514 -1652 0
-515 -1653 0
-516 -1654 0
-512 -1657 0
-513 -1659 0
-516 -1660 0
-513 -1671 0
-514 -1673 0
-516 -1674 0
-512 -1676 0
-513 -1677 0
-514 -1679 0
-516 -1680 0
-511 -1703 0
-512 -1704 0
-513 -1705 0
-516 -1706 0
-511 -1723 0
-512 -1724 0
-513 -1725 0
-515 -1727 0
-516 -1728 0
-512 -1738 0
-513 -1740 0
-514 -1741 0
-516 -1742 0
-512 -1751 0
-513 -1753 0
-516 -1755 0
-511 -1806 0
-513 -1808 0
-515 -1810 0
-516 -1811 0
-513 -1820 0
-514 -1822 0
-516 -1823 0
-511 -1830 0
-512 -1831 0
-513 -1833 0
-514 -1834 0
-516 -1835 0
-510 -1852 0
-512 -1853 0
-514 -1855 0
-515 -1856 0
-516 -1857 0
-511 -1872 0
-514 -1875 0
-515 -1876 0
-516 -1877 0
-512 -1880 0
-513 -1881 0
-515 -1883 0
-516 -1884 0
-513 -1894 0
-514 -1896 0
-515 -1897 0
-516 -1898 0
-511 -1900 0
-513 -1901 0
-514 -1902 0
-515 -1903 0
-516 -1904 0
-513 -1907 0
-514 -1909 0
-516 -1910 0
-512 -1920 0
-513 -1922 0
-514 -1923 0
-516 -1924 0
-512 -1926 0
-514 -1928 0
-515 -1929 0
-516 -1930 0
-514 -1940 0
-515 -1941 0
-516 -1942 0
-512 -1943 0
-513 -1945 0
-514 -1947 0
-515 -1948 0
-516 -1949 0
-517 -579 0
-518 -580 0
-519 -581 0
-521 -584 0
-522 -585 0
-523 -586 0
-517 -588 0
-518 -589 0
-519 -590 0
-520 -591 0
-523 -592 0
-517 -607 0
-518 -608 0
-519 -609 0
-520 -610 0
-521 -611 0
-522 -612 0
-523 -613 0
-518 -628 0
-521 -630 0
-523 -631 0
-518 -634 0
-519 -635 0
-520 -636 0
-521 -638 0
-522 -639 0
-523 -640 0
-518 -648 0
-519 -649 0
-521 -651 0
-522 -652 0
-523 -653 0
-518 -655 0
-520 -656 0
-521 -659 0
-523 -660 0
-517 -675 0
-518 -676 0
-520 -677 0
-521 -679 0
-523 -680 0
-517 -682 0
-518 -683 0
-521 -684 0
-522 -685 0
-523 -686 0
-517 -688 0
-518 -689 0
-519 -690 0
-520 -691 0
-521 -694 0
-523 -695 0
-517 -696 0
-519 -697 0
-521 -700 0
-523 -701 0
-517 -702 0
-520 -703 0
-521 -705 0
-522 -706 0
-523 -707 0
-518 -709 0
-520 -710 0
-521 -713 0
-523 -714 0
-518 -716 0
-519 -717 0
-520 -718 0
-522 -720 0
-523 -721 0
-517 -729 0
-518 -730 0
-520 -731 0
-521 -733 0
-523 -734 0
-518 -762 0
-519 -763 0
-520 -764 0
-521 -766 0
-523 -767 0
-518 -769 0
-520 -770 0
-521 -772 0
-522 -773 0
-523 -774 0
-520 -789 0
-522 -791 0
-523 -792 0
-519 -795 0
-521 -797 0
-523 -798 0
-519 -801 0
-520 -802 0
-521 -803 0
-522 -804 0
-523 -805 0
-517 -817 0
-519 -818 0
-523 -820 0
-517 -824 0
-519 -825 0
-520 -826 0
-522 -829 0
-523 -830 0
-517 -834 0
-519 -835 0
-521 -836 0
-523 -837 0
-517 -840 0
-522 -842 0
-523 -843 0
-517 -846 0
-520 -847 0
-522 -848 0
-523 -849 0
-517 -852 0
-519 -853 0
-521 -856 0
-522 -857 0
-523 -858 0
-517 -861 0
-519 -862 0
-522 -863 0
-523 -864 0
-520 -918 0
-521 -920 0
-523 -921 0
-519 -925 0
-522 -927 0
-523 -928 0
-519 -939 0
-520 -940 0
-521 -942 0
-522 -943 0
-523 -944 0
-523 -950 0
-520 -953 0
-522 -956 0
-523 -957 0
-517 -969 0
-521 -971 0
-523 -972 0
-517 -975 0
-520 -976 0
-521 -977 0
-522 -978 0
-523 -979 0
-517 -982 0
-519 -983 0
-523 -986 0
-523 -1061 0
-519 -1065 0
-520 -1066 0
-521 -1068 0
-522 -1069 0
-523 -1070 0
-519 -1073 0
-521 -1076 0
-523 -1077 0
-519 -1089 0
-522 -1091 0
-523 -1092 0
-520 -1095 0
-521 -1097 0
-523 -1098 0
-517 -1107 0
-520 -1108 0
-523 -1110 0
-517 -1112 0
-522 -1115 0
-523 -1116 0
-517 -1118 0
-519 -1119 0
-520 -1120 0
-521 -1121 0
-523 -1122 0
-519 -1213 0
-521 -1215 0
-523 -1216 0
-520 -1219 0
-522 -1221 0
-523 -1222 0
-518 -1274 0
-519 -1275 0
-520 -1276 0
-522 -1278 0
-523 -1279 0
-518 -1281 0
-519 -1282 0
-521 -1284 0
-522 -1285 0
-523 -1286 0
-517 -1302 0
-518 -1303 0
-519 -1304 0
-522 -1306 0
-523 -1307 0
-517 -1320 0
-518 -1321 0
-519 -1322 0
-522 -1324 0
-523 -1325 0
-518 -1357 0
-519 -1358 0
-521 -1361 0
-523 -1362 0
-518 -1364 0
-521 -1366 0
-522 -1367 0
-523 -1368 0
-518 -1370 0
-520 -1371 0
-521 -1373 0
-522 -1374 0
-523 -1375 0
-518 -1377 0
-519 -1378 0
-522 -1381 0
-523 -1382 0
-519 -1397 0
-520 -1398 0
-521 -1401 0
-522 -1402 0
-523 -1403 0
-518 -1412 0
-519 -1413 0
-520 -1414 0
-523 -1416 0
-518 -1418 0
-519 -1419 0
-522 -1422 0
-523 -1423 0
-518 -1425 0
-519 -1426 0
-520 -1427 0
-521 -1429 0
-523 -1430 0
-518 -1431 0
-520 -1432 0
-522 -1435 0
-523 -1436 0
-519 -1450 0
-520 -1451 0
-521 -1454 0
-522 -1455 0
-523 -1456 0
-521 -1460 0
-522 -1461 0
-523 -1462 0
-517 -1465 0
-522 -1467 0
-523 -1468 0
-517 -1471 0
-519 -1472 0
-520 -1473 0
-521 -1476 0
-523 -1477 0
-517 -1479 0
-519 -1480 0
-522 -1483 0
-523 -1484 0
-517 -1486 0
-520 -1487 0
-521 -1489 0
-522 -1490 0
-523 -1491 0
-517 -1493 0
-520 -1494 0
-522 -1497 0
-523 -1498 0
-519 -1516 0
-521 -1518 0
-523 -1519 0
-520 -1522 0
-522 -1524 0
-523 -1525 0
-519 -1534 0
-521 -1536 0
-522 -1537 0
-523 -1538 0
-519 -1541 0
-520 -1542 0
-523 -1545 0
-519 -1548 0
-522 -1550 0
-523 -1551 0
-517 -1560 0
-519 -1561 0
-520 -1562 0
-521 -1564 0
-523 -1565 0
-517 -1568 0
-519 -1569 0
-521 -1572 0
-522 -1573 0
-523 -1574 0
-517 -1577 0
-520 -1578 0
-523 -1580 0
-519 -1609 0
-520 -1610 0
-523 -1613 0
-520 -1616 0
-521 -1618 0
-522 -1619 0
-523 -1620 0
-520 -1623 0
-521 -1625 0
-523 -1626 0
-519 -1635 0
-520 -1636 0
-522 -1638 0
-523 -1639 0
-519 -1641 0
-520 -1642 0
-521 -1644 0
-523 -1645 0
-517 -1656 0
-519 -1657 0
-520 -1658 0
-523 -1660 0
-517 -1662 0
-519 -1663 0
-520 -1664 0
-522 -1666 0
-523 -1667 0
-517 -1669 0
-520 -1670 0
-521 -1673 0
-523 -1674 0
-519 -1738 0
-520 -1739 0
-521 -1741 0
-523 -1742 0
-519 -1745 0
-520 -1746 0
-522 -1748 0
-523 -1749 0
-519 -1751 0
-520 -1752 0
-523 -1755 0
-518 -1800 0
-519 -1801 0
-521 -1803 0
-522 -1804 0
-523 -1805 0
-518 -1806 0
-520 -1807 0
-522 -1810 0
-523 -1811 0
-518 -1824 0
-520 -1825 0
-522 -1828 0
-523 -1829 0
-518 -1830 0
-519 -1831 0
-520 -1832 0
-521 -1834 0
-523 -1835 0
-520 -1846 0
-521 -1848 0
-522 -1849 0
-523 -1850 0
-519 -1853 0
-521 -1855 0
-522 -1856 0
-523 -1857 0
-517 -1859 0
-519 -1860 0
-521 -1862 0
-522 -1863 0
-523 -1864 0
-517 -1866 0
-521 -1868 0
-522 -1869 0
-523 -1870 0
-519 -1880 0
-522 -1883 0
-523 -1884 0
-519 -1887 0
-520 -1888 0
-522 -1890 0
-523 -1891 0
-521 -1896 0
-522 -1897 0
-523 -1898 0
-520 -1906 0
-521 -1909 0
-523 -1910 0
-521 -1915 0
-522 -1916 0
-523 -1917 0
-519 -1920 0
-520 -1921 0
-521 -1923 0
-523 -1924 0
-519 -1926 0
-520 -1927 0
-521 -1928 0
-522 -1929 0
-523 -1930 0
-519 -1932 0
-521 -1934 0
-522 -1935 0
-523 -1936 0
-520 -1938 0
-521 -1940 0
-522 -1941 0
-523 -1942 0
-525 -578 0
-526 -581 0
-527 -583 0
-528 -585 0
-529 -586 0
-525 -587 0
-526 -590 0
-529 -592 0
-525 -593 0
-527 -596 0
-528 -598 0
-529 -599 0
-525 -600 0
-526 -602 0
-529 -606 0
-525 -614 0
-528 -618 0
-529 -619 0
-525 -620 0
-526 -622 0
-527 -624 0
-529 -625 0
-526 -644 0
-529 -646 0
-525 -647 0
-526 -649 0
-528 -652 0
-529 -653 0
-525 -654 0
-527 -658 0
-529 -660 0
-529 -680 0
-524 -681 0
-528 -685 0
-529 -686 0
-524 -687 0
-526 -690 0
-527 -693 0
-529 -695 0
-526 -724 0
-527 -727 0
-529 -728 0
-527 -732 0
-529 -734 0
-526 -756 0
-529 -760 0
-525 -788 0
-527 -790 0
-528 -791 0
-529 -792 0
-525 -794 0
-526 -795 0
-529 -798 0
-524 -799 0
-525 -800 0
-526 -801 0
-528 -804 0
-529 -805 0
-525 -816 0
-526 -818 0
-527 -819 0
-529 -820 0
-524 -821 0
-525 -823 0
-526 -825 0
-527 -828 0
-528 -829 0
-529 -830 0
-524 -831 0
-525 -833 0
-526 -835 0
-529 -837 0
-525 -865 0
-527 -868 0
-528 -870 0
-529 -871 0
-525 -872 0
-526 -874 0
-529 -878 0
-526 -881 0
-527 -883 0
-529 -885 0
-525 -893 0
-529 -897 0
-524 -898 0
-525 -900 0
-528 -903 0
-529 -904 0
-524 -905 0
-525 -907 0
-526 -909 0
-527 -912 0
-529 -914 0
-524 -929 0
-526 -933 0
-529 -935 0
-524 -936 0
-525 -938 0
-526 -939 0
-528 -943 0
-529 -944 0
-524 -945 0
-525 -947 0
-527 -949 0
-529 -950 0
-524 -951 0
-525 -952 0
-527 -955 0
-528 -956 0
-529 -957 0
-524 -967 0
-529 -972 0
-524 -973 0
-528 -978 0
-529 -979 0
-524 -980 0
-526 -983 0
-527 -985 0
-529 -986 0
-529 -1007 0
-526 -1017 0
-529 -1020 0
-524 -1021 0
-526 -1023 0
-528 -1026 0
-529 -1027 0
-524 -1028 0
-527 -1032 0
-529 -1034 0
-525 -1036 0
-527 -1038 0
-529 -1040 0
-524 -1041 0
-525 -1042 0
-527 -1046 0
-528 -1048 0
-529 -1049 0
-524 -1050 0
-525 -1051 0
-526 -1053 0
-529 -1055 0
-524 -1078 0
-526 -1082 0
-527 -1084 0
-529 -1086 0
-524 -1087 0
-525 -1088 0
-526 -1089 0
-527 -1090 0
-528 -1091 0
-529 -1092 0
-524 -1093 0
-525 -1094 0
-529 -1098 0
-524 -1105 0
-527 -1109 0
-529 -1110 0
-524 -1111 0
-527 -1114 0
-528 -1115 0
-529 -1116 0
-524 -1117 0
-526 -1119 0
-529 -1122 0
-527 -1138 0
-529 -1140 0
-526 -1162 0
-527 -1164 0
-529 -1166 0
-524 -1167 0
-529 -1172 0
-524 -1193 0
-526 -1196 0
-529 -1198 0
-524 -1199 0
-526 -1201 0
-528 -1203 0
-529 -1204 0
-524 -1205 0
-527 -1208 0
-529 -1210 0
-525 -1288 0
-526 -1289 0
-527 -1290 0
-528 -1292 0
-529 -1293 0
-525 -1295 0
-526 -1296 0
-527 -1299 0
-529 -1300 0
-526 -1358 0
-527 -1360 0
-529 -1362 0
-524 -1383 0
-527 -1386 0
-528 -1388 0
-529 -1389 0
-524 -1390 0
-526 -1392 0
-529 -1396 0
-526 -1397 0
-527 -1400 0
-528 -1402 0
-529 -1403 0
-526 -1413 0
-527 -1415 0
-529 -1416 0
-524 -1417 0
-526 -1419 0
-527 -1421 0
-528 -1422 0
-529 -1423 0
-524 -1424 0
-526 -1426 0
-527 -1428 0
-529 -1430 0
-524 -1437 0
-527 -1439 0
-528 -1441 0
-529 -1442 0
-524 -1443 0
-526 -1444 0
-527 -1447 0
-529 -1448 0
-525 -1457 0
-527 -1459 0
-528 -1461 0
-529 -1462 0
-525 -1464 0
-528 -1467 0
-529 -1468 0
-525 -1470 0
-526 -1472 0
-527 -1475 0
-529 -1477 0
-525 -1500 0
-526 -1502 0
-527 -1505 0
-528 -1506 0
-529 -1507 0
-525 -1509 0
-527 -1511 0
-529 -1513 0
-527 -1530 0
-529 -1531 0
-525 -1533 0
-526 -1534 0
-527 -1535 0
-528 -1537 0
-529 -1538 0
-525 -1540 0
-526 -1541 0
-527 -1544 0
-529 -1545 0
-524 -1546 0
-525 -1547 0
-526 -1548 0
-527 -1549 0
-528 -1550 0
-529 -1551 0
-526 -1561 0
-527 -1563 0
-529 -1565 0
-524 -1566 0
-526 -1569 0
-527 -1571 0
-528 -1573 0
-529 -1574 0
-524 -1575 0
-527 -1579 0
-529 -1580 0
-526 -1582 0
-527 -1584 0
-528 -1585 0
-529 -1586 0
-526 -1588 0
-527 -1590 0
-529 -1592 0
-525 -1593 0
-526 -1595 0
-528 -1598 0
-529 -1599 0
-525 -1600 0
-527 -1604 0
-529 -1606 0
-529 -1633 0
-525 -1634 0
-526 -1635 0
-528 -1638 0
-529 -1639 0
-525 -1640 0
-526 -1641 0
-527 -1643 0
-529 -1645 0
-526 -1657 0
-529 -1660 0
-524 -1661 0
-526 -1663 0
-528 -1666 0
-529 -1667 0
-524 -1668 0
-527 -1672 0
-529 -1674 0
-526 -1689 0
-527 -1691 0
-529 -1693 0
-526 -1718 0
-527 -1720 0
-529 -1721 0
-524 -1722 0
-526 -1724 0
-527 -1726 0
-528 -1727 0
-529 -1728 0
-524 -1729 0
-526 -1731 0
-527 -1733 0
-529 -1735 0
-526 -1813 0
-528 -1816 0
-529 -1817 0
-527 -1821 0
-529 -1823 0
-527 -1827 0
-528 -1828 0
-529 -1829 0
-526 -1831 0
-529 -1835 0
-526 -1836 0
-527 -1839 0
-528 -1841 0
-529 -1842 0
-527 -1908 0
-529 -1910 0
-524 -1911 0
-527 -1914 0
-528 -1916 0
-529 -1917 0
-524 -1918 0
-526 -1920 0
-529 -1924 0
-526 -1943 0
-527 -1946 0
-528 -1948 0
-529 -1949 0
-533 -573 0
-534 -575 0
-536 -577 0
-531 -579 0
-532 -580 0
-533 -581 0
-534 -583 0
-535 -585 0
-536 -586 0
-531 -588 0
-532 -589 0
-533 -590 0
-536 -592 0
-531 -594 0
-534 -596 0
-535 -598 0
-536 -599 0
-531 -601 0
-533 -602 0
-536 -606 0
-531 -607 0
-532 -608 0
-533 -609 0
-535 -612 0
-536 -613 0
-532 -615 0
-535 -618 0
-536 -619 0
-532 -621 0
-533 -622 0
-534 -624 0
-536 -625 0
-532 -648 0
-533 -649 0
-535 -652 0
-536 -653 0
-532 -655 0
-534 -658 0
-536 -660 0
-531 -661 0
-532 -662 0
-534 -664 0
-535 -666 0
-536 -667 0
-536 -673 0
-531 -682 0
-532 -683 0
-535 -685 0
-536 -686 0
-531 -688 0
-532 -689 0
-533 -690 0
-534 -693 0
-536 -695 0
-530 -787 0
-534 -790 0
-535 -791 0
-536 -792 0
-530 -793 0
-533 -795 0
-536 -798 0
-530 -806 0
-531 -808 0
-532 -809 0
-533 -810 0
-535 -813 0
-536 -814 0
-530 -822 0
-531 -824 0
-533 -825 0
-534 -828 0
-535 -829 0
-536 -830 0
-530 -832 0
-531 -834 0
-533 -835 0
-536 -837 0
-530 -838 0
-531 -840 0
-535 -842 0
-536 -843 0
-530 -860 0
-531 -861 0
-533 -862 0
-535 -863 0
-536 -864 0
-531 -866 0
-534 -868 0
-535 -870 0
-536 -871 0
-531 -873 0
-533 -874 0
-536 -878 0
-531 -886 0
-535 -890 0
-536 -891 0
-530 -899 0
-532 -901 0
-535 -903 0
-536 -904 0
-530 -906 0
-532 -908 0
-533 -909 0
-534 -912 0
-536 -914 0
-530 -937 0
-533 -939 0
-535 -943 0
-536 -944 0
-530 -946 0
-534 -949 0
-536 -950 0
-530 -959 0
-531 -960 0
-532 -961 0
-534 -964 0
-535 -965 0
-536 -966 0
-530 -974 0
-531 -975 0
-535 -978 0
-536 -979 0
-530 -981 0
-531 -982 0
-533 -983 0
-534 -985 0
-536 -986 0
-531 -1022 0
-533 -1023 0
-535 -1026 0
-536 -1027 0
-531 -1029 0
-534 -1032 0
-536 -1034 0
-532 -1043 0
-534 -1046 0
-535 -1048 0
-536 -1049 0
-532 -1052 0
-533 -1053 0
-536 -1055 0
-533 -1073 0
-534 -1075 0
-536 -1077 0
-533 -1089 0
-534 -1090 0
-535 -1091 0
-536 -1092 0
-536 -1098 0
-531 -1100 0
-532 -1101 0
-535 -1103 0
-536 -1104 0
-531 -1112 0
-534 -1114 0
-535 -1115 0
-536 -1116 0
-531 -1118 0
-533 -1119 0
-536 -1122 0
-532 -1200 0
-533 -1201 0
-535 -1203 0
-536 -1204 0
-532 -1206 0
-534 -1208 0
-536 -1210 0
-530 -1287 0
-533 -1289 0
-534 -1290 0
-535 -1292 0
-536 -1293 0
-530 -1294 0
-533 -1296 0
-534 -1299 0
-536 -1300 0
-530 -1301 0
-531 -1302 0
-532 -1303 0
-533 -1304 0
-534 -1305 0
-535 -1306 0
-536 -1307 0
-530 -1326 0
-531 -1327 0
-533 -1328 0
-534 -1331 0
-535 -1333 0
-536 -1334 0
-530 -1349 0
-532 -1350 0
-533 -1351 0
-535 -1354 0
-536 -1355 0
-530 -1363 0
-532 -1364 0
-535 -1367 0
-536 -1368 0
-530 -1384 0
-534 -1386 0
-535 -1388 0
-536 -1389 0
-530 -1391 0
-533 -1392 0
-536 -1396 0
-533 -1397 0
-534 -1400 0
-535 -1402 0
-536 -1403 0
-532 -1405 0
-533 -1406 0
-534 -1407 0
-535 -1409 0
-536 -1410 0
-532 -1418 0
-533 -1419 0
-534 -1421 0
-535 -1422 0
-536 -1423 0
-532 -1425 0
-533 -1426 0
-534 -1428 0
-536 -1430 0
-532 -1431 0
-534 -1434 0
-535 -1435 0
-536 -1436 0
-534 -1439 0
-535 -1441 0
-536 -1442 0
-533 -1444 0
-534 -1447 0
-536 -1448 0
-530 -1463 0
-531 -1465 0
-535 -1467 0
-536 -1468 0
-530 -1469 0
-531 -1471 0
-533 -1472 0
-534 -1475 0
-536 -1477 0
-530 -1492 0
-531 -1493 0
-534 -1496 0
-535 -1497 0
-536 -1498 0
-530 -1499 0
-532 -1501 0
-533 -1502 0
-534 -1505 0
-535 -1506 0
-536 -1507 0
-530 -1508 0
-532 -1510 0
-534 -1511 0
-536 -1513 0
-530 -1532 0
-533 -1534 0
-534 -1535 0
-535 -1537 0
-536 -1538 0
-530 -1539 0
-533 -1541 0
-534 -1544 0
-536 -1545 0
-530 -1552 0
-531 -1553 0
-532 -1554 0
-533 -1555 0
-534 -1556 0
-535 -1557 0
-536 -1558 0
-530 -1567 0
-531 -1568 0
-533 -1569 0
-534 -1571 0
-535 -1573 0
-536 -1574 0
-530 -1576 0
-531 -1577 0
-534 -1579 0
-536 -1580 0
-531 -1581 0
-533 -1582 0
-534 -1584 0
-535 -1585 0
-536 -1586 0
-531 -1587 0
-533 -1588 0
-534 -1590 0
-536 -1592 0
-532 -1594 0
-533 -1595 0
-535 -1598 0
-536 -1599 0
-532 -1601 0
-534 -1604 0
-536 -1606 0
-536 -1626 0
-533 -1635 0
-535 -1638 0
-536 -1639 0
-533 -1641 0
-534 -1643 0
-536 -1645 0
-531 -1646 0
-532 -1647 0
-533 -1648 0
-534 -1651 0
-535 -1653 0
-536 -1654 0
-531 -1662 0
-533 -1663 0
-535 -1666 0
-536 -1667 0
-531 -1669 0
-534 -1672 0
-536 -1674 0
-532 -1723 0
-533 -1724 0
-534 -1726 0
-535 -1727 0
-536 -1728 0
-532 -1730 0
-533 -1731 0
-534 -1733 0
-536 -1735 0
-533 -1751 0
-534 -1754 0
-536 -1755 0
-530 -1812 0
-533 -1813 0
-535 -1816 0
-536 -1817 0
-530 -1818 0
-534 -1821 0
-536 -1823 0
-532 -1824 0
-534 -1827 0
-535 -1828 0
-536 -1829 0
-532 -1830 0
-533 -1831 0
-536 -1835 0
-533 -1836 0
-534 -1839 0
-535 -1841 0
-536 -1842 0
-530 -1858 0
-531 -1859 0
-533 -1860 0
-535 -1863 0
-536 -1864 0
-530 -1871 0
-532 -1872 0
-534 -1874 0
-535 -1876 0
-536 -1877 0
-530 -1879 0
-533 -1880 0
-534 -1882 0
-535 -1883 0
-536 -1884 0
-530 -1899 0
-532 -1900 0
-535 -1903 0
-536 -1904 0
-530 -1912 0
-534 -1914 0
-535 -1916 0
-536 -1917 0
-530 -1919 0
-533 -1920 0
-536 -1924 0
-530 -1925 0
-533 -1926 0
-535 -1929 0
-536 -1930 0
-533 -1943 0
-534 -1946 0
-535 -1948 0
-536 -1949 0
-540 -573 0
-541 -574 0
-543 -575 0
-545 -577 0
-538 -588 0
-539 -589 0
-540 -590 0
-541 -591 0
-545 -592 0
-538 -594 0
-541 -595 0
-543 -596 0
-544 -598 0
-545 -599 0
-538 -607 0
-539 -608 0
-540 -609 0
-541 -610 0
-544 -612 0
-545 -613 0
-539 -621 0
-540 -622 0
-542 -623 0
-543 -624 0
-545 -625 0
-539 -634 0
-540 -635 0
-541 -636 0
-542 -637 0
-544 -639 0
-545 -640 0
-539 -648 0
-540 -649 0
-542 -650 0
-544 -652 0
-545 -653 0
-538 -661 0
-539 -662 0
-542 -663 0
-543 -664 0
-544 -666 0
-545 -667 0
-537 -668 0
-541 -670 0
-542 -671 0
-545 -673 0
-538 -675 0
-539 -676 0
-541 -677 0
-542 -678 0
-545 -680 0
-537 -687 0
-538 -688 0
-539 -689 0
-540 -690 0
-541 -691 0
-542 -692 0
-543 -693 0
-545 -695 0
-538 -702 0
-541 -703 0
-542 -704 0
-544 -706 0
-545 -707 0
-539 -716 0
-540 -717 0
-541 -718 0
-543 -719 0
-544 -720 0
-545 -721 0
-538 -729 0
-539 -730 0
-541 -731 0
-543 -732 0
-545 -734 0
-539 -755 0
-540 -756 0
-541 -757 0
-542 -758 0
-545 -760 0
-537 -768 0
-539 -769 0
-541 -770 0
-542 -771 0
-544 -773 0
-545 -774 0
-541 -789 0
-543 -790 0
-544 -791 0
-545 -792 0
-537 -799 0
-540 -801 0
-541 -802 0
-544 -804 0
-545 -805 0
-538 -808 0
-539 -809 0
-540 -810 0
-541 -811 0
-544 -813 0
-545 -814 0
-538 -817 0
-540 -818 0
-543 -819 0
-545 -820 0
-537 -831 0
-538 -834 0
-540 -835 0
-545 -837 0
-537 -844 0
-538 -846 0
-541 -847 0
-544 -848 0
-545 -849 0
-537 -859 0
-538 -861 0
-540 -862 0
-544 -863 0
-545 -864 0
-538 -873 0
-540 -874 0
-541 -875 0
-542 -876 0
-545 -878 0
-538 -886 0
-541 -887 0
-542 -888 0
-544 -890 0
-545 -891 0
-539 -894 0
-541 -895 0
-542 -896 0
-545 -897 0
-537 -905 0
-539 -908 0
-540 -909 0
-541 -910 0
-542 -911 0
-543 -912 0
-545 -914 0
-537 -922 0
-540 -925 0
-542 -926 0
-544 -927 0
-545 -928 0
-537 -936 0
-540 -939 0
-541 -940 0
-542 -941 0
-544 -943 0
-545 -944 0
-537 -951 0
-541 -953 0
-542 -954 0
-543 -955 0
-544 -956 0
-545 -957 0
-537 -958 0
-538 -960 0
-539 -961 0
-541 -962 0
-542 -963 0
-543 -964 0
-544 -965 0
-545 -966 0
-537 -967 0
-538 -969 0
-542 -970 0
-545 -972 0
-537 -980 0
-538 -982 0
-540 -983 0
-542 -984 0
-543 -985 0
-545 -986 0
-541 -996 0
-542 -997 0
-544 -999 0
-545 -1000 0
-538 -1016 0
-540 -1017 0
-541 -1018 0
-542 -1019 0
-545 -1020 0
-537 -1028 0
-538 -1029 0
-541 -1030 0
-542 -1031 0
-543 -1032 0
-545 -1034 0
-539 -1037 0
-543 -1038 0
-545 -1040 0
-537 -1050 0
-539 -1052 0
-540 -1053 0
-545 -1055 0
-537 -1062 0
-540 -1065 0
-541 -1066 0
-543 -1067 0
-544 -1069 0
-545 -1070 0
-537 -1087 0
-540 -1089 0
-543 -1090 0
-544 -1091 0
-545 -1092 0
-537 -1099 0
-538 -1100 0
-539 -1101 0
-544 -1103 0
-545 -1104 0
-537 -1105 0
-538 -1107 0
-541 -1108 0
-543 -1109 0
-545 -1110 0
-537 -1117 0
-538 -1118 0
-540 -1119 0
-541 -1120 0
-545 -1122 0
-542 -1130 0
-543 -1131 0
-544 -1133 0
-545 -1134 0
-538 -1161 0
-540 -1162 0
-542 -1163 0
-543 -1164 0
-545 -1166 0
-537 -1193 0
-539 -1195 0
-540 -1196 0
-542 -1197 0
-545 -1198 0
-537 -1205 0
-539 -1206 0
-542 -1207 0
-543 -1208 0
-545 -1210 0
-537 -1217 0
-541 -1219 0
-542 -1220 0
-544 -1221 0
-545 -1222 0
-537 -1267 0
-540 -1268 0
-542 -1269 0
-544 -1271 0
-545 -1272 0
-539 -1274 0
-540 -1275 0
-541 -1276 0
-543 -1277 0
-544 -1278 0
-545 -1279 0
-540 -1289 0
-543 -1290 0
-544 -1292 0
-545 -1293 0
-538 -1302 0
-539 -1303 0
-540 -1304 0
-543 -1305 0
-544 -1306 0
-545 -1307 0
-537 -1335 0
-538 -1336 0
-540 -1337 0
-543 -1338 0
-544 -1340 0
-545 -1341 0
-539 -1350 0
-540 -1351 0
-541 -1352 0
-542 -1353 0
-544 -1354 0
-545 -1355 0
-539 -1357 0
-540 -1358 0
-542 -1359 0
-543 -1360 0
-545 -1362 0
-537 -1369 0
-539 -1370 0
-541 -1371 0
-542 -1372 0
-544 -1374 0
-545 -1375 0
-537 -1383 0
-542 -1385 0
-543 -1386 0
-544 -1388 0
-545 -1389 0
-540 -1397 0
-541 -1398 0
-542 -1399 0
-543 -1400 0
-544 -1402 0
-545 -1403 0
-539 -1405 0
-540 -1406 0
-543 -1407 0
-544 -1409 0
-545 -1410 0
-539 -1412 0
-540 -1413 0
-541 -1414 0
-543 -1415 0
-545 -1416 0
-537 -1424 0
-539 -1425 0
-540 -1426 0
-541 -1427 0
-543 -1428 0
-545 -1430 0
-537 -1437 0
-541 -1438 0
-543 -1439 0
-544 -1441 0
-545 -1442 0
-540 -1450 0
-541 -1451 0
-542 -1452 0
-543 -1453 0
-544 -1455 0
-545 -1456 0
-542 -1458 0
-543 -1459 0
-544 -1461 0
-545 -1462 0
-538 -1471 0
-540 -1472 0
-541 -1473 0
-542 -1474 0
-543 -1475 0
-545 -1477 0
-538 -1479 0
-540 -1480 0
-542 -1481 0
-543 -1482 0
-544 -1483 0
-545 -1484 0
-538 -1493 0
-541 -1494 0
-542 -1495 0
-543 -1496 0
-544 -1497 0
-545 -1498 0
-539 -1510 0
-543 -1511 0
-545 -1513 0
-541 -1522 0
-543 -1523 0
-544 -1524 0
-545 -1525 0
-540 -1534 0
-543 -1535 0
-544 -1537 0
-545 -1538 0
-537 -1546 0
-540 -1548 0
-543 -1549 0
-544 -1550 0
-545 -1551 0
-538 -1553 0
-539 -1554 0
-540 -1555 0
-543 -1556 0
-544 -1557 0
-545 -1558 0
-538 -1560 0
-540 -1561 0
-541 -1562 0
-543 -1563 0
-545 -1565 0
-537 -1575 0
-538 -1577 0
-541 -1578 0
-543 -1579 0
-545 -1580 0
-538 -1587 0
-540 -1588 0
-542 -1589 0
-543 -1590 0
-545 -1592 0
-539 -1601 0
-541 -1602 0
-542 -1603 0
-543 -1604 0
-545 -1606 0
-541 -1616 0
-542 -1617 0
-544 -1619 0
-545 -1620 0
-540 -1635 0
-541 -1636 0
-542 -1637 0
-544 -1638 0
-545 -1639 0
-538 -1646 0
-539 -1647 0
-540 -1648 0
-541 -1649 0
-542 -1650 0
-543 -1651 0
-544 -1653 0
-545 -1654 0
-538 -1656 0
-540 -1657 0
-541 -1658 0
-542 -1659 0
-545 -1660 0
-537 -1668 0
-538 -1669 0
-541 -1670 0
-542 -1671 0
-543 -1672 0
-545 -1674 0
-539 -1717 0
-540 -1718 0
-541 -1719 0
-543 -1720 0
-545 -1721 0
-537 -1729 0
-539 -1730 0
-540 -1731 0
-541 -1732 0
-543 -1733 0
-545 -1735 0
-537 -1743 0
-540 -1745 0
-541 -1746 0
-543 -1747 0
-544 -1748 0
-545 -1749 0
-540 -1781 0
-541 -1782 0
-542 -1783 0
-543 -1784 0
-544 -1786 0
-545 -1787 0
-538 -1788 0
-541 -1789 0
-542 -1790 0
-544 -1792 0
-545 -1793 0
-539 -1800 0
-540 -1801 0
-543 -1802 0
-544 -1804 0
-545 -1805 0
-540 -1813 0
-541 -1814 0
-544 -1816 0
-545 -1817 0
-539 -1830 0
-540 -1831 0
-541 -1832 0
-542 -1833 0
-545 -1835 0
-540 -1836 0
-541 -1837 0
-542 -1838 0
-543 -1839 0
-544 -1841 0
-545 -1842 0
-541 -1846 0
-542 -1847 0
-544 -1849 0
-545 -1850 0
-538 -1859 0
-540 -1860 0
-542 -1861 0
-544 -1863 0
-545 -1864 0
-539 -1872 0
-541 -1873 0
-543 -1874 0
-544 -1876 0
-545 -1877 0
-537 -1885 0
-540 -1887 0
-541 -1888 0
-543 -1889 0
-544 -1890 0
-545 -1891 0
-539 -1900 0
-542 -1901 0
-544 -1903 0
-545 -1904 0
-541 -1906 0
-542 -1907 0
-543 -1908 0
-545 -1910 0
-537 -1918 0
-540 -1920 0
-541 -1921 0
-542 -1922 0
-545 -1924 0
-537 -1931 0
-540 -1932 0
-542 -1933 0
-544 -1935 0
-545 -1936 0
-549 -576 0
-551 -577 0
-547 -579 0
-548 -580 0
-549 -584 0
-550 -585 0
-551 -586 0
-547 -601 0
-549 -605 0
-551 -606 0
-547 -607 0
-548 -608 0
-549 -611 0
-550 -612 0
-551 -613 0
-548 -615 0
-549 -617 0
-550 -618 0
-551 -619 0
-548 -628 0
-549 -630 0
-551 -631 0
-548 -655 0
-549 -659 0
-551 -660 0
-547 -661 0
-548 -662 0
-549 -665 0
-550 -666 0
-551 -667 0
-546 -668 0
-549 -672 0
-551 -673 0
-547 -675 0
-548 -676 0
-549 -679 0
-551 -680 0
-546 -681 0
-547 -682 0
-548 -683 0
-549 -684 0
-550 -685 0
-551 -686 0
-547 -696 0
-549 -700 0
-551 -701 0
-548 -709 0
-549 -713 0
-551 -714 0
-547 -729 0
-548 -730 0
-549 -733 0
-551 -734 0
-548 -755 0
-549 -759 0
-551 -760 0
-546 -761 0
-548 -762 0
-549 -766 0
-551 -767 0
-549 -797 0
-551 -798 0
-546 -799 0
-549 -803 0
-550 -804 0
-551 -805 0
-547 -808 0
-548 -809 0
-549 -812 0
-550 -813 0
-551 -814 0
-547 -817 0
-551 -820 0
-546 -821 0
-547 -824 0
-550 -829 0
-551 -830 0
-546 -850 0
-547 -852 0
-549 -856 0
-550 -857 0
-551 -858 0
-546 -859 0
-547 -861 0
-550 -863 0
-551 -864 0
-547 -866 0
-549 -869 0
-550 -870 0
-551 -871 0
-547 -886 0
-549 -889 0
-550 -890 0
-551 -891 0
-548 -894 0
-551 -897 0
-546 -898 0
-548 -901 0
-550 -903 0
-551 -904 0
-546 -915 0
-549 -920 0
-551 -921 0
-546 -945 0
-551 -950 0
-546 -951 0
-550 -956 0
-551 -957 0
-546 -958 0
-547 -960 0
-548 -961 0
-550 -965 0
-551 -966 0
-546 -967 0
-547 -969 0
-549 -971 0
-551 -972 0
-546 -973 0
-547 -975 0
-549 -977 0
-550 -978 0
-551 -979 0
-551 -993 0
-547 -1016 0
-551 -1020 0
-546 -1021 0
-547 -1022 0
-550 -1026 0
-551 -1027 0
-548 -1037 0
-549 -1039 0
-551 -1040 0
-546 -1041 0
-548 -1043 0
-549 -1047 0
-550 -1048 0
-551 -1049 0
-546 -1056 0
-551 -1061 0
-546 -1093 0
-549 -1097 0
-551 -1098 0
-546 -1099 0
-547 -1100 0
-548 -1101 0
-549 -1102 0
-550 -1103 0
-551 -1104 0
-546 -1105 0
-547 -1107 0
-551 -1110 0
-546 -1111 0
-547 -1112 0
-550 -1115 0
-551 -1116 0
-549 -1127 0
-551 -1128 0
-547 -1161 0
-549 -1165 0
-551 -1166 0
-546 -1193 0
-548 -1195 0
-551 -1198 0
-546 -1199 0
-548 -1200 0
-550 -1203 0
-551 -1204 0
-546 -1211 0
-549 -1215 0
-551 -1216 0
-546 -1261 0
-551 -1266 0
-548 -1281 0
-549 -1284 0
-550 -1285 0
-551 -1286 0
-551 -1300 0
-547 -1302 0
-548 -1303 0
-550 -1306 0
-551 -1307 0
-546 -1342 0
-547 -1343 0
-550 -1347 0
-551 -1348 0
-548 -1350 0
-550 -1354 0
-551 -1355 0
-548 -1357 0
-549 -1361 0
-551 -1362 0
-546 -1376 0
-548 -1377 0
-550 -1381 0
-551 -1382 0
-546 -1390 0
-549 -1395 0
-551 -1396 0
-548 -1405 0
-549 -1408 0
-550 -1409 0
-551 -1410 0
-548 -1412 0
-551 -1416 0
-546 -1417 0
-548 -1418 0
-550 -1422 0
-551 -1423 0
-546 -1443 0
-551 -1448 0
-549 -1460 0
-550 -1461 0
-551 -1462 0
-547 -1465 0
-550 -1467 0
-551 -1468 0
-547 -1486 0
-549 -1489 0
-550 -1490 0
-551 -1491 0
-547 -1493 0
-550 -1497 0
-551 -1498 0
-548 -1501 0
-550 -1506 0
-551 -1507 0
-549 -1518 0
-551 -1519 0
-551 -1545 0
-546 -1546 0
-550 -1550 0
-551 -1551 0
-547 -1553 0
-548 -1554 0
-550 -1557 0
-551 -1558 0
-547 -1560 0
-549 -1564 0
-551 -1565 0
-546 -1566 0
-547 -1568 0
-549 -1572 0
-550 -1573 0
-551 -1574 0
-547 -1581 0
-550 -1585 0
-551 -1586 0
-548 -1594 0
-549 -1597 0
-550 -1598 0
-551 -1599 0
-551 -1613 0
-549 -1644 0
-551 -1645 0
-547 -1646 0
-548 -1647 0
-549 -1652 0
-550 -1653 0
-551 -1654 0
-547 -1656 0
-551 -1660 0
-546 -1661 0
-547 -1662 0
-550 -1666 0
-551 -1667 0
-548 -1717 0
-551 -1721 0
-546 -1722 0
-548 -1723 0
-550 -1727 0
-551 -1728 0
-546 -1736 0
-549 -1741 0
-551 -1742 0
-547 -1794 0
-550 -1798 0
-551 -1799 0
-548 -1806 0
-550 -1810 0
-551 -1811 0
-549 -1822 0
-551 -1823 0
-548 -1824 0
-550 -1828 0
-551 -1829 0
-549 -1855 0
-550 -1856 0
-551 -1857 0
-547 -1859 0
-549 -1862 0
-550 -1863 0
-551 -1864 0
-548 -1872 0
-549 -1875 0
-550 -1876 0
-551 -1877 0
-546 -1892 0
-549 -1896 0
-550 -1897 0
-551 -1898 0
-548 -1900 0
-549 -1902 0
-550 -1903 0
-551 -1904 0
-549 -1909 0
-551 -1910 0
-546 -1911 0
-549 -1915 0
-550 -1916 0
-551 -1917 0
-546 -1937 0
-549 -1940 0
-550 -1941 0
-551 -1942 0
-549 -1947 0
-550 -1948 0
-551 -1949 0
-552 -594 0
-556 -598 0
-557 -599 0
-552 -601 0
-554 -602 0
-555 -604 0
-557 -606 0
-552 -607 0
-553 -608 0
-554 -609 0
-556 -612 0
-557 -613 0
-553 -615 0
-556 -618 0
-557 -619 0
-553 -621 0
-554 -622 0
-555 -623 0
-557 -625 0
-553 -628 0
-557 -631 0
-553 -634 0
-554 -635 0
-555 -637 0
-556 -639 0
-557 -640 0
-552 -642 0
-553 -643 0
-554 -644 0
-557 -646 0
-555 -671 0
-557 -673 0
-552 -682 0
-553 -683 0
-556 -685 0
-557 -686 0
-552 -688 0
-553 -689 0
-554 -690 0
-555 -692 0
-557 -695 0
-553 -709 0
-555 -711 0
-557 -714 0
-553 -716 0
-554 -717 0
-556 -720 0
-557 -721 0
-552 -722 0
-553 -723 0
-554 -724 0
-555 -726 0
-557 -728 0
-553 -744 0
-555 -745 0
-557 -748 0
-553 -750 0
-554 -751 0
-556 -753 0
-557 -754 0
-556 -791 0
-557 -792 0
-554 -795 0
-555 -796 0
-557 -798 0
-552 -808 0
-553 -809 0
-554 -810 0
-556 -813 0
-557 -814 0
-552 -817 0
-554 -818 0
-557 -820 0
-552 -846 0
-556 -848 0
-557 -849 0
-552 -852 0
-554 -853 0
-555 -854 0
-556 -857 0
-557 -858 0
-552 -861 0
-554 -862 0
-556 -863 0
-557 -864 0
-552 -866 0
-556 -870 0
-557 -871 0
-552 -873 0
-554 -874 0
-555 -876 0
-557 -878 0
-552 -880 0
-554 -881 0
-557 -885 0
-553 -901 0
-556 -903 0
-557 -904 0
-553 -908 0
-554 -909 0
-555 -911 0
-557 -914 0
-557 -921 0
-554 -925 0
-555 -926 0
-556 -927 0
-557 -928 0
-552 -931 0
-553 -932 0
-554 -933 0
-557 -935 0
-555 -954 0
-556 -956 0
-557 -957 0
-552 -975 0
-556 -978 0
-557 -979 0
-552 -982 0
-554 -983 0
-555 -984 0
-557 -986 0
-553 -1043 0
-555 -1045 0
-556 -1048 0
-557 -1049 0
-553 -1052 0
-554 -1053 0
-557 -1055 0
-555 -1059 0
-557 -1061 0
-554 -1065 0
-556 -1069 0
-557 -1070 0
-552 -1080 0
-553 -1081 0
-554 -1082 0
-555 -1083 0
-557 -1086 0
-552 -1112 0
-555 -1113 0
-556 -1115 0
-557 -1116 0
-552 -1118 0
-554 -1119 0
-557 -1122 0
-552 -1148 0
-555 -1150 0
-557 -1153 0
-552 -1155 0
-554 -1156 0
-556 -1159 0
-557 -1160 0
-553 -1181 0
-555 -1183 0
-557 -1185 0
-553 -1188 0
-554 -1189 0
-556 -1191 0
-557 -1192 0
-555 -1309 0
-556 -1312 0
-557 -1313 0
-554 -1315 0
-555 -1317 0
-556 -1318 0
-557 -1319 0
-552 -1320 0
-553 -1321 0
-554 -1322 0
-555 -1323 0
-556 -1324 0
-557 -1325 0
-552 -1327 0
-554 -1328 0
-555 -1330 0
-556 -1333 0
-557 -1334 0
-553 -1350 0
-554 -1351 0
-555 -1353 0
-556 -1354 0
-557 -1355 0
-553 -1357 0
-554 -1358 0
-555 -1359 0
-557 -1362 0
-553 -1370 0
-555 -1372 0
-556 -1374 0
-557 -1375 0
-553 -1377 0
-554 -1378 0
-555 -1379 0
-556 -1381 0
-557 -1382 0
-555 -1385 0
-556 -1388 0
-557 -1389 0
-554 -1392 0
-555 -1394 0
-557 -1396 0
-553 -1405 0
-554 -1406 0
-556 -1409 0
-557 -1410 0
-553 -1412 0
-554 -1413 0
-557 -1416 0
-556 -1441 0
-557 -1442 0
-554 -1444 0
-555 -1446 0
-557 -1448 0
-554 -1450 0
-555 -1452 0
-556 -1455 0
-557 -1456 0
-552 -1479 0
-554 -1480 0
-555 -1481 0
-556 -1483 0
-557 -1484 0
-552 -1486 0
-556 -1490 0
-557 -1491 0
-552 -1493 0
-555 -1495 0
-556 -1497 0
-557 -1498 0
-553 -1501 0
-554 -1502 0
-555 -1504 0
-556 -1506 0
-557 -1507 0
-553 -1510 0
-557 -1513 0
-554 -1516 0
-555 -1517 0
-557 -1519 0
-556 -1524 0
-557 -1525 0
-552 -1527 0
-553 -1528 0
-555 -1529 0
-557 -1531 0
-554 -1548 0
-556 -1550 0
-557 -1551 0
-552 -1568 0
-554 -1569 0
-555 -1570 0
-556 -1573 0
-557 -1574 0
-552 -1577 0
-557 -1580 0
-553 -1594 0
-554 -1595 0
-555 -1596 0
-556 -1598 0
-557 -1599 0
-553 -1601 0
-555 -1603 0
-557 -1606 0
-554 -1609 0
-555 -1611 0
-557 -1613 0
-555 -1617 0
-556 -1619 0
-557 -1620 0
-552 -1628 0
-553 -1629 0
-555 -1631 0
-557 -1633 0
-552 -1662 0
-554 -1663 0
-555 -1665 0
-556 -1666 0
-557 -1667 0
-552 -1669 0
-555 -1671 0
-557 -1674 0
-552 -1675 0
-554 -1676 0
-555 -1677 0
-557 -1680 0
-552 -1681 0
-555 -1683 0
-556 -1685 0
-557 -1686 0
-553 -1703 0
-554 -1704 0
-555 -1705 0
-557 -1706 0
-553 -1709 0
-555 -1711 0
-556 -1714 0
-557 -1715 0
-554 -1751 0
-555 -1753 0
-557 -1755 0
-553 -1800 0
-554 -1801 0
-556 -1804 0
-557 -1805 0
-553 -1806 0
-555 -1808 0
-556 -1810 0
-557 -1811 0
-554 -1813 0
-556 -1816 0
-557 -1817 0
-555 -1820 0
-557 -1823 0
-554 -1836 0
-555 -1838 0
-556 -1841 0
-557 -1842 0
-552 -1866 0
-556 -1869 0
-557 -1870 0
-553 -1872 0
-556 -1876 0
-557 -1877 0
-554 -1887 0
-556 -1890 0
-557 -1891 0
-555 -1894 0
-556 -1897 0
-557 -1898 0
-553 -1900 0
-555 -1901 0
-556 -1903 0
-557 -1904 0
-555 -1907 0
-557 -1910 0
-554 -1932 0
-555 -1933 0
-556 -1935 0
-557 -1936 0
-556 -1941 0
-557 -1942 0
-554 -1943 0
-555 -1945 0
-556 -1948 0
-557 -1949 0
-560 -573 0
-561 -575 0
-562 -576 0
-564 -577 0
-559 -579 0
-560 -581 0
-561 -583 0
-562 -584 0
-563 -585 0
-564 -586 0
-559 -601 0
-560 -602 0
-562 -605 0
-564 -606 0
-559 -607 0
-560 -609 0
-562 -611 0
-563 -612 0
-564 -613 0
-562 -617 0
-563 -618 0
-564 -619 0
-560 -635 0
-562 -638 0
-563 -639 0
-564 -640 0
-559 -642 0
-560 -644 0
-562 -645 0
-564 -646 0
-561 -658 0
-562 -659 0
-564 -660 0
-559 -661 0
-561 -664 0
-562 -665 0
-563 -666 0
-564 -667 0
-558 -687 0
-559 -688 0
-560 -690 0
-561 -693 0
-562 -694 0
-564 -695 0
-560 -717 0
-561 -719 0
-563 -720 0
-564 -721 0
-559 -722 0
-560 -724 0
-561 -727 0
-564 -728 0
-558 -749 0
-560 -751 0
-563 -753 0
-564 -754 0
-561 -790 0
-563 -791 0
-564 -792 0
-559 -817 0
-560 -818 0
-561 -819 0
-564 -820 0
-558 -821 0
-559 -824 0
-560 -825 0
-561 -828 0
-563 -829 0
-564 -830 0
-559 -840 0
-563 -842 0
-564 -843 0
-558 -844 0
-559 -846 0
-563 -848 0
-564 -849 0
-558 -859 0
-559 -861 0
-560 -862 0
-563 -863 0
-564 -864 0
-559 -866 0
-561 -868 0
-562 -869 0
-563 -870 0
-564 -871 0
-559 -880 0
-560 -881 0
-561 -883 0
-562 -884 0
-564 -885 0
-559 -886 0
-562 -889 0
-563 -890 0
-564 -891 0
-564 -897 0
-558 -898 0
-563 -903 0
-564 -904 0
-558 -922 0
-560 -925 0
-563 -927 0
-564 -928 0
-558 -929 0
-559 -931 0
-560 -933 0
-564 -935 0
-558 -945 0
-561 -949 0
-564 -950 0
-558 -951 0
-561 -955 0
-563 -956 0
-564 -957 0
-558 -958 0
-559 -960 0
-561 -964 0
-563 -965 0
-564 -966 0
-558 -980 0
-559 -982 0
-560 -983 0
-561 -985 0
-564 -986 0
-562 -998 0
-563 -999 0
-564 -1000 0
-559 -1002 0
-562 -1006 0
-564 -1007 0
-558 -1028 0
-559 -1029 0
-561 -1032 0
-562 -1033 0
-564 -1034 0
-561 -1038 0
-562 -1039 0
-564 -1040 0
-558 -1041 0
-561 -1046 0
-562 -1047 0
-563 -1048 0
-564 -1049 0
-558 -1062 0
-560 -1065 0
-561 -1067 0
-562 -1068 0
-563 -1069 0
-564 -1070 0
-558 -1071 0
-560 -1073 0
-561 -1075 0
-562 -1076 0
-564 -1077 0
-558 -1078 0
-559 -1080 0
-560 -1082 0
-561 -1084 0
-562 -1085 0
-564 -1086 0
-558 -1093 0
-562 -1097 0
-564 -1098 0
-558 -1099 0
-559 -1100 0
-562 -1102 0
-563 -1103 0
-564 -1104 0
-558 -1117 0
-559 -1118 0
-560 -1119 0
-562 -1121 0
-564 -1122 0
-561 -1131 0
-562 -1132 0
-563 -1133 0
-564 -1134 0
-559 -1135 0
-561 -1138 0
-562 -1139 0
-564 -1140 0
-558 -1154 0
-559 -1155 0
-560 -1156 0
-561 -1157 0
-562 -1158 0
-563 -1159 0
-564 -1160 0
-558 -1167 0
-562 -1171 0
-564 -1172 0
-558 -1186 0
-560 -1189 0
-562 -1190 0
-563 -1191 0
-564 -1192 0
-558 -1205 0
-561 -1208 0
-562 -1209 0
-564 -1210 0
-558 -1240 0
-562 -1244 0
-563 -1245 0
-564 -1246 0
-560 -1289 0
-561 -1290 0
-562 -1291 0
-563 -1292 0
-564 -1293 0
-561 -1310 0
-562 -1311 0
-563 -1312 0
-564 -1313 0
-559 -1327 0
-560 -1328 0
-561 -1331 0
-562 -1332 0
-563 -1333 0
-564 -1334 0
-558 -1335 0
-559 -1336 0
-560 -1337 0
-561 -1338 0
-562 -1339 0
-563 -1340 0
-564 -1341 0
-560 -1358 0
-561 -1360 0
-562 -1361 0
-564 -1362 0
-562 -1366 0
-563 -1367 0
-564 -1368 0
-558 -1369 0
-562 -1373 0
-563 -1374 0
-564 -1375 0
-558 -1390 0
-560 -1392 0
-562 -1395 0
-564 -1396 0
-560 -1413 0
-561 -1415 0
-564 -1416 0
-558 -1417 0
-560 -1419 0
-561 -1421 0
-563 -1422 0
-564 -1423 0
-561 -1434 0
-563 -1435 0
-564 -1436 0
-558 -1443 0
-560 -1444 0
-561 -1447 0
-564 -1448 0
-560 -1450 0
-561 -1453 0
-562 -1454 0
-563 -1455 0
-564 -1456 0
-559 -1465 0
-563 -1467 0
-564 -1468 0
-559 -1479 0
-560 -1480 0
-561 -1482 0
-563 -1483 0
-564 -1484 0
-559 -1493 0
-561 -1496 0
-563 -1497 0
-564 -1498 0
-560 -1502 0
-561 -1505 0
-563 -1506 0
-564 -1507 0
-561 -1523 0
-563 -1524 0
-564 -1525 0
-559 -1527 0
-561 -1530 0
-564 -1531 0
-560 -1541 0
-561 -1544 0
-564 -1545 0
-558 -1546 0
-560 -1548 0
-561 -1549 0
-563 -1550 0
-564 -1551 0
-559 -1553 0
-560 -1555 0
-561 -1556 0
-563 -1557 0
-564 -1558 0
-558 -1575 0
-559 -1577 0
-561 -1579 0
-564 -1580 0
-559 -1587 0
-560 -1588 0
-561 -1590 0
-562 -1591 0
-564 -1592 0
-560 -1595 0
-562 -1597 0
-563 -1598 0
-564 -1599 0
-562 -1618 0
-563 -1619 0
-564 -1620 0
-558 -1621 0
-562 -1625 0
-564 -1626 0
-559 -1628 0
-562 -1632 0
-564 -1633 0
-560 -1641 0
-561 -1643 0
-562 -1644 0
-564 -1645 0
-559 -1646 0
-560 -1648 0
-561 -1651 0
-562 -1652 0
-563 -1653 0
-564 -1654 0
-558 -1668 0
-559 -1669 0
-561 -1672 0
-562 -1673 0
-564 -1674 0
-559 -1681 0
-562 -1684 0
-563 -1685 0
-564 -1686 0
-560 -1689 0
-561 -1691 0
-562 -1692 0
-564 -1693 0
-558 -1707 0
-561 -1712 0
-562 -1713 0
-563 -1714 0
-564 -1715 0
-558 -1729 0
-560 -1731 0
-561 -1733 0
-562 -1734 0
-564 -1735 0
-560 -1763 0
-561 -1764 0
-562 -1765 0
-563 -1766 0
-564 -1767 0
-559 -1788 0
-562 -1791 0
-563 -1792 0
-564 -1793 0
-560 -1801 0
-561 -1802 0
-562 -1803 0
-563 -1804 0
-564 -1805 0
-561 -1821 0
-562 -1822 0
-564 -1823 0
-561 -1827 0
-563 -1828 0
-564 -1829 0
-560 -1880 0
-561 -1882 0
-563 -1883 0
-564 -1884 0
-558 -1885 0
-560 -1887 0
-561 -1889 0
-563 -1890 0
-564 -1891 0
-561 -1908 0
-562 -1909 0
-564 -1910 0
-558 -1911 0
-561 -1914 0
-562 -1915 0
-563 -1916 0
-564 -1917 0
-560 -1926 0
-562 -1928 0
-563 -1929 0
-564 -1930 0
-558 -1931 0
-560 -1932 0
-562 -1934 0
-563 -1935 0
-564 -1936 0
-560 -1943 0
-561 -1946 0
-562 -1947 0
-563 -1948 0
-564 -1949 0
-567 -573 0
-568 -574 0
-571 -577 0
-566 -588 0
-567 -590 0
-568 -591 0
-571 -592 0
-566 -594 0
-568 -595 0
-570 -598 0
-571 -599 0
-566 -607 0
-567 -609 0
-568 -610 0
-570 -612 0
-571 -613 0
-567 -622 0
-569 -623 0
-571 -625 0
-571 -631 0
-566 -642 0
-567 -644 0
-571 -646 0
-567 -649 0
-569 -650 0
-570 -652 0
-571 -653 0
-566 -661 0
-569 -663 0
-570 -666 0
-571 -667 0
-565 -681 0
-566 -682 0
-570 -685 0
-571 -686 0
-568 -710 0
-569 -711 0
-571 -714 0
-566 -722 0
-567 -724 0
-568 -725 0
-569 -726 0
-571 -728 0
-565 -743 0
-569 -745 0
-571 -748 0
-567 -795 0
-569 -796 0
-571 -798 0
-566 -817 0
-567 -818 0
-571 -820 0
-565 -831 0
-566 -834 0
-567 -835 0
-571 -837 0
-566 -840 0
-569 -841 0
-570 -842 0
-571 -843 0
-565 -850 0
-566 -852 0
-567 -853 0
-569 -854 0
-570 -857 0
-571 -858 0
-565 -859 0
-566 -861 0
-567 -862 0
-570 -863 0
-571 -864 0
-566 -873 0
-567 -874 0
-568 -875 0
-569 -876 0
-571 -878 0
-566 -880 0
-567 -881 0
-568 -882 0
-571 -885 0
-566 -886 0
-568 -887 0
-569 -888 0
-570 -890 0
-571 -891 0
-568 -895 0
-569 -896 0
-571 -897 0
-565 -905 0
-567 -909 0
-568 -910 0
-569 -911 0
-571 -914 0
-565 -915 0
-568 -918 0
-571 -921 0
-565 -929 0
-566 -931 0
-567 -933 0
-568 -934 0
-571 -935 0
-565 -936 0
-567 -939 0
-568 -940 0
-569 -941 0
-570 -943 0
-571 -944 0
-565 -951 0
-568 -953 0
-569 -954 0
-570 -956 0
-571 -957 0
-565 -958 0
-566 -960 0
-568 -962 0
-569 -963 0
-570 -965 0
-571 -966 0
-565 -973 0
-566 -975 0
-568 -976 0
-570 -978 0
-571 -979 0
-567 -989 0
-568 -990 0
-569 -991 0
-571 -993 0
-566 -1002 0
-568 -1004 0
-569 -1005 0
-571 -1007 0
-565 -1021 0
-566 -1022 0
-567 -1023 0
-568 -1024 0
-569 -1025 0
-570 -1026 0
-571 -1027 0
-571 -1040 0
-565 -1050 0
-567 -1053 0
-571 -1055 0
-565 -1056 0
-569 -1059 0
-571 -1061 0
-565 -1071 0
-567 -1073 0
-569 -1074 0
-571 -1077 0
-565 -1078 0
-566 -1080 0
-567 -1082 0
-569 -1083 0
-571 -1086 0
-565 -1087 0
-567 -1089 0
-570 -1091 0
-571 -1092 0
-565 -1099 0
-566 -1100 0
-570 -1103 0
-571 -1104 0
-565 -1111 0
-566 -1112 0
-569 -1113 0
-570 -1115 0
-571 -1116 0
-567 -1124 0
-568 -1125 0
-571 -1128 0
-566 -1135 0
-568 -1137 0
-571 -1140 0
-565 -1147 0
-566 -1148 0
-568 -1149 0
-569 -1150 0
-571 -1153 0
-565 -1167 0
-568 -1170 0
-571 -1172 0
-565 -1179 0
-568 -1182 0
-569 -1183 0
-571 -1185 0
-565 -1199 0
-567 -1201 0
-568 -1202 0
-570 -1203 0
-571 -1204 0
-565 -1233 0
-567 -1235 0
-568 -1236 0
-571 -1239 0
-567 -1296 0
-568 -1297 0
-569 -1298 0
-571 -1300 0
-567 -1315 0
-568 -1316 0
-569 -1317 0
-570 -1318 0
-571 -1319 0
-566 -1327 0
-567 -1328 0
-568 -1329 0
-569 -1330 0
-570 -1333 0
-571 -1334 0
-565 -1342 0
-566 -1343 0
-567 -1344 0
-568 -1345 0
-569 -1346 0
-570 -1347 0
-571 -1348 0
-567 -1358 0
-569 -1359 0
-571 -1362 0
-569 -1365 0
-570 -1367 0
-571 -1368 0
-565 -1376 0
-567 -1378 0
-569 -1379 0
-570 -1381 0
-571 -1382 0
-565 -1383 0
-569 -1385 0
-570 -1388 0
-571 -1389 0
-567 -1397 0
-568 -1398 0
-569 -1399 0
-570 -1402 0
-571 -1403 0
-567 -1413 0
-568 -1414 0
-571 -1416 0
-565 -1424 0
-567 -1426 0
-568 -1427 0
-571 -1430 0
-568 -1432 0
-569 -1433 0
-570 -1435 0
-571 -1436 0
-565 -1437 0
-568 -1438 0
-570 -1441 0
-571 -1442 0
-566 -1471 0
-567 -1472 0
-568 -1473 0
-569 -1474 0
-571 -1477 0
-566 -1486 0
-568 -1487 0
-570 -1490 0
-571 -1491 0
-566 -1493 0
-568 -1494 0
-569 -1495 0
-570 -1497 0
-571 -1498 0
-571 -1513 0
-567 -1516 0
-569 -1517 0
-571 -1519 0
-566 -1527 0
-569 -1529 0
-571 -1531 0
-567 -1534 0
-570 -1537 0
-571 -1538 0
-565 -1546 0
-567 -1548 0
-570 -1550 0
-571 -1551 0
-566 -1553 0
-567 -1555 0
-570 -1557 0
-571 -1558 0
-565 -1566 0
-566 -1568 0
-567 -1569 0
-569 -1570 0
-570 -1573 0
-571 -1574 0
-566 -1581 0
-567 -1582 0
-568 -1583 0
-570 -1585 0
-571 -1586 0
-568 -1602 0
-569 -1603 0
-571 -1606 0
-567 -1609 0
-568 -1610 0
-569 -1611 0
-571 -1613 0
-565 -1621 0
-568 -1623 0
-569 -1624 0
-571 -1626 0
-566 -1628 0
-568 -1630 0
-569 -1631 0
-571 -1633 0
-567 -1635 0
-568 -1636 0
-569 -1637 0
-570 -1638 0
-571 -1639 0
-566 -1646 0
-567 -1648 0
-568 -1649 0
-569 -1650 0
-570 -1653 0
-571 -1654 0
-565 -1661 0
-566 -1662 0
-567 -1663 0
-568 -1664 0
-569 -1665 0
-570 -1666 0
-571 -1667 0
-566 -1675 0
-567 -1676 0
-569 -1677 0
-571 -1680 0
-567 -1689 0
-569 -1690 0
-571 -1693 0
-565 -1701 0
-567 -1704 0
-569 -1705 0
-571 -1706 0
-565 -1722 0
-567 -1724 0
-569 -1725 0
-570 -1727 0
-571 -1728 0
-567 -1757 0
-568 -1758 0
-569 -1759 0
-571 -1761 0
-566 -1794 0
-567 -1795 0
-568 -1796 0
-570 -1798 0
-571 -1799 0
-568 -1807 0
-569 -1808 0
-570 -1810 0
-571 -1811 0
-567 -1813 0
-568 -1814 0
-570 -1816 0
-571 -1817 0
-567 -1831 0
-568 -1832 0
-569 -1833 0
-571 -1835 0
-567 -1836 0
-568 -1837 0
-569 -1838 0
-570 -1841 0
-571 -1842 0
-567 -1880 0
-569 -1881 0
-570 -1883 0
-571 -1884 0
-565 -1892 0
-569 -1894 0
-570 -1897 0
-571 -1898 0
-568 -1906 0
-569 -1907 0
-571 -1910 0
-565 -1918 0
-567 -1920 0
-568 -1921 0
-569 -1922 0
-571 -1924 0
-567 -1926 0
-568 -1927 0
-570 -1929 0
-571 -1930 0
-565 -1937 0
-568 -1938 0
-570 -1941 0
-571 -1942 0
-575 -664 0
-576 -665 0
-577 -667 0
-573 -756 0
-574 -757 0
-576 -759 0
-577 -760 0
-572 -807 0
-573 -810 0
-574 -811 0
-576 -812 0
-577 -814 0
-572 -839 0
-577 -843 0
-572 -845 0
-574 -847 0
-577 -849 0
-572 -851 0
-573 -853 0
-575 -855 0
-576 -856 0
-577 -858 0
-573 -862 0
-577 -864 0
-572 -865 0
-574 -867 0
-575 -868 0
-576 -869 0
-577 -871 0
-572 -872 0
-573 -874 0
-574 -875 0
-576 -877 0
-577 -878 0
-573 -881 0
-574 -882 0
-575 -883 0
-576 -884 0
-577 -885 0
-572 -893 0
-574 -895 0
-577 -897 0
-572 -900 0
-574 -902 0
-577 -904 0
-572 -907 0
-573 -909 0
-574 -910 0
-575 -912 0
-576 -913 0
-577 -914 0
-573 -933 0
-574 -934 0
-577 -935 0
-572 -938 0
-573 -939 0
-574 -940 0
-576 -942 0
-577 -944 0
-572 -947 0
-575 -949 0
-577 -950 0
-572 -952 0
-574 -953 0
-575 -955 0
-577 -957 0
-576 -971 0
-577 -972 0
-574 -976 0
-576 -977 0
-577 -979 0
-573 -983 0
-575 -985 0
-577 -986 0
-572 -988 0
-573 -989 0
-574 -990 0
-575 -992 0
-577 -993 0
-572 -995 0
-574 -996 0
-576 -998 0
-577 -1000 0
-574 -1010 0
-575 -1012 0
-577 -1014 0
-572 -1036 0
-575 -1038 0
-576 -1039 0
-577 -1040 0
-572 -1042 0
-574 -1044 0
-575 -1046 0
-576 -1047 0
-577 -1049 0
-572 -1051 0
-573 -1053 0
-576 -1054 0
-577 -1055 0
-573 -1082 0
-575 -1084 0
-576 -1085 0
-577 -1086 0
-572 -1088 0
-573 -1089 0
-575 -1090 0
-577 -1092 0
-572 -1094 0
-574 -1095 0
-576 -1097 0
-577 -1098 0
-574 -1108 0
-575 -1109 0
-577 -1110 0
-575 -1114 0
-577 -1116 0
-573 -1119 0
-574 -1120 0
-576 -1121 0
-577 -1122 0
-572 -1123 0
-573 -1124 0
-574 -1125 0
-575 -1126 0
-576 -1127 0
-577 -1128 0
-572 -1129 0
-575 -1131 0
-576 -1132 0
-577 -1134 0
-575 -1143 0
-576 -1144 0
-577 -1146 0
-574 -1149 0
-575 -1151 0
-576 -1152 0
-577 -1153 0
-573 -1156 0
-575 -1157 0
-576 -1158 0
-577 -1160 0
-575 -1176 0
-577 -1178 0
-574 -1182 0
-575 -1184 0
-577 -1185 0
-573 -1189 0
-576 -1190 0
-577 -1192 0
-573 -1213 0
-575 -1214 0
-576 -1215 0
-577 -1216 0
-574 -1219 0
-577 -1222 0
-573 -1249 0
-574 -1250 0
-575 -1251 0
-577 -1253 0
-575 -1257 0
-576 -1258 0
-577 -1260 0
-573 -1322 0
-577 -1325 0
-573 -1351 0
-574 -1352 0
-577 -1355 0
-576 -1366 0
-577 -1368 0
-574 -1371 0
-576 -1373 0
-577 -1375 0
-573 -1378 0
-575 -1380 0
-577 -1382 0
-573 -1397 0
-574 -1398 0
-575 -1400 0
-576 -1401 0
-577 -1403 0
-573 -1406 0
-575 -1407 0
-576 -1408 0
-577 -1410 0
-574 -1432 0
-575 -1434 0
-577 -1436 0
-572 -1478 0
-573 -1480 0
-575 -1482 0
-577 -1484 0
-572 -1485 0
-574 -1487 0
-575 -1488 0
-576 -1489 0
-577 -1491 0
-574 -1494 0
-575 -1496 0
-577 -1498 0
-572 -1500 0
-573 -1502 0
-574 -1503 0
-575 -1505 0
-577 -1507 0
-572 -1509 0
-575 -1511 0
-576 -1512 0
-577 -1513 0
-575 -1530 0
-577 -1531 0
-572 -1533 0
-573 -1534 0
-575 -1535 0
-576 -1536 0
-577 -1538 0
-572 -1540 0
-573 -1541 0
-574 -1542 0
-575 -1544 0
-577 -1545 0
-572 -1547 0
-573 -1548 0
-575 -1549 0
-577 -1551 0
-573 -1561 0
-574 -1562 0
-575 -1563 0
-576 -1564 0
-577 -1565 0
-573 -1569 0
-575 -1571 0
-576 -1572 0
-577 -1574 0
-574 -1578 0
-575 -1579 0
-577 -1580 0
-572 -1593 0
-573 -1595 0
-576 -1597 0
-577 -1599 0
-572 -1600 0
-574 -1602 0
-575 -1604 0
-576 -1605 0
-577 -1606 0
-574 -1630 0
-576 -1632 0
-577 -1633 0
-572 -1634 0
-573 -1635 0
-574 -1636 0
-577 -1639 0
-572 -1640 0
-573 -1641 0
-574 -1642 0
-575 -1643 0
-576 -1644 0
-577 -1645 0
-573 -1657 0
-574 -1658 0
-577 -1660 0
-573 -1663 0
-574 -1664 0
-577 -1667 0
-574 -1670 0
-575 -1672 0
-576 -1673 0
-577 -1674 0
-573 -1676 0
-575 -1678 0
-576 -1679 0
-577 -1680 0
-574 -1682 0
-576 -1684 0
-577 -1686 0
-573 -1696 0
-574 -1697 0
-577 -1700 0
-573 -1704 0
-577 -1706 0
-574 -1710 0
-575 -1712 0
-576 -1713 0
-577 -1715 0
-573 -1738 0
-574 -1739 0
-576 -1741 0
-577 -1742 0
-573 -1745 0
-574 -1746 0
-575 -1747 0
-577 -1749 0
-573 -1751 0
-574 -1752 0
-575 -1754 0
-577 -1755 0
-573 -1769 0
-575 -1771 0
-577 -1773 0
-573 -1775 0
-574 -1776 0
-576 -1777 0
-577 -1779 0
-573 -1801 0
-575 -1802 0
-576 -1803 0
-577 -1805 0
-574 -1807 0
-575 -1809 0
-577 -1811 0
-572 -1845 0
-574 -1846 0
-576 -1848 0
-577 -1850 0
-572 -1852 0
-573 -1853 0
-575 -1854 0
-576 -1855 0
-577 -1857 0
-573 -1860 0
-576 -1862 0
-577 -1864 0
-574 -1906 0
-575 -1908 0
-576 -1909 0
-577 -1910 0
-575 -1914 0
-576 -1915 0
-577 -1917 0
-573 -1920 0
-574 -1921 0
-576 -1923 0
-577 -1924 0
-573 -1952 0
-574 -1953 0
-575 -1955 0
-576 -1956 0
-577 -1958 0
-578 -654 0
-580 -655 0
-582 -657 0
-583 -658 0
-584 -659 0
-586 -660 0
-579 -702 0
-582 -704 0
-584 -705 0
-585 -706 0
-586 -707 0
-580 -755 0
-581 -756 0
-582 -758 0
-584 -759 0
-586 -760 0
-580 -769 0
-582 -771 0
-584 -772 0
-585 -773 0
-586 -774 0
-580 -781 0
-582 -783 0
-583 -784 0
-585 -785 0
-586 -786 0
-578 -794 0
-581 -795 0
-582 -796 0
-584 -797 0
-586 -798 0
-578 -839 0
-579 -840 0
-582 -841 0
-585 -842 0
-586 -843 0
-578 -851 0
-579 -852 0
-581 -853 0
-582 -854 0
-583 -855 0
-584 -856 0
-585 -857 0
-586 -858 0
-578 -872 0
-579 -873 0
-581 -874 0
-582 -876 0
-584 -877 0
-586 -878 0
-579 -886 0
-582 -888 0
-584 -889 0
-585 -890 0
-586 -891 0
-578 -893 0
-580 -894 0
-582 -896 0
-586 -897 0
-578 -907 0
-580 -908 0
-581 -909 0
-582 -911 0
-583 -912 0
-584 -913 0
-586 -914 0
-578 -924 0
-581 -925 0
-582 -926 0
-585 -927 0
-586 -928 0
-578 -938 0
-581 -939 0
-582 -941 0
-584 -942 0
-585 -943 0
-586 -944 0
-578 -952 0
-582 -954 0
-583 -955 0
-585 -956 0
-586 -957 0
-579 -960 0
-580 -961 0
-582 -963 0
-583 -964 0
-585 -965 0
-586 -966 0
-579 -969 0
-582 -970 0
-584 -971 0
-586 -972 0
-579 -982 0
-581 -983 0
-582 -984 0
-583 -985 0
-586 -986 0
-578 -988 0
-581 -989 0
-582 -991 0
-583 -992 0
-586 -993 0
-579 -1002 0
-580 -1003 0
-582 -1005 0
-584 -1006 0
-586 -1007 0
-579 -1009 0
-582 -1011 0
-583 -1012 0
-585 -1013 0
-586 -1014 0
-579 -1022 0
-581 -1023 0
-582 -1025 0
-585 -1026 0
-586 -1027 0
-578 -1036 0
-580 -1037 0
-583 -1038 0
-584 -1039 0
-586 -1040 0
-578 -1051 0
-580 -1052 0
-581 -1053 0
-584 -1054 0
-586 -1055 0
-578 -1064 0
-581 -1065 0
-583 -1067 0
-584 -1068 0
-585 -1069 0
-586 -1070 0
-578 -1088 0
-581 -1089 0
-583 -1090 0
-585 -1091 0
-586 -1092 0
-579 -1100 0
-580 -1101 0
-584 -1102 0
-585 -1103 0
-586 -1104 0
-579 -1107 0
-583 -1109 0
-586 -1110 0
-579 -1118 0
-581 -1119 0
-584 -1121 0
-586 -1122 0
-578 -1123 0
-581 -1124 0
-583 -1126 0
-584 -1127 0
-586 -1128 0
-579 -1135 0
-580 -1136 0
-583 -1138 0
-584 -1139 0
-586 -1140 0
-579 -1142 0
-583 -1143 0
-584 -1144 0
-585 -1145 0
-586 -1146 0
-579 -1155 0
-581 -1156 0
-583 -1157 0
-584 -1158 0
-585 -1159 0
-586 -1160 0
-580 -1169 0
-584 -1171 0
-586 -1172 0
-580 -1175 0
-583 -1176 0
-585 -1177 0
-586 -1178 0
-580 -1188 0
-581 -1189 0
-584 -1190 0
-585 -1191 0
-586 -1192 0
-580 -1200 0
-581 -1201 0
-585 -1203 0
-586 -1204 0
-581 -1213 0
-583 -1214 0
-584 -1215 0
-586 -1216 0
-580 -1234 0
-581 -1235 0
-583 -1237 0
-584 -1238 0
-586 -1239 0
-581 -1249 0
-583 -1251 0
-585 -1252 0
-586 -1253 0
-578 -1314 0
-581 -1315 0
-582 -1317 0
-585 -1318 0
-586 -1319 0
-580 -1364 0
-582 -1365 0
-584 -1366 0
-585 -1367 0
-586 -1368 0
-580 -1377 0
-581 -1378 0
-582 -1379 0
-583 -1380 0
-585 -1381 0
-586 -1382 0
-581 -1392 0
-582 -1394 0
-584 -1395 0
-586 -1396 0
-581 -1397 0
-582 -1399 0
-583 -1400 0
-584 -1401 0
-585 -1402 0
-586 -1403 0
-580 -1431 0
-582 -1433 0
-583 -1434 0
-585 -1435 0
-586 -1436 0
-581 -1444 0
-582 -1446 0
-583 -1447 0
-586 -1448 0
-581 -1450 0
-582 -1452 0
-583 -1453 0
-584 -1454 0
-585 -1455 0
-586 -1456 0
-578 -1485 0
-579 -1486 0
-583 -1488 0
-584 -1489 0
-585 -1490 0
-586 -1491 0
-578 -1509 0
-580 -1510 0
-583 -1511 0
-584 -1512 0
-586 -1513 0
-578 -1521 0
-583 -1523 0
-585 -1524 0
-586 -1525 0
-578 -1533 0
-581 -1534 0
-583 -1535 0
-584 -1536 0
-585 -1537 0
-586 -1538 0
-578 -1547 0
-581 -1548 0
-583 -1549 0
-585 -1550 0
-586 -1551 0
-579 -1553 0
-580 -1554 0
-581 -1555 0
-583 -1556 0
-585 -1557 0
-586 -1558 0
-579 -1560 0
-581 -1561 0
-583 -1563 0
-584 -1564 0
-586 -1565 0
-579 -1577 0
-583 -1579 0
-586 -1580 0
-579 -1581 0
-581 -1582 0
-583 -1584 0
-585 -1585 0
-586 -1586 0
-578 -1600 0
-580 -1601 0
-582 -1603 0
-583 -1604 0
-584 -1605 0
-586 -1606 0
-578 -1615 0
-582 -1617 0
-584 -1618 0
-585 -1619 0
-586 -1620 0
-578 -1634 0
-581 -1635 0
-582 -1637 0
-585 -1638 0
-586 -1639 0
-579 -1646 0
-580 -1647 0
-581 -1648 0
-582 -1650 0
-583 -1651 0
-584 -1652 0
-585 -1653 0
-586 -1654 0
-579 -1656 0
-581 -1657 0
-582 -1659 0
-586 -1660 0
-579 -1669 0
-582 -1671 0
-583 -1672 0
-584 -1673 0
-586 -1674 0
-579 -1681 0
-582 -1683 0
-584 -1684 0
-585 -1685 0
-586 -1686 0
-580 -1688 0
-581 -1689 0
-582 -1690 0
-583 -1691 0
-584 -1692 0
-586 -1693 0
-580 -1695 0
-581 -1696 0
-582 -1698 0
-585 -1699 0
-586 -1700 0
-580 -1709 0
-582 -1711 0
-583 -1712 0
-584 -1713 0
-585 -1714 0
-586 -1715 0
-580 -1723 0
-581 -1724 0
-582 -1725 0
-583 -1726 0
-585 -1727 0
-586 -1728 0
-581 -1738 0
-582 -1740 0
-584 -1741 0
-586 -1742 0
-581 -1751 0
-582 -1753 0
-583 -1754 0
-586 -1755 0
-580 -1756 0
-581 -1757 0
-582 -1759 0
-584 -1760 0
-586 -1761 0
-581 -1769 0
-582 -1770 0
-583 -1771 0
-585 -1772 0
-586 -1773 0
-580 -1806 0
-582 -1808 0
-583 -1809 0
-585 -1810 0
-586 -1811 0
-582 -1820 0
-583 -1821 0
-584 -1822 0
-586 -1823 0
-578 -1852 0
-581 -1853 0
-583 -1854 0
-584 -1855 0
-585 -1856 0
-586 -1857 0
-579 -1866 0
-583 -1867 0
-584 -1868 0
-585 -1869 0
-586 -1870 0
-580 -1872 0
-583 -1874 0
-584 -1875 0
-585 -1876 0
-586 -1877 0
-581 -1887 0
-583 -1889 0
-585 -1890 0
-586 -1891 0
-580 -1900 0
-582 -1901 0
-584 -1902 0
-585 -1903 0
-586 -1904 0
-582 -1907 0
-583 -1908 0
-584 -1909 0
-586 -1910 0
-581 -1920 0
-582 -1922 0
-584 -1923 0
-586 -1924 0
-581 -1932 0
-582 -1933 0
-584 -1934 0
-585 -1935 0
-586 -1936 0
-581 -1943 0
-582 -1945 0
-583 -1946 0
-584 -1947 0
-585 -1948 0
-586 -1949 0
-581 -1952 0
-582 -1954 0
-583 -1955 0
-584 -1956 0
-585 -1957 0
-586 -1958 0
-587 -647 0
-589 -648 0
-590 -649 0
-592 -653 0
-588 -696 0
-590 -697 0
-592 -701 0
-589 -755 0
-590 -756 0
-591 -757 0
-592 -760 0
-589 -762 0
-590 -763 0
-591 -764 0
-592 -767 0
-589 -775 0
-590 -776 0
-592 -780 0
-587 -788 0
-591 -789 0
-592 -792 0
-587 -839 0
-588 -840 0
-592 -843 0
-587 -845 0
-588 -846 0
-591 -847 0
-592 -849 0
-587 -865 0
-588 -866 0
-591 -867 0
-592 -871 0
-588 -886 0
-591 -887 0
-592 -891 0
-587 -893 0
-589 -894 0
-591 -895 0
-592 -897 0
-587 -900 0
-589 -901 0
-591 -902 0
-592 -904 0
-587 -917 0
-591 -918 0
-592 -921 0
-587 -947 0
-592 -950 0
-587 -952 0
-591 -953 0
-592 -957 0
-588 -960 0
-589 -961 0
-591 -962 0
-592 -966 0
-588 -969 0
-592 -972 0
-588 -975 0
-591 -976 0
-592 -979 0
-587 -995 0
-591 -996 0
-592 -1000 0
-588 -1002 0
-589 -1003 0
-591 -1004 0
-592 -1007 0
-588 -1009 0
-591 -1010 0
-592 -1014 0
-588 -1029 0
-591 -1030 0
-592 -1034 0
-587 -1036 0
-589 -1037 0
-592 -1040 0
-587 -1042 0
-589 -1043 0
-591 -1044 0
-592 -1049 0
-587 -1058 0
-592 -1061 0
-587 -1094 0
-591 -1095 0
-592 -1098 0
-588 -1100 0
-589 -1101 0
-592 -1104 0
-588 -1107 0
-591 -1108 0
-592 -1110 0
-588 -1112 0
-592 -1116 0
-587 -1129 0
-592 -1134 0
-588 -1135 0
-589 -1136 0
-591 -1137 0
-592 -1140 0
-588 -1142 0
-592 -1146 0
-588 -1148 0
-591 -1149 0
-592 -1153 0
-589 -1169 0
-591 -1170 0
-592 -1172 0
-589 -1175 0
-592 -1178 0
-589 -1181 0
-591 -1182 0
-592 -1185 0
-589 -1206 0
-592 -1210 0
-591 -1219 0
-592 -1222 0
-589 -1241 0
-591 -1242 0
-592 -1246 0
-592 -1260 0
-587 -1308 0
-592 -1313 0
-589 -1364 0
-592 -1368 0
-589 -1370 0
-591 -1371 0
-592 -1375 0
-592 -1389 0
-589 -1431 0
-591 -1432 0
-592 -1436 0
-591 -1438 0
-592 -1442 0
-587 -1478 0
-588 -1479 0
-590 -1480 0
-592 -1484 0
-587 -1500 0
-589 -1501 0
-590 -1502 0
-591 -1503 0
-592 -1507 0
-587 -1515 0
-590 -1516 0
-592 -1519 0
-587 -1540 0
-590 -1541 0
-591 -1542 0
-592 -1545 0
-587 -1547 0
-590 -1548 0
-592 -1551 0
-588 -1553 0
-589 -1554 0
-590 -1555 0
-592 -1558 0
-588 -1560 0
-590 -1561 0
-591 -1562 0
-592 -1565 0
-588 -1568 0
-590 -1569 0
-592 -1574 0
-588 -1587 0
-590 -1588 0
-592 -1592 0
-587 -1593 0
-589 -1594 0
-590 -1595 0
-592 -1599 0
-587 -1608 0
-590 -1609 0
-591 -1610 0
-592 -1613 0
-587 -1640 0
-590 -1641 0
-591 -1642 0
-592 -1645 0
-588 -1646 0
-589 -1647 0
-590 -1648 0
-591 -1649 0
-592 -1654 0
-588 -1656 0
-590 -1657 0
-591 -1658 0
-592 -1660 0
-588 -1662 0
-590 -1663 0
-591 -1664 0
-592 -1667 0
-588 -1675 0
-590 -1676 0
-592 -1680 0
-589 -1688 0
-590 -1689 0
-592 -1693 0
-589 -1695 0
-590 -1696 0
-591 -1697 0
-592 -1700 0
-589 -1703 0
-590 -1704 0
-592 -1706 0
-589 -1730 0
-590 -1731 0
-591 -1732 0
-592 -1735 0
-590 -1745 0
-591 -1746 0
-592 -1749 0
-590 -1751 0
-591 -1752 0
-592 -1755 0
-589 -1762 0
-590 -1763 0
-592 -1767 0
-590 -1775 0
-591 -1776 0
-592 -1779 0
-589 -1800 0
-590 -1801 0
-592 -1805 0
-590 -1813 0
-591 -1814 0
-592 -1817 0
-590 -1836 0
-591 -1837 0
-592 -1842 0
-587 -1845 0
-591 -1846 0
-592 -1850 0
-588 -1866 0
-592 -1870 0
-589 -1872 0
-591 -1873 0
-592 -1877 0
-592 -1898 0
-589 -1900 0
-592 -1904 0
-591 -1906 0
-592 -1910 0
-592 -1917 0
-591 -1938 0
-592 -1942 0
-593 -620 0
-596 -624 0
-599 -625 0
-595 -752 0
-598 -753 0
-599 -754 0
-595 -782 0
-596 -784 0
-598 -785 0
-599 -786 0
-593 -794 0
-597 -797 0
-599 -798 0
-593 -800 0
-595 -802 0
-597 -803 0
-598 -804 0
-599 -805 0
-593 -807 0
-594 -808 0
-595 -811 0
-597 -812 0
-598 -813 0
-599 -814 0
-593 -833 0
-594 -834 0
-597 -836 0
-599 -837 0
-593 -851 0
-594 -852 0
-596 -855 0
-597 -856 0
-598 -857 0
-599 -858 0
-593 -865 0
-594 -866 0
-595 -867 0
-596 -868 0
-597 -869 0
-598 -870 0
-599 -871 0
-594 -880 0
-595 -882 0
-596 -883 0
-597 -884 0
-599 -885 0
-594 -886 0
-595 -887 0
-597 -889 0
-598 -890 0
-599 -891 0
-593 -893 0
-595 -895 0
-599 -897 0
-593 -900 0
-595 -902 0
-598 -903 0
-599 -904 0
-593 -924 0
-598 -927 0
-599 -928 0
-594 -931 0
-595 -934 0
-599 -935 0
-593 -947 0
-596 -949 0
-599 -950 0
-593 -952 0
-595 -953 0
-596 -955 0
-598 -956 0
-599 -957 0
-594 -960 0
-595 -962 0
-596 -964 0
-598 -965 0
-599 -966 0
-594 -982 0
-596 -985 0
-599 -986 0
-593 -988 0
-595 -990 0
-596 -992 0
-599 -993 0
-594 -1009 0
-595 -1010 0
-596 -1012 0
-598 -1013 0
-599 -1014 0
-594 -1016 0
-595 -1018 0
-599 -1020 0
-594 -1022 0
-595 -1024 0
-598 -1026 0
-599 -1027 0
-593 -1036 0
-596 -1038 0
-597 -1039 0
-599 -1040 0
-593 -1042 0
-595 -1044 0
-596 -1046 0
-597 -1047 0
-598 -1048 0
-599 -1049 0
-593 -1064 0
-595 -1066 0
-596 -1067 0
-597 -1068 0
-598 -1069 0
-599 -1070 0
-593 -1072 0
-596 -1075 0
-597 -1076 0
-599 -1077 0
-594 -1080 0
-596 -1084 0
-597 -1085 0
-599 -1086 0
-593 -1094 0
-595 -1095 0
-597 -1097 0
-599 -1098 0
-594 -1100 0
-597 -1102 0
-598 -1103 0
-599 -1104 0
-594 -1118 0
-595 -1120 0
-597 -1121 0
-599 -1122 0
-593 -1123 0
-595 -1125 0
-596 -1126 0
-597 -1127 0
-599 -1128 0
-594 -1142 0
-596 -1143 0
-597 -1144 0
-598 -1145 0
-599 -1146 0
-594 -1148 0
-595 -1149 0
-596 -1151 0
-597 -1152 0
-599 -1153 0
-594 -1161 0
-596 -1164 0
-597 -1165 0
-599 -1166 0
-596 -1176 0
-598 -1177 0
-599 -1178 0
-595 -1182 0
-596 -1184 0
-599 -1185 0
-599 -1198 0
-595 -1202 0
-598 -1203 0
-599 -1204 0
-595 -1219 0
-598 -1221 0
-599 -1222 0
-595 -1250 0
-596 -1251 0
-598 -1252 0
-599 -1253 0
-595 -1263 0
-596 -1265 0
-599 -1266 0
-593 -1280 0
-597 -1284 0
-598 -1285 0
-599 -1286 0
-595 -1352 0
-598 -1354 0
-599 -1355 0
-596 -1380 0
-598 -1381 0
-599 -1382 0
-596 -1407 0
-597 -1408 0
-598 -1409 0
-599 -1410 0
-595 -1427 0
-596 -1428 0
-597 -1429 0
-599 -1430 0
-595 -1451 0
-596 -1453 0
-597 -1454 0
-598 -1455 0
-599 -1456 0
-593 -1457 0
-596 -1459 0
-597 -1460 0
-598 -1461 0
-599 -1462 0
-593 -1470 0
-594 -1471 0
-595 -1473 0
-596 -1475 0
-597 -1476 0
-599 -1477 0
-593 -1485 0
-594 -1486 0
-595 -1487 0
-596 -1488 0
-597 -1489 0
-598 -1490 0
-599 -1491 0
-593 -1500 0
-595 -1503 0
-596 -1505 0
-598 -1506 0
-599 -1507 0
-593 -1521 0
-595 -1522 0
-596 -1523 0
-598 -1524 0
-599 -1525 0
-594 -1527 0
-596 -1530 0
-599 -1531 0
-593 -1540 0
-595 -1542 0
-596 -1544 0
-599 -1545 0
-593 -1547 0
-596 -1549 0
-598 -1550 0
-599 -1551 0
-594 -1553 0
-596 -1556 0
-598 -1557 0
-599 -1558 0
-594 -1577 0
-595 -1578 0
-596 -1579 0
-599 -1580 0
-594 -1581 0
-595 -1583 0
-596 -1584 0
-598 -1585 0
-599 -1586 0
-593 -1593 0
-597 -1597 0
-598 -1598 0
-599 -1599 0
-593 -1615 0
-595 -1616 0
-597 -1618 0
-598 -1619 0
-599 -1620 0
-593 -1622 0
-595 -1623 0
-597 -1625 0
-599 -1626 0
-594 -1628 0
-595 -1630 0
-597 -1632 0
-599 -1633 0
-593 -1640 0
-595 -1642 0
-596 -1643 0
-597 -1644 0
-599 -1645 0
-594 -1646 0
-595 -1649 0
-596 -1651 0
-597 -1652 0
-598 -1653 0
-599 -1654 0
-594 -1669 0
-595 -1670 0
-596 -1672 0
-597 -1673 0
-599 -1674 0
-594 -1675 0
-596 -1678 0
-597 -1679 0
-599 -1680 0
-595 -1697 0
-598 -1699 0
-599 -1700 0
-599 -1706 0
-595 -1719 0
-596 -1720 0
-599 -1721 0
-596 -1726 0
-598 -1727 0
-599 -1728 0
-595 -1746 0
-596 -1747 0
-598 -1748 0
-599 -1749 0
-595 -1752 0
-596 -1754 0
-599 -1755 0
-596 -1771 0
-598 -1772 0
-599 -1773 0
-595 -1807 0
-596 -1809 0
-598 -1810 0
-599 -1811 0
-595 -1832 0
-597 -1834 0
-599 -1835 0
-593 -1845 0
-595 -1846 0
-597 -1848 0
-598 -1849 0
-599 -1850 0
-594 -1859 0
-597 -1862 0
-598 -1863 0
-599 -1864 0
-594 -1866 0
-596 -1867 0
-597 -1868 0
-598 -1869 0
-599 -1870 0
-596 -1882 0
-598 -1883 0
-599 -1884 0
-595 -1888 0
-596 -1889 0
-598 -1890 0
-599 -1891 0
-595 -1906 0
-596 -1908 0
-597 -1909 0
-599 -1910 0
-596 -1914 0
-597 -1915 0
-598 -1916 0
-599 -1917 0
-595 -1927 0
-597 -1928 0
-598 -1929 0
-599 -1930 0
-597 -1934 0
-598 -1935 0
-599 -1936 0
-595 -1953 0
-596 -1955 0
-597 -1956 0
-598 -1957 0
-599 -1958 0
-600 -614 0
-603 -616 0
-605 -617 0
-606 -619 0
-604 -745 0
-605 -747 0
-606 -748 0
-602 -776 0
-605 -778 0
-606 -780 0
-600 -788 0
-603 -789 0
-606 -792 0
-600 -800 0
-602 -801 0
-603 -802 0
-605 -803 0
-606 -805 0
-600 -807 0
-601 -808 0
-602 -810 0
-603 -811 0
-605 -812 0
-606 -814 0
-600 -823 0
-601 -824 0
-602 -825 0
-603 -826 0
-604 -827 0
-606 -830 0
-600 -845 0
-601 -846 0
-603 -847 0
-606 -849 0
-600 -872 0
-601 -873 0
-602 -874 0
-603 -875 0
-604 -876 0
-605 -877 0
-606 -878 0
-601 -880 0
-602 -881 0
-603 -882 0
-605 -884 0
-606 -885 0
-601 -886 0
-603 -887 0
-604 -888 0
-605 -889 0
-606 -891 0
-600 -893 0
-603 -895 0
-604 -896 0
-606 -897 0
-600 -907 0
-602 -909 0
-603 -910 0
-604 -911 0
-605 -913 0
-606 -914 0
-600 -917 0
-603 -918 0
-605 -920 0
-606 -921 0
-601 -931 0
-602 -933 0
-603 -934 0
-606 -935 0
-600 -938 0
-602 -939 0
-603 -940 0
-604 -941 0
-605 -942 0
-606 -944 0
-600 -952 0
-603 -953 0
-604 -954 0
-606 -957 0
-601 -960 0
-603 -962 0
-604 -963 0
-606 -966 0
-601 -975 0
-603 -976 0
-605 -977 0
-606 -979 0
-600 -995 0
-603 -996 0
-604 -997 0
-605 -998 0
-606 -1000 0
-601 -1009 0
-603 -1010 0
-604 -1011 0
-606 -1014 0
-601 -1016 0
-602 -1017 0
-603 -1018 0
-604 -1019 0
-606 -1020 0
-601 -1029 0
-603 -1030 0
-604 -1031 0
-605 -1033 0
-606 -1034 0
-600 -1036 0
-605 -1039 0
-606 -1040 0
-600 -1051 0
-602 -1053 0
-605 -1054 0
-606 -1055 0
-600 -1058 0
-604 -1059 0
-606 -1061 0
-600 -1072 0
-602 -1073 0
-604 -1074 0
-605 -1076 0
-606 -1077 0
-601 -1080 0
-602 -1082 0
-604 -1083 0
-605 -1085 0
-606 -1086 0
-600 -1088 0
-602 -1089 0
-606 -1092 0
-601 -1100 0
-605 -1102 0
-606 -1104 0
-601 -1112 0
-604 -1113 0
-606 -1116 0
-600 -1129 0
-604 -1130 0
-605 -1132 0
-606 -1134 0
-601 -1142 0
-605 -1144 0
-606 -1146 0
-601 -1155 0
-602 -1156 0
-605 -1158 0
-606 -1160 0
-601 -1161 0
-602 -1162 0
-604 -1163 0
-605 -1165 0
-606 -1166 0
-606 -1178 0
-602 -1189 0
-605 -1190 0
-606 -1192 0
-602 -1196 0
-604 -1197 0
-606 -1198 0
-604 -1207 0
-605 -1209 0
-606 -1210 0
-602 -1213 0
-605 -1215 0
-606 -1216 0
-604 -1256 0
-605 -1258 0
-606 -1260 0
-602 -1268 0
-604 -1269 0
-605 -1270 0
-606 -1272 0
-600 -1273 0
-602 -1275 0
-603 -1276 0
-606 -1279 0
-602 -1351 0
-603 -1352 0
-604 -1353 0
-606 -1355 0
-603 -1371 0
-604 -1372 0
-605 -1373 0
-606 -1375 0
-602 -1397 0
-603 -1398 0
-604 -1399 0
-605 -1401 0
-606 -1403 0
-602 -1406 0
-605 -1408 0
-606 -1410 0
-602 -1419 0
-604 -1420 0
-606 -1423 0
-600 -1457 0
-604 -1458 0
-605 -1460 0
-606 -1462 0
-600 -1464 0
-601 -1465 0
-604 -1466 0
-606 -1468 0
-600 -1478 0
-601 -1479 0
-602 -1480 0
-604 -1481 0
-606 -1484 0
-600 -1509 0
-605 -1512 0
-606 -1513 0
-600 -1515 0
-602 -1516 0
-604 -1517 0
-605 -1518 0
-606 -1519 0
-601 -1527 0
-604 -1529 0
-606 -1531 0
-600 -1533 0
-602 -1534 0
-605 -1536 0
-606 -1538 0
-600 -1547 0
-602 -1548 0
-606 -1551 0
-601 -1553 0
-602 -1555 0
-606 -1558 0
-601 -1568 0
-602 -1569 0
-604 -1570 0
-605 -1572 0
-606 -1574 0
-601 -1587 0
-602 -1588 0
-604 -1589 0
-605 -1591 0
-606 -1592 0
-600 -1600 0
-603 -1602 0
-604 -1603 0
-605 -1605 0
-606 -1606 0
-600 -1608 0
-602 -1609 0
-603 -1610 0
-604 -1611 0
-606 -1613 0
-600 -1622 0
-603 -1623 0
-604 -1624 0
-605 -1625 0
-606 -1626 0
-601 -1628 0
-603 -1630 0
-604 -1631 0
-605 -1632 0
-606 -1633 0
-600 -1634 0
-602 -1635 0
-603 -1636 0
-604 -1637 0
-606 -1639 0
-601 -1646 0
-602 -1648 0
-603 -1649 0
-604 -1650 0
-605 -1652 0
-606 -1654 0
-601 -1662 0
-602 -1663 0
-603 -1664 0
-604 -1665 0
-606 -1667 0
-601 -1681 0
-603 -1682 0
-604 -1683 0
-605 -1684 0
-606 -1686 0
-602 -1696 0
-603 -1697 0
-604 -1698 0
-606 -1700 0
-603 -1710 0
-604 -1711 0
-605 -1713 0
-606 -1715 0
-602 -1718 0
-603 -1719 0
-606 -1721 0
-602 -1731 0
-603 -1732 0
-605 -1734 0
-606 -1735 0
-602 -1738 0
-603 -1739 0
-604 -1740 0
-605 -1741 0
-606 -1742 0
-602 -1751 0
-603 -1752 0
-604 -1753 0
-606 -1755 0
-602 -1775 0
-603 -1776 0
-605 -1777 0
-606 -1779 0
-602 -1781 0
-603 -1782 0
-604 -1783 0
-605 -1785 0
-606 -1787 0
-602 -1801 0
-605 -1803 0
-606 -1805 0
-603 -1825 0
-604 -1826 0
-606 -1829 0
-600 -1852 0
-602 -1853 0
-605 -1855 0
-606 -1857 0
-601 -1859 0
-602 -1860 0
-604 -1861 0
-605 -1862 0
-606 -1864 0
-601 -1866 0
-605 -1868 0
-606 -1870 0
-602 -1880 0
-604 -1881 0
-606 -1884 0
-604 -1894 0
-605 -1896 0
-606 -1898 0
-603 -1906 0
-604 -1907 0
-605 -1909 0
-606 -1910 0
-602 -1920 0
-603 -1921 0
-604 -1922 0
-605 -1923 0
-606 -1924 0
-602 -1926 0
-603 -1927 0
-605 -1928 0
-606 -1930 0
-603 -1938 0
-605 -1940 0
-606 -1942 0
-608 -775 0
-609 -776 0
-611 -778 0
-612 -779 0
-613 -780 0
-608 -781 0
-610 -782 0
-612 -785 0
-613 -786 0
-610 -789 0
-612 -791 0
-613 -792 0
-609 -795 0
-611 -797 0
-613 -798 0
-609 -801 0
-610 -802 0
-611 -803 0
-612 -804 0
-613 -805 0
-607 -866 0
-610 -867 0
-611 -869 0
-612 -870 0
-613 -871 0
-607 -873 0
-609 -874 0
-610 -875 0
-611 -877 0
-613 -878 0
-608 -894 0
-610 -895 0
-613 -897 0
-608 -901 0
-610 -902 0
-612 -903 0
-613 -904 0
-608 -908 0
-609 -909 0
-610 -910 0
-611 -913 0
-613 -914 0
-610 -918 0
-611 -920 0
-613 -921 0
-609 -925 0
-612 -927 0
-613 -928 0
-609 -939 0
-610 -940 0
-611 -942 0
-612 -943 0
-613 -944 0
-613 -950 0
-610 -953 0
-612 -956 0
-613 -957 0
-607 -1002 0
-608 -1003 0
-610 -1004 0
-611 -1006 0
-613 -1007 0
-607 -1009 0
-610 -1010 0
-612 -1013 0
-613 -1014 0
-607 -1016 0
-609 -1017 0
-610 -1018 0
-613 -1020 0
-607 -1022 0
-609 -1023 0
-610 -1024 0
-612 -1026 0
-613 -1027 0
-607 -1029 0
-610 -1030 0
-611 -1033 0
-613 -1034 0
-608 -1037 0
-611 -1039 0
-613 -1040 0
-608 -1043 0
-610 -1044 0
-611 -1047 0
-612 -1048 0
-613 -1049 0
-608 -1052 0
-609 -1053 0
-611 -1054 0
-613 -1055 0
-613 -1061 0
-609 -1065 0
-610 -1066 0
-611 -1068 0
-612 -1069 0
-613 -1070 0
-609 -1073 0
-611 -1076 0
-613 -1077 0
-609 -1089 0
-612 -1091 0
-613 -1092 0
-610 -1095 0
-611 -1097 0
-613 -1098 0
-607 -1135 0
-608 -1136 0
-610 -1137 0
-611 -1139 0
-613 -1140 0
-607 -1142 0
-611 -1144 0
-612 -1145 0
-613 -1146 0
-607 -1148 0
-610 -1149 0
-611 -1152 0
-613 -1153 0
-607 -1155 0
-609 -1156 0
-611 -1158 0
-612 -1159 0
-613 -1160 0
-607 -1161 0
-609 -1162 0
-611 -1165 0
-613 -1166 0
-608 -1169 0
-610 -1170 0
-611 -1171 0
-613 -1172 0
-608 -1175 0
-612 -1177 0
-613 -1178 0
-608 -1181 0
-610 -1182 0
-613 -1185 0
-608 -1188 0
-609 -1189 0
-611 -1190 0
-612 -1191 0
-613 -1192 0
-608 -1195 0
-609 -1196 0
-613 -1198 0
-608 -1200 0
-609 -1201 0
-610 -1202 0
-612 -1203 0
-613 -1204 0
-608 -1206 0
-611 -1209 0
-613 -1210 0
-609 -1213 0
-611 -1215 0
-613 -1216 0
-610 -1219 0
-612 -1221 0
-613 -1222 0
-609 -1397 0
-610 -1398 0
-611 -1401 0
-612 -1402 0
-613 -1403 0
-609 -1450 0
-610 -1451 0
-611 -1454 0
-612 -1455 0
-613 -1456 0
-611 -1460 0
-612 -1461 0
-613 -1462 0
-608 -1501 0
-609 -1502 0
-610 -1503 0
-612 -1506 0
-613 -1507 0
-608 -1510 0
-611 -1512 0
-613 -1513 0
-609 -1516 0
-611 -1518 0
-613 -1519 0
-610 -1522 0
-612 -1524 0
-613 -1525 0
-609 -1534 0
-611 -1536 0
-612 -1537 0
-613 -1538 0
-609 -1541 0
-610 -1542 0
-613 -1545 0
-609 -1548 0
-612 -1550 0
-613 -1551 0
-607 -1581 0
-609 -1582 0
-610 -1583 0
-612 -1585 0
-613 -1586 0
-607 -1587 0
-609 -1588 0
-611 -1591 0
-613 -1592 0
-608 -1594 0
-609 -1595 0
-611 -1597 0
-612 -1598 0
-613 -1599 0
-608 -1601 0
-610 -1602 0
-611 -1605 0
-613 -1606 0
-609 -1609 0
-610 -1610 0
-613 -1613 0
-610 -1616 0
-611 -1618 0
-612 -1619 0
-613 -1620 0
-610 -1623 0
-611 -1625 0
-613 -1626 0
-609 -1635 0
-610 -1636 0
-612 -1638 0
-613 -1639 0
-609 -1641 0
-610 -1642 0
-611 -1644 0
-613 -1645 0
-607 -1675 0
-609 -1676 0
-611 -1679 0
-613 -1680 0
-607 -1681 0
-610 -1682 0
-611 -1684 0
-612 -1685 0
-613 -1686 0
-608 -1688 0
-609 -1689 0
-611 -1692 0
-613 -1693 0
-608 -1695 0
-609 -1696 0
-610 -1697 0
-612 -1699 0
-613 -1700 0
-608 -1703 0
-609 -1704 0
-613 -1706 0
-608 -1709 0
-610 -1710 0
-611 -1713 0
-612 -1714 0
-613 -1715 0
-608 -1717 0
-609 -1718 0
-610 -1719 0
-613 -1721 0
-608 -1723 0
-609 -1724 0
-612 -1727 0
-613 -1728 0
-608 -1730 0
-609 -1731 0
-610 -1732 0
-611 -1734 0
-613 -1735 0
-609 -1738 0
-610 -1739 0
-611 -1741 0
-613 -1742 0
-609 -1745 0
-610 -1746 0
-612 -1748 0
-613 -1749 0
-609 -1751 0
-610 -1752 0
-613 -1755 0
-610 -1846 0
-611 -1848 0
-612 -1849 0
-613 -1850 0
-609 -1853 0
-611 -1855 0
-612 -1856 0
-613 -1857 0
-608 -1872 0
-610 -1873 0
-611 -1875 0
-612 -1876 0
-613 -1877 0
-609 -1880 0
-612 -1883 0
-613 -1884 0
-609 -1887 0
-610 -1888 0
-612 -1890 0
-613 -1891 0
-611 -1896 0
-612 -1897 0
-613 -1898 0
-608 -1900 0
-611 -1902 0
-612 -1903 0
-613 -1904 0
-610 -1906 0
-611 -1909 0
-613 -1910 0
-611 -1915 0
-612 -1916 0
-613 -1917 0
-609 -1920 0
-610 -1921 0
-611 -1923 0
-613 -1924 0
-609 -1926 0
-610 -1927 0
-611 -1928 0
-612 -1929 0
-613 -1930 0
-609 -1932 0
-611 -1934 0
-612 -1935 0
-613 -1936 0
-610 -1938 0
-611 -1940 0
-612 -1941 0
-613 -1942 0
-616 -703 0
-617 -705 0
-618 -706 0
-619 -707 0
-614 -715 0
-615 -716 0
-616 -718 0
-618 -720 0
-619 -721 0
-615 -730 0
-616 -731 0
-617 -733 0
-619 -734 0
-615 -769 0
-616 -770 0
-617 -772 0
-618 -773 0
-619 -774 0
-615 -781 0
-616 -782 0
-618 -785 0
-619 -786 0
-614 -794 0
-617 -797 0
-619 -798 0
-614 -816 0
-619 -820 0
-614 -833 0
-617 -836 0
-619 -837 0
-614 -839 0
-618 -842 0
-619 -843 0
-614 -851 0
-617 -856 0
-618 -857 0
-619 -858 0
-618 -863 0
-619 -864 0
-614 -872 0
-616 -875 0
-617 -877 0
-619 -878 0
-616 -882 0
-617 -884 0
-619 -885 0
-616 -887 0
-617 -889 0
-618 -890 0
-619 -891 0
-614 -924 0
-618 -927 0
-619 -928 0
-614 -947 0
-619 -950 0
-617 -971 0
-619 -972 0
-619 -986 0
-614 -995 0
-616 -996 0
-617 -998 0
-618 -999 0
-619 -1000 0
-616 -1010 0
-618 -1013 0
-619 -1014 0
-616 -1018 0
-619 -1020 0
-616 -1030 0
-617 -1033 0
-619 -1034 0
-614 -1036 0
-615 -1037 0
-617 -1039 0
-619 -1040 0
-614 -1051 0
-615 -1052 0
-617 -1054 0
-619 -1055 0
-614 -1058 0
-619 -1061 0
-614 -1072 0
-617 -1076 0
-619 -1077 0
-615 -1081 0
-617 -1085 0
-619 -1086 0
-614 -1088 0
-618 -1091 0
-619 -1092 0
-615 -1101 0
-617 -1102 0
-618 -1103 0
-619 -1104 0
-618 -1115 0
-619 -1116 0
-614 -1123 0
-616 -1125 0
-617 -1127 0
-619 -1128 0
-615 -1136 0
-616 -1137 0
-617 -1139 0
-619 -1140 0
-616 -1149 0
-617 -1152 0
-619 -1153 0
-615 -1175 0
-618 -1177 0
-619 -1178 0
-615 -1188 0
-617 -1190 0
-618 -1191 0
-619 -1192 0
-615 -1195 0
-619 -1198 0
-615 -1206 0
-617 -1209 0
-619 -1210 0
-617 -1215 0
-619 -1216 0
-615 -1225 0
-616 -1227 0
-617 -1230 0
-618 -1231 0
-619 -1232 0
-615 -1241 0
-616 -1242 0
-617 -1244 0
-618 -1245 0
-619 -1246 0
-616 -1250 0
-618 -1252 0
-619 -1253 0
-616 -1263 0
-619 -1266 0
-614 -1295 0
-616 -1297 0
-619 -1300 0
-614 -1314 0
-616 -1316 0
-618 -1318 0
-619 -1319 0
-616 -1329 0
-617 -1332 0
-618 -1333 0
-619 -1334 0
-616 -1345 0
-618 -1347 0
-619 -1348 0
-616 -1393 0
-617 -1395 0
-619 -1396 0
-615 -1412 0
-616 -1414 0
-619 -1416 0
-615 -1425 0
-616 -1427 0
-617 -1429 0
-619 -1430 0
-615 -1431 0
-616 -1432 0
-618 -1435 0
-619 -1436 0
-616 -1438 0
-617 -1440 0
-618 -1441 0
-619 -1442 0
-614 -1470 0
-616 -1473 0
-617 -1476 0
-619 -1477 0
-614 -1485 0
-616 -1487 0
-617 -1489 0
-618 -1490 0
-619 -1491 0
-616 -1494 0
-618 -1497 0
-619 -1498 0
-614 -1521 0
-616 -1522 0
-618 -1524 0
-619 -1525 0
-614 -1540 0
-616 -1542 0
-619 -1545 0
-616 -1562 0
-617 -1564 0
-619 -1565 0
-616 -1578 0
-619 -1580 0
-617 -1591 0
-619 -1592 0
-614 -1600 0
-615 -1601 0
-616 -1602 0
-617 -1605 0
-619 -1606 0
-614 -1608 0
-616 -1610 0
-619 -1613 0
-614 -1622 0
-616 -1623 0
-617 -1625 0
-619 -1626 0
-615 -1629 0
-616 -1630 0
-617 -1632 0
-619 -1633 0
-614 -1634 0
-616 -1636 0
-618 -1638 0
-619 -1639 0
-615 -1647 0
-616 -1649 0
-617 -1652 0
-618 -1653 0
-619 -1654 0
-616 -1664 0
-618 -1666 0
-619 -1667 0
-617 -1679 0
-619 -1680 0
-615 -1695 0
-616 -1697 0
-618 -1699 0
-619 -1700 0
-615 -1709 0
-616 -1710 0
-617 -1713 0
-618 -1714 0
-619 -1715 0
-615 -1717 0
-616 -1719 0
-619 -1721 0
-615 -1730 0
-616 -1732 0
-617 -1734 0
-619 -1735 0
-616 -1739 0
-617 -1741 0
-619 -1742 0
-616 -1752 0
-619 -1755 0
-615 -1762 0
-617 -1765 0
-618 -1766 0
-619 -1767 0
-618 -1772 0
-619 -1773 0
-616 -1796 0
-618 -1798 0
-619 -1799 0
-616 -1819 0
-617 -1822 0
-619 -1823 0
-615 -1830 0
-616 -1832 0
-617 -1834 0
-619 -1835 0
-616 -1837 0
-617 -1840 0
-618 -1841 0
-619 -1842 0
-614 -1852 0
-617 -1855 0
-618 -1856 0
-619 -1857 0
-617 -1862 0
-618 -1863 0
-619 -1864 0
-617 -1868 0
-618 -1869 0
-619 -1870 0
-618 -1883 0
-619 -1884 0
-617 -1896 0
-618 -1897 0
-619 -1898 0
-615 -1900 0
-617 -1902 0
-618 -1903 0
-619 -1904 0
-617 -1915 0
-618 -1916 0
-619 -1917 0
-617 -1934 0
-618 -1935 0
-619 -1936 0
-616 -1944 0
-617 -1947 0
-618 -1948 0
-619 -1949 0
-616 -1953 0
-617 -1956 0
-618 -1957 0
-619 -1958 0
-622 -697 0
-623 -698 0
-624 -699 0
-625 -701 0
-620 -708 0
-621 -709 0
-623 -711 0
-624 -712 0
-625 -714 0
-621 -730 0
-624 -732 0
-625 -734 0
-621 -762 0
-622 -763 0
-624 -765 0
-625 -767 0
-621 -775 0
-622 -776 0
-624 -777 0
-625 -780 0
-620 -788 0
-624 -790 0
-625 -792 0
-620 -816 0
-622 -818 0
-624 -819 0
-625 -820 0
-620 -823 0
-622 -825 0
-623 -827 0
-624 -828 0
-625 -830 0
-620 -839 0
-623 -841 0
-625 -843 0
-620 -845 0
-625 -849 0
-622 -862 0
-625 -864 0
-620 -865 0
-624 -868 0
-625 -871 0
-622 -881 0
-624 -883 0
-625 -885 0
-623 -888 0
-625 -891 0
-620 -917 0
-624 -919 0
-625 -921 0
-620 -938 0
-622 -939 0
-623 -941 0
-625 -944 0
-623 -970 0
-625 -972 0
-625 -979 0
-620 -988 0
-622 -989 0
-623 -991 0
-624 -992 0
-625 -993 0
-623 -1011 0
-624 -1012 0
-625 -1014 0
-622 -1017 0
-623 -1019 0
-625 -1020 0
-622 -1023 0
-623 -1025 0
-625 -1027 0
-620 -1036 0
-621 -1037 0
-624 -1038 0
-625 -1040 0
-620 -1042 0
-621 -1043 0
-623 -1045 0
-624 -1046 0
-625 -1049 0
-620 -1064 0
-622 -1065 0
-624 -1067 0
-625 -1070 0
-620 -1072 0
-622 -1073 0
-623 -1074 0
-624 -1075 0
-625 -1077 0
-621 -1081 0
-622 -1082 0
-623 -1083 0
-624 -1084 0
-625 -1086 0
-620 -1094 0
-623 -1096 0
-625 -1098 0
-621 -1101 0
-625 -1104 0
-622 -1119 0
-625 -1122 0
-620 -1129 0
-623 -1130 0
-624 -1131 0
-625 -1134 0
-621 -1136 0
-624 -1138 0
-625 -1140 0
-622 -1156 0
-624 -1157 0
-625 -1160 0
-621 -1175 0
-624 -1176 0
-625 -1178 0
-621 -1181 0
-623 -1183 0
-624 -1184 0
-625 -1185 0
-621 -1195 0
-622 -1196 0
-623 -1197 0
-625 -1198 0
-621 -1200 0
-622 -1201 0
-625 -1204 0
-623 -1220 0
-625 -1222 0
-621 -1225 0
-622 -1226 0
-623 -1228 0
-624 -1229 0
-625 -1232 0
-621 -1234 0
-622 -1235 0
-624 -1237 0
-625 -1239 0
-623 -1256 0
-624 -1257 0
-625 -1260 0
-622 -1268 0
-623 -1269 0
-625 -1272 0
-620 -1288 0
-622 -1289 0
-624 -1290 0
-625 -1293 0
-620 -1308 0
-623 -1309 0
-624 -1310 0
-625 -1313 0
-622 -1328 0
-623 -1330 0
-624 -1331 0
-625 -1334 0
-622 -1337 0
-624 -1338 0
-625 -1341 0
-623 -1385 0
-624 -1386 0
-625 -1389 0
-622 -1397 0
-623 -1399 0
-624 -1400 0
-625 -1403 0
-621 -1412 0
-622 -1413 0
-624 -1415 0
-625 -1416 0
-621 -1418 0
-622 -1419 0
-623 -1420 0
-624 -1421 0
-625 -1423 0
-621 -1431 0
-623 -1433 0
-624 -1434 0
-625 -1436 0
-622 -1444 0
-623 -1446 0
-624 -1447 0
-625 -1448 0
-622 -1450 0
-623 -1452 0
-624 -1453 0
-625 -1456 0
-620 -1464 0
-623 -1466 0
-625 -1468 0
-620 -1478 0
-622 -1480 0
-623 -1481 0
-624 -1482 0
-625 -1484 0
-623 -1495 0
-624 -1496 0
-625 -1498 0
-620 -1515 0
-622 -1516 0
-623 -1517 0
-625 -1519 0
-620 -1533 0
-622 -1534 0
-624 -1535 0
-625 -1538 0
-622 -1561 0
-624 -1563 0
-625 -1565 0
-622 -1569 0
-623 -1570 0
-624 -1571 0
-625 -1574 0
-622 -1582 0
-624 -1584 0
-625 -1586 0
-620 -1593 0
-621 -1594 0
-622 -1595 0
-623 -1596 0
-625 -1599 0
-620 -1615 0
-623 -1617 0
-625 -1620 0
-620 -1622 0
-623 -1624 0
-625 -1626 0
-621 -1629 0
-623 -1631 0
-625 -1633 0
-620 -1640 0
-622 -1641 0
-624 -1643 0
-625 -1645 0
-621 -1647 0
-622 -1648 0
-623 -1650 0
-624 -1651 0
-625 -1654 0
-623 -1671 0
-624 -1672 0
-625 -1674 0
-623 -1683 0
-625 -1686 0
-621 -1695 0
-622 -1696 0
-623 -1698 0
-625 -1700 0
-621 -1703 0
-622 -1704 0
-623 -1705 0
-625 -1706 0
-621 -1717 0
-622 -1718 0
-624 -1720 0
-625 -1721 0
-621 -1723 0
-622 -1724 0
-623 -1725 0
-624 -1726 0
-625 -1728 0
-622 -1745 0
-624 -1747 0
-625 -1749 0
-622 -1751 0
-623 -1753 0
-624 -1754 0
-625 -1755 0
-621 -1756 0
-622 -1757 0
-623 -1759 0
-625 -1761 0
-622 -1775 0
-625 -1779 0
-622 -1781 0
-623 -1783 0
-624 -1784 0
-625 -1787 0
-623 -1790 0
-625 -1793 0
-622 -1813 0
-625 -1817 0
-621 -1824 0
-623 -1826 0
-624 -1827 0
-625 -1829 0
-620 -1845 0
-623 -1847 0
-625 -1850 0
-622 -1860 0
-623 -1861 0
-625 -1864 0
-624 -1867 0
-625 -1870 0
-622 -1880 0
-623 -1881 0
-624 -1882 0
-625 -1884 0
-622 -1887 0
-624 -1889 0
-625 -1891 0
-621 -1900 0
-623 -1901 0
-625 -1904 0
-622 -1920 0
-623 -1922 0
-625 -1924 0
-624 -1939 0
-625 -1942 0
-626 -793 0
-627 -794 0
-630 -797 0
-631 -798 0
-627 -800 0
-630 -803 0
-631 -805 0
-626 -806 0
-627 -807 0
-628 -809 0
-630 -812 0
-631 -814 0
-626 -832 0
-627 -833 0
-630 -836 0
-631 -837 0
-626 -838 0
-627 -839 0
-631 -843 0
-627 -845 0
-631 -849 0
-626 -860 0
-631 -864 0
-627 -865 0
-629 -868 0
-630 -869 0
-631 -871 0
-626 -879 0
-629 -883 0
-630 -884 0
-631 -885 0
-626 -906 0
-627 -907 0
-628 -908 0
-629 -912 0
-630 -913 0
-631 -914 0
-626 -946 0
-627 -947 0
-629 -949 0
-631 -950 0
-627 -952 0
-629 -955 0
-631 -957 0
-626 -959 0
-628 -961 0
-629 -964 0
-631 -966 0
-626 -981 0
-629 -985 0
-631 -986 0
-626 -994 0
-627 -995 0
-630 -998 0
-631 -1000 0
-626 -1001 0
-628 -1003 0
-630 -1006 0
-631 -1007 0
-626 -1015 0
-631 -1020 0
-631 -1027 0
-626 -1035 0
-627 -1036 0
-628 -1037 0
-629 -1038 0
-630 -1039 0
-631 -1040 0
-627 -1042 0
-628 -1043 0
-629 -1046 0
-630 -1047 0
-631 -1049 0
-626 -1063 0
-627 -1064 0
-629 -1067 0
-630 -1068 0
-631 -1070 0
-627 -1072 0
-629 -1075 0
-630 -1076 0
-631 -1077 0
-626 -1079 0
-628 -1081 0
-629 -1084 0
-630 -1085 0
-631 -1086 0
-627 -1088 0
-629 -1090 0
-631 -1092 0
-626 -1106 0
-629 -1109 0
-631 -1110 0
-629 -1114 0
-631 -1116 0
-627 -1123 0
-629 -1126 0
-630 -1127 0
-631 -1128 0
-626 -1141 0
-629 -1143 0
-630 -1144 0
-631 -1146 0
-629 -1151 0
-630 -1152 0
-631 -1153 0
-626 -1168 0
-628 -1169 0
-630 -1171 0
-631 -1172 0
-626 -1187 0
-628 -1188 0
-630 -1190 0
-631 -1192 0
-626 -1194 0
-628 -1195 0
-631 -1198 0
-628 -1200 0
-631 -1204 0
-626 -1218 0
-631 -1222 0
-626 -1224 0
-628 -1225 0
-629 -1229 0
-630 -1230 0
-631 -1232 0
-628 -1234 0
-629 -1237 0
-630 -1238 0
-631 -1239 0
-626 -1255 0
-629 -1257 0
-630 -1258 0
-631 -1260 0
-629 -1265 0
-631 -1266 0
-627 -1280 0
-628 -1281 0
-630 -1284 0
-631 -1286 0
-627 -1314 0
-631 -1319 0
-628 -1321 0
-631 -1325 0
-631 -1348 0
-628 -1377 0
-629 -1380 0
-631 -1382 0
-628 -1405 0
-629 -1407 0
-630 -1408 0
-631 -1410 0
-628 -1425 0
-629 -1428 0
-630 -1429 0
-631 -1430 0
-628 -1431 0
-629 -1434 0
-631 -1436 0
-629 -1447 0
-631 -1448 0
-629 -1453 0
-630 -1454 0
-631 -1456 0
-627 -1457 0
-629 -1459 0
-630 -1460 0
-631 -1462 0
-626 -1469 0
-627 -1470 0
-629 -1475 0
-630 -1476 0
-631 -1477 0
-627 -1478 0
-629 -1482 0
-631 -1484 0
-626 -1492 0
-629 -1496 0
-631 -1498 0
-626 -1508 0
-627 -1509 0
-628 -1510 0
-629 -1511 0
-630 -1512 0
-631 -1513 0
-626 -1539 0
-627 -1540 0
-629 -1544 0
-631 -1545 0
-627 -1547 0
-629 -1549 0
-631 -1551 0
-626 -1552 0
-628 -1554 0
-629 -1556 0
-631 -1558 0
-626 -1576 0
-629 -1579 0
-631 -1580 0
-629 -1584 0
-631 -1586 0
-627 -1593 0
-628 -1594 0
-630 -1597 0
-631 -1599 0
-626 -1614 0
-627 -1615 0
-630 -1618 0
-631 -1620 0
-627 -1622 0
-630 -1625 0
-631 -1626 0
-626 -1627 0
-628 -1629 0
-630 -1632 0
-631 -1633 0
-627 -1634 0
-631 -1639 0
-626 -1655 0
-631 -1660 0
-631 -1667 0
-629 -1678 0
-630 -1679 0
-631 -1680 0
-626 -1687 0
-628 -1688 0
-629 -1691 0
-630 -1692 0
-631 -1693 0
-626 -1708 0
-628 -1709 0
-629 -1712 0
-630 -1713 0
-631 -1715 0
-626 -1716 0
-628 -1717 0
-629 -1720 0
-631 -1721 0
-628 -1723 0
-629 -1726 0
-631 -1728 0
-626 -1744 0
-629 -1747 0
-631 -1749 0
-629 -1754 0
-631 -1755 0
-628 -1756 0
-630 -1760 0
-631 -1761 0
-626 -1774 0
-630 -1777 0
-631 -1779 0
-629 -1797 0
-631 -1799 0
-628 -1806 0
-629 -1809 0
-631 -1811 0
-628 -1830 0
-630 -1834 0
-631 -1835 0
-626 -1844 0
-627 -1845 0
-630 -1848 0
-631 -1850 0
-626 -1858 0
-630 -1862 0
-631 -1864 0
-626 -1871 0
-628 -1872 0
-629 -1874 0
-630 -1875 0
-631 -1877 0
-626 -1879 0
-629 -1882 0
-631 -1884 0
-626 -1886 0
-629 -1889 0
-631 -1891 0
-626 -1905 0
-629 -1908 0
-630 -1909 0
-631 -1910 0
-626 -1912 0
-629 -1914 0
-630 -1915 0
-631 -1917 0
-632 -787 0
-633 -788 0
-636 -789 0
-639 -791 0
-640 -792 0
-633 -800 0
-635 -801 0
-636 -802 0
-638 -803 0
-639 -804 0
-640 -805 0
-632 -806 0
-633 -807 0
-634 -809 0
-635 -810 0
-636 -811 0
-638 -812 0
-639 -813 0
-640 -814 0
-632 -822 0
-633 -823 0
-635 -825 0
-636 -826 0
-637 -827 0
-639 -829 0
-640 -830 0
-632 -838 0
-633 -839 0
-637 -841 0
-639 -842 0
-640 -843 0
-633 -851 0
-635 -853 0
-637 -854 0
-638 -856 0
-639 -857 0
-640 -858 0
-632 -860 0
-635 -862 0
-639 -863 0
-640 -864 0
-633 -872 0
-635 -874 0
-636 -875 0
-637 -876 0
-638 -877 0
-640 -878 0
-632 -879 0
-635 -881 0
-636 -882 0
-638 -884 0
-640 -885 0
-632 -899 0
-633 -900 0
-634 -901 0
-636 -902 0
-639 -903 0
-640 -904 0
-632 -937 0
-633 -938 0
-635 -939 0
-636 -940 0
-637 -941 0
-638 -942 0
-639 -943 0
-640 -944 0
-633 -952 0
-636 -953 0
-637 -954 0
-639 -956 0
-640 -957 0
-632 -959 0
-634 -961 0
-636 -962 0
-637 -963 0
-639 -965 0
-640 -966 0
-632 -974 0
-636 -976 0
-638 -977 0
-639 -978 0
-640 -979 0
-632 -987 0
-633 -988 0
-635 -989 0
-636 -990 0
-637 -991 0
-640 -993 0
-632 -1001 0
-634 -1003 0
-636 -1004 0
-637 -1005 0
-638 -1006 0
-640 -1007 0
-632 -1015 0
-635 -1017 0
-636 -1018 0
-637 -1019 0
-640 -1020 0
-636 -1030 0
-637 -1031 0
-638 -1033 0
-640 -1034 0
-632 -1035 0
-633 -1036 0
-634 -1037 0
-638 -1039 0
-640 -1040 0
-633 -1051 0
-634 -1052 0
-635 -1053 0
-638 -1054 0
-640 -1055 0
-632 -1057 0
-633 -1058 0
-637 -1059 0
-640 -1061 0
-633 -1072 0
-635 -1073 0
-637 -1074 0
-638 -1076 0
-640 -1077 0
-632 -1079 0
-634 -1081 0
-635 -1082 0
-637 -1083 0
-638 -1085 0
-640 -1086 0
-633 -1094 0
-636 -1095 0
-637 -1096 0
-638 -1097 0
-640 -1098 0
-632 -1106 0
-636 -1108 0
-640 -1110 0
-635 -1119 0
-636 -1120 0
-638 -1121 0
-640 -1122 0
-633 -1129 0
-637 -1130 0
-638 -1132 0
-639 -1133 0
-640 -1134 0
-632 -1141 0
-638 -1144 0
-639 -1145 0
-640 -1146 0
-635 -1156 0
-638 -1158 0
-639 -1159 0
-640 -1160 0
-632 -1168 0
-634 -1169 0
-636 -1170 0
-638 -1171 0
-640 -1172 0
-632 -1180 0
-634 -1181 0
-636 -1182 0
-637 -1183 0
-640 -1185 0
-632 -1194 0
-634 -1195 0
-635 -1196 0
-637 -1197 0
-640 -1198 0
-634 -1206 0
-637 -1207 0
-638 -1209 0
-640 -1210 0
-632 -1212 0
-635 -1213 0
-638 -1215 0
-640 -1216 0
-632 -1224 0
-634 -1225 0
-635 -1226 0
-636 -1227 0
-637 -1228 0
-638 -1230 0
-639 -1231 0
-640 -1232 0
-634 -1241 0
-636 -1242 0
-637 -1243 0
-638 -1244 0
-639 -1245 0
-640 -1246 0
-632 -1248 0
-635 -1249 0
-636 -1250 0
-639 -1252 0
-640 -1253 0
-635 -1268 0
-637 -1269 0
-638 -1270 0
-639 -1271 0
-640 -1272 0
-633 -1273 0
-634 -1274 0
-635 -1275 0
-636 -1276 0
-639 -1278 0
-640 -1279 0
-633 -1308 0
-637 -1309 0
-638 -1311 0
-639 -1312 0
-640 -1313 0
-634 -1321 0
-635 -1322 0
-637 -1323 0
-639 -1324 0
-640 -1325 0
-635 -1337 0
-638 -1339 0
-639 -1340 0
-640 -1341 0
-634 -1370 0
-636 -1371 0
-637 -1372 0
-638 -1373 0
-639 -1374 0
-640 -1375 0
-635 -1397 0
-636 -1398 0
-637 -1399 0
-638 -1401 0
-639 -1402 0
-640 -1403 0
-634 -1405 0
-635 -1406 0
-638 -1408 0
-639 -1409 0
-640 -1410 0
-634 -1418 0
-635 -1419 0
-637 -1420 0
-639 -1422 0
-640 -1423 0
-634 -1431 0
-636 -1432 0
-637 -1433 0
-639 -1435 0
-640 -1436 0
-636 -1438 0
-638 -1440 0
-639 -1441 0
-640 -1442 0
-633 -1457 0
-637 -1458 0
-638 -1460 0
-639 -1461 0
-640 -1462 0
-632 -1463 0
-633 -1464 0
-637 -1466 0
-639 -1467 0
-640 -1468 0
-633 -1485 0
-636 -1487 0
-638 -1489 0
-639 -1490 0
-640 -1491 0
-632 -1492 0
-636 -1494 0
-637 -1495 0
-639 -1497 0
-640 -1498 0
-632 -1499 0
-633 -1500 0
-634 -1501 0
-635 -1502 0
-636 -1503 0
-637 -1504 0
-639 -1506 0
-640 -1507 0
-632 -1532 0
-633 -1533 0
-635 -1534 0
-638 -1536 0
-639 -1537 0
-640 -1538 0
-633 -1547 0
-635 -1548 0
-639 -1550 0
-640 -1551 0
-632 -1552 0
-634 -1554 0
-635 -1555 0
-639 -1557 0
-640 -1558 0
-632 -1567 0
-635 -1569 0
-637 -1570 0
-638 -1572 0
-639 -1573 0
-640 -1574 0
-635 -1588 0
-637 -1589 0
-638 -1591 0
-640 -1592 0
-633 -1600 0
-634 -1601 0
-636 -1602 0
-637 -1603 0
-638 -1605 0
-640 -1606 0
-632 -1607 0
-633 -1608 0
-635 -1609 0
-636 -1610 0
-637 -1611 0
-640 -1613 0
-633 -1622 0
-636 -1623 0
-637 -1624 0
-638 -1625 0
-640 -1626 0
-632 -1627 0
-634 -1629 0
-636 -1630 0
-637 -1631 0
-638 -1632 0
-640 -1633 0
-633 -1640 0
-635 -1641 0
-636 -1642 0
-638 -1644 0
-640 -1645 0
-632 -1655 0
-635 -1657 0
-636 -1658 0
-637 -1659 0
-640 -1660 0
-636 -1670 0
-637 -1671 0
-638 -1673 0
-640 -1674 0
-636 -1682 0
-637 -1683 0
-638 -1684 0
-639 -1685 0
-640 -1686 0
-632 -1687 0
-634 -1688 0
-635 -1689 0
-637 -1690 0
-638 -1692 0
-640 -1693 0
-632 -1702 0
-634 -1703 0
-635 -1704 0
-637 -1705 0
-640 -1706 0
-632 -1716 0
-634 -1717 0
-635 -1718 0
-636 -1719 0
-640 -1721 0
-634 -1730 0
-635 -1731 0
-636 -1732 0
-638 -1734 0
-640 -1735 0
-632 -1737 0
-635 -1738 0
-636 -1739 0
-637 -1740 0
-638 -1741 0
-640 -1742 0
-635 -1751 0
-636 -1752 0
-637 -1753 0
-640 -1755 0
-634 -1762 0
-635 -1763 0
-638 -1765 0
-639 -1766 0
-640 -1767 0
-632 -1768 0
-635 -1769 0
-637 -1770 0
-639 -1772 0
-640 -1773 0
-635 -1781 0
-636 -1782 0
-637 -1783 0
-638 -1785 0
-639 -1786 0
-640 -1787 0
-636 -1789 0
-637 -1790 0
-638 -1791 0
-639 -1792 0
-640 -1793 0
-634 -1800 0
-635 -1801 0
-638 -1803 0
-639 -1804 0
-640 -1805 0
-634 -1824 0
-636 -1825 0
-637 -1826 0
-639 -1828 0
-640 -1829 0
-635 -1836 0
-636 -1837 0
-637 -1838 0
-638 -1840 0
-639 -1841 0
-640 -1842 0
-632 -1851 0
-633 -1852 0
-635 -1853 0
-638 -1855 0
-639 -1856 0
-640 -1857 0
-632 -1858 0
-635 -1860 0
-637 -1861 0
-638 -1862 0
-639 -1863 0
-640 -1864 0
-632 -1871 0
-634 -1872 0
-636 -1873 0
-638 -1875 0
-639 -1876 0
-640 -1877 0
-632 -1879 0
-635 -1880 0
-637 -1881 0
-639 -1883 0
-640 -1884 0
-632 -1893 0
-637 -1894 0
-638 -1896 0
-639 -1897 0
-640 -1898 0
-632 -1905 0
-636 -1906 0
-637 -1907 0
-638 -1909 0
-640 -1910 0
-632 -1919 0
-635 -1920 0
-636 -1921 0
-637 -1922 0
-638 -1923 0
-640 -1924 0
-635 -1952 0
-636 -1953 0
-637 -1954 0
-638 -1956 0
-639 -1957 0
-640 -1958 0
-641 -787 0
-646 -792 0
-641 -793 0
-644 -795 0
-645 -797 0
-646 -798 0
-644 -801 0
-645 -803 0
-646 -805 0
-641 -838 0
-642 -840 0
-646 -843 0
-642 -846 0
-646 -849 0
-642 -852 0
-644 -853 0
-645 -856 0
-646 -858 0
-642 -866 0
-645 -869 0
-646 -871 0
-642 -873 0
-644 -874 0
-645 -877 0
-646 -878 0
-642 -886 0
-645 -889 0
-646 -891 0
-641 -937 0
-644 -939 0
-645 -942 0
-646 -944 0
-641 -946 0
-646 -950 0
-646 -957 0
-641 -987 0
-644 -989 0
-646 -993 0
-641 -994 0
-645 -998 0
-646 -1000 0
-641 -1015 0
-642 -1016 0
-644 -1017 0
-646 -1020 0
-642 -1022 0
-644 -1023 0
-646 -1027 0
-642 -1029 0
-645 -1033 0
-646 -1034 0
-641 -1035 0
-643 -1037 0
-645 -1039 0
-646 -1040 0
-643 -1043 0
-645 -1047 0
-646 -1049 0
-643 -1052 0
-644 -1053 0
-645 -1054 0
-646 -1055 0
-641 -1057 0
-646 -1061 0
-641 -1063 0
-644 -1065 0
-645 -1068 0
-646 -1070 0
-644 -1073 0
-645 -1076 0
-646 -1077 0
-642 -1100 0
-643 -1101 0
-645 -1102 0
-646 -1104 0
-641 -1106 0
-642 -1107 0
-646 -1110 0
-642 -1112 0
-646 -1116 0
-642 -1118 0
-644 -1119 0
-645 -1121 0
-646 -1122 0
-642 -1135 0
-643 -1136 0
-645 -1139 0
-646 -1140 0
-641 -1141 0
-642 -1142 0
-645 -1144 0
-646 -1146 0
-642 -1148 0
-645 -1152 0
-646 -1153 0
-642 -1155 0
-644 -1156 0
-645 -1158 0
-646 -1160 0
-641 -1194 0
-643 -1195 0
-644 -1196 0
-646 -1198 0
-643 -1200 0
-644 -1201 0
-646 -1204 0
-643 -1206 0
-645 -1209 0
-646 -1210 0
-641 -1212 0
-644 -1213 0
-645 -1215 0
-646 -1216 0
-641 -1218 0
-646 -1222 0
-641 -1224 0
-643 -1225 0
-644 -1226 0
-645 -1230 0
-646 -1232 0
-643 -1234 0
-644 -1235 0
-645 -1238 0
-646 -1239 0
-643 -1241 0
-645 -1244 0
-646 -1246 0
-641 -1248 0
-644 -1249 0
-646 -1253 0
-641 -1255 0
-645 -1258 0
-646 -1260 0
-645 -1311 0
-646 -1313 0
-644 -1315 0
-646 -1319 0
-644 -1397 0
-645 -1401 0
-646 -1403 0
-643 -1431 0
-646 -1436 0
-645 -1440 0
-646 -1442 0
-644 -1444 0
-646 -1448 0
-644 -1450 0
-645 -1454 0
-646 -1456 0
-645 -1460 0
-646 -1462 0
-642 -1479 0
-644 -1480 0
-646 -1484 0
-642 -1486 0
-645 -1489 0
-646 -1491 0
-641 -1532 0
-644 -1534 0
-645 -1536 0
-646 -1538 0
-641 -1539 0
-644 -1541 0
-646 -1545 0
-644 -1548 0
-646 -1551 0
-642 -1581 0
-644 -1582 0
-646 -1586 0
-642 -1587 0
-644 -1588 0
-645 -1591 0
-646 -1592 0
-643 -1594 0
-644 -1595 0
-645 -1597 0
-646 -1599 0
-643 -1601 0
-645 -1605 0
-646 -1606 0
-641 -1607 0
-644 -1609 0
-646 -1613 0
-641 -1614 0
-645 -1618 0
-646 -1620 0
-645 -1625 0
-646 -1626 0
-642 -1646 0
-643 -1647 0
-644 -1648 0
-645 -1652 0
-646 -1654 0
-641 -1655 0
-642 -1656 0
-644 -1657 0
-646 -1660 0
-642 -1662 0
-644 -1663 0
-646 -1667 0
-642 -1669 0
-645 -1673 0
-646 -1674 0
-642 -1675 0
-644 -1676 0
-645 -1679 0
-646 -1680 0
-642 -1681 0
-645 -1684 0
-646 -1686 0
-641 -1716 0
-643 -1717 0
-644 -1718 0
-646 -1721 0
-643 -1723 0
-644 -1724 0
-646 -1728 0
-643 -1730 0
-644 -1731 0
-645 -1734 0
-646 -1735 0
-641 -1737 0
-644 -1738 0
-645 -1741 0
-646 -1742 0
-641 -1744 0
-644 -1745 0
-646 -1749 0
-644 -1751 0
-646 -1755 0
-643 -1756 0
-644 -1757 0
-645 -1760 0
-646 -1761 0
-643 -1762 0
-644 -1763 0
-645 -1765 0
-646 -1767 0
-641 -1768 0
-644 -1769 0
-646 -1773 0
-641 -1774 0
-644 -1775 0
-645 -1777 0
-646 -1779 0
-644 -1836 0
-645 -1840 0
-646 -1842 0
-641 -1844 0
-645 -1848 0
-646 -1850 0
-641 -1851 0
-644 -1853 0
-645 -1855 0
-646 -1857 0
-641 -1865 0
-642 -1866 0
-645 -1868 0
-646 -1870 0
-641 -1879 0
-644 -1880 0
-646 -1884 0
-641 -1886 0
-644 -1887 0
-646 -1891 0
-641 -1893 0
-645 -1896 0
-646 -1898 0
-641 -1899 0
-643 -1900 0
-645 -1902 0
-646 -1904 0
-641 -1905 0
-645 -1909 0
-646 -1910 0
-641 -1912 0
-645 -1915 0
-646 -1917 0
-641 -1919 0
-644 -1920 0
-645 -1923 0
-646 -1924 0
-644 -1952 0
-645 -1956 0
-646 -1958 0
-647 -715 0
-648 -716 0
-649 -717 0
-652 -720 0
-653 -721 0
-648 -723 0
-649 -724 0
-650 -726 0
-653 -728 0
-648 -750 0
-649 -751 0
-652 -753 0
-653 -754 0
-648 -781 0
-650 -783 0
-652 -785 0
-653 -786 0
-647 -794 0
-649 -795 0
-650 -796 0
-651 -797 0
-653 -798 0
-647 -800 0
-649 -801 0
-651 -803 0
-652 -804 0
-653 -805 0
-647 -807 0
-648 -809 0
-649 -810 0
-651 -812 0
-652 -813 0
-653 -814 0
-647 -816 0
-649 -818 0
-653 -820 0
-647 -823 0
-649 -825 0
-650 -827 0
-652 -829 0
-653 -830 0
-647 -851 0
-649 -853 0
-650 -854 0
-651 -856 0
-652 -857 0
-653 -858 0
-649 -862 0
-652 -863 0
-653 -864 0
-647 -865 0
-651 -869 0
-652 -870 0
-653 -871 0
-650 -888 0
-651 -889 0
-652 -890 0
-653 -891 0
-647 -907 0
-648 -908 0
-649 -909 0
-650 -911 0
-651 -913 0
-653 -914 0
-647 -924 0
-649 -925 0
-650 -926 0
-652 -927 0
-653 -928 0
-648 -932 0
-649 -933 0
-653 -935 0
-649 -983 0
-650 -984 0
-653 -986 0
-647 -995 0
-650 -997 0
-651 -998 0
-652 -999 0
-653 -1000 0
-648 -1003 0
-650 -1005 0
-651 -1006 0
-653 -1007 0
-650 -1011 0
-652 -1013 0
-653 -1014 0
-650 -1031 0
-651 -1033 0
-653 -1034 0
-647 -1036 0
-648 -1037 0
-651 -1039 0
-653 -1040 0
-647 -1042 0
-648 -1043 0
-650 -1045 0
-651 -1047 0
-652 -1048 0
-653 -1049 0
-647 -1058 0
-650 -1059 0
-653 -1061 0
-647 -1094 0
-650 -1096 0
-651 -1097 0
-653 -1098 0
-648 -1101 0
-651 -1102 0
-652 -1103 0
-653 -1104 0
-653 -1110 0
-650 -1113 0
-652 -1115 0
-653 -1116 0
-647 -1123 0
-649 -1124 0
-651 -1127 0
-653 -1128 0
-649 -1162 0
-650 -1163 0
-651 -1165 0
-653 -1166 0
-648 -1169 0
-651 -1171 0
-653 -1172 0
-648 -1175 0
-652 -1177 0
-653 -1178 0
-648 -1181 0
-650 -1183 0
-653 -1185 0
-648 -1206 0
-650 -1207 0
-651 -1209 0
-653 -1210 0
-650 -1220 0
-652 -1221 0
-653 -1222 0
-648 -1225 0
-649 -1226 0
-650 -1228 0
-651 -1230 0
-652 -1231 0
-653 -1232 0
-648 -1234 0
-649 -1235 0
-651 -1238 0
-653 -1239 0
-649 -1249 0
-652 -1252 0
-653 -1253 0
-649 -1268 0
-650 -1269 0
-651 -1270 0
-652 -1271 0
-653 -1272 0
-647 -1280 0
-648 -1281 0
-649 -1282 0
-650 -1283 0
-651 -1284 0
-652 -1285 0
-653 -1286 0
-647 -1295 0
-649 -1296 0
-650 -1298 0
-653 -1300 0
-648 -1303 0
-649 -1304 0
-652 -1306 0
-653 -1307 0
-649 -1344 0
-650 -1346 0
-652 -1347 0
-653 -1348 0
-648 -1405 0
-649 -1406 0
-651 -1408 0
-652 -1409 0
-653 -1410 0
-648 -1412 0
-649 -1413 0
-653 -1416 0
-648 -1418 0
-649 -1419 0
-650 -1420 0
-652 -1422 0
-653 -1423 0
-649 -1444 0
-650 -1446 0
-653 -1448 0
-647 -1457 0
-650 -1458 0
-651 -1460 0
-652 -1461 0
-653 -1462 0
-647 -1464 0
-650 -1466 0
-652 -1467 0
-653 -1468 0
-647 -1485 0
-651 -1489 0
-652 -1490 0
-653 -1491 0
-650 -1495 0
-652 -1497 0
-653 -1498 0
-647 -1509 0
-648 -1510 0
-651 -1512 0
-653 -1513 0
-647 -1521 0
-652 -1524 0
-653 -1525 0
-648 -1528 0
-650 -1529 0
-653 -1531 0
-653 -1580 0
-649 -1588 0
-650 -1589 0
-651 -1591 0
-653 -1592 0
-647 -1593 0
-648 -1594 0
-649 -1595 0
-650 -1596 0
-651 -1597 0
-652 -1598 0
-653 -1599 0
-647 -1608 0
-649 -1609 0
-650 -1611 0
-653 -1613 0
-647 -1640 0
-649 -1641 0
-651 -1644 0
-653 -1645 0
-648 -1647 0
-649 -1648 0
-650 -1650 0
-651 -1652 0
-652 -1653 0
-653 -1654 0
-649 -1657 0
-650 -1659 0
-653 -1660 0
-649 -1663 0
-650 -1665 0
-652 -1666 0
-653 -1667 0
-648 -1688 0
-649 -1689 0
-650 -1690 0
-651 -1692 0
-653 -1693 0
-648 -1695 0
-649 -1696 0
-650 -1698 0
-652 -1699 0
-653 -1700 0
-648 -1703 0
-649 -1704 0
-650 -1705 0
-653 -1706 0
-648 -1730 0
-649 -1731 0
-651 -1734 0
-653 -1735 0
-649 -1745 0
-652 -1748 0
-653 -1749 0
-649 -1751 0
-650 -1753 0
-653 -1755 0
-648 -1756 0
-649 -1757 0
-650 -1759 0
-651 -1760 0
-653 -1761 0
-649 -1769 0
-650 -1770 0
-652 -1772 0
-653 -1773 0
-649 -1781 0
-650 -1783 0
-651 -1785 0
-652 -1786 0
-653 -1787 0
-649 -1795 0
-652 -1798 0
-653 -1799 0
-648 -1824 0
-650 -1826 0
-652 -1828 0
-653 -1829 0
-647 -1845 0
-650 -1847 0
-651 -1848 0
-652 -1849 0
-653 -1850 0
-651 -1868 0
-652 -1869 0
-653 -1870 0
-648 -1872 0
-651 -1875 0
-652 -1876 0
-653 -1877 0
-650 -1894 0
-651 -1896 0
-652 -1897 0
-653 -1898 0
-649 -1926 0
-651 -1928 0
-652 -1929 0
-653 -1930 0
-649 -1932 0
-650 -1933 0
-651 -1934 0
-652 -1935 0
-653 -1936 0
-649 -1952 0
-650 -1954 0
-651 -1956 0
-652 -1957 0
-653 -1958 0
-654 -708 0
-655 -709 0
-656 -710 0
-657 -711 0
-658 -712 0
-659 -713 0
-660 -714 0
-655 -723 0
-656 -725 0
-657 -726 0
-658 -727 0
-660 -728 0
-655 -744 0
-657 -745 0
-658 -746 0
-659 -747 0
-660 -748 0
-655 -775 0
-658 -777 0
-659 -778 0
-660 -780 0
-654 -788 0
-656 -789 0
-658 -790 0
-660 -792 0
-654 -800 0
-656 -802 0
-659 -803 0
-660 -805 0
-654 -807 0
-655 -809 0
-656 -811 0
-659 -812 0
-660 -814 0
-654 -816 0
-658 -819 0
-660 -820 0
-654 -833 0
-659 -836 0
-660 -837 0
-654 -845 0
-656 -847 0
-660 -849 0
-660 -864 0
-654 -872 0
-656 -875 0
-657 -876 0
-659 -877 0
-660 -878 0
-656 -887 0
-657 -888 0
-659 -889 0
-660 -891 0
-654 -900 0
-655 -901 0
-656 -902 0
-660 -904 0
-654 -917 0
-656 -918 0
-658 -919 0
-659 -920 0
-660 -921 0
-655 -932 0
-656 -934 0
-660 -935 0
-656 -976 0
-659 -977 0
-660 -979 0
-654 -988 0
-656 -990 0
-657 -991 0
-658 -992 0
-660 -993 0
-655 -1003 0
-656 -1004 0
-657 -1005 0
-659 -1006 0
-660 -1007 0
-656 -1010 0
-657 -1011 0
-658 -1012 0
-660 -1014 0
-656 -1024 0
-657 -1025 0
-660 -1027 0
-654 -1036 0
-655 -1037 0
-658 -1038 0
-659 -1039 0
-660 -1040 0
-654 -1051 0
-655 -1052 0
-659 -1054 0
-660 -1055 0
-654 -1064 0
-656 -1066 0
-658 -1067 0
-659 -1068 0
-660 -1070 0
-654 -1088 0
-658 -1090 0
-660 -1092 0
-655 -1101 0
-659 -1102 0
-660 -1104 0
-656 -1108 0
-658 -1109 0
-660 -1110 0
-656 -1120 0
-659 -1121 0
-660 -1122 0
-654 -1129 0
-657 -1130 0
-658 -1131 0
-659 -1132 0
-660 -1134 0
-657 -1163 0
-658 -1164 0
-659 -1165 0
-660 -1166 0
-655 -1169 0
-656 -1170 0
-659 -1171 0
-660 -1172 0
-655 -1175 0
-658 -1176 0
-660 -1178 0
-655 -1188 0
-659 -1190 0
-660 -1192 0
-655 -1200 0
-656 -1202 0
-660 -1204 0
-658 -1214 0
-659 -1215 0
-660 -1216 0
-655 -1225 0
-656 -1227 0
-657 -1228 0
-658 -1229 0
-659 -1230 0
-660 -1232 0
-655 -1241 0
-656 -1242 0
-657 -1243 0
-659 -1244 0
-660 -1246 0
-657 -1256 0
-658 -1257 0
-659 -1258 0
-660 -1260 0
-656 -1263 0
-657 -1264 0
-658 -1265 0
-660 -1266 0
-654 -1273 0
-655 -1274 0
-656 -1276 0
-658 -1277 0
-660 -1279 0
-654 -1288 0
-658 -1290 0
-659 -1291 0
-660 -1293 0
-655 -1303 0
-658 -1305 0
-660 -1307 0
-658 -1338 0
-659 -1339 0
-660 -1341 0
-655 -1405 0
-658 -1407 0
-659 -1408 0
-660 -1410 0
-655 -1412 0
-656 -1414 0
-658 -1415 0
-660 -1416 0
-655 -1425 0
-656 -1427 0
-658 -1428 0
-659 -1429 0
-660 -1430 0
-656 -1438 0
-658 -1439 0
-659 -1440 0
-660 -1442 0
-656 -1451 0
-657 -1452 0
-658 -1453 0
-659 -1454 0
-660 -1456 0
-654 -1457 0
-657 -1458 0
-658 -1459 0
-659 -1460 0
-660 -1462 0
-654 -1470 0
-656 -1473 0
-657 -1474 0
-658 -1475 0
-659 -1476 0
-660 -1477 0
-654 -1478 0
-657 -1481 0
-658 -1482 0
-660 -1484 0
-656 -1494 0
-657 -1495 0
-658 -1496 0
-660 -1498 0
-654 -1500 0
-655 -1501 0
-656 -1503 0
-657 -1504 0
-658 -1505 0
-660 -1507 0
-654 -1515 0
-657 -1517 0
-659 -1518 0
-660 -1519 0
-655 -1528 0
-657 -1529 0
-658 -1530 0
-660 -1531 0
-657 -1570 0
-658 -1571 0
-659 -1572 0
-660 -1574 0
-656 -1583 0
-658 -1584 0
-660 -1586 0
-654 -1600 0
-655 -1601 0
-656 -1602 0
-657 -1603 0
-658 -1604 0
-659 -1605 0
-660 -1606 0
-654 -1615 0
-656 -1616 0
-657 -1617 0
-659 -1618 0
-660 -1620 0
-654 -1634 0
-656 -1636 0
-657 -1637 0
-660 -1639 0
-655 -1647 0
-656 -1649 0
-657 -1650 0
-658 -1651 0
-659 -1652 0
-660 -1654 0
-656 -1658 0
-657 -1659 0
-660 -1660 0
-656 -1670 0
-657 -1671 0
-658 -1672 0
-659 -1673 0
-660 -1674 0
-655 -1688 0
-657 -1690 0
-658 -1691 0
-659 -1692 0
-660 -1693 0
-655 -1695 0
-656 -1697 0
-657 -1698 0
-660 -1700 0
-655 -1709 0
-656 -1710 0
-657 -1711 0
-658 -1712 0
-659 -1713 0
-660 -1715 0
-655 -1723 0
-657 -1725 0
-658 -1726 0
-660 -1728 0
-656 -1739 0
-657 -1740 0
-659 -1741 0
-660 -1742 0
-656 -1752 0
-657 -1753 0
-658 -1754 0
-660 -1755 0
-655 -1762 0
-658 -1764 0
-659 -1765 0
-660 -1767 0
-656 -1776 0
-659 -1777 0
-660 -1779 0
-656 -1789 0
-657 -1790 0
-659 -1791 0
-660 -1793 0
-655 -1830 0
-656 -1832 0
-657 -1833 0
-659 -1834 0
-660 -1835 0
-656 -1837 0
-657 -1838 0
-658 -1839 0
-659 -1840 0
-660 -1842 0
-654 -1852 0
-658 -1854 0
-659 -1855 0
-660 -1857 0
-658 -1867 0
-659 -1868 0
-660 -1870 0
-655 -1872 0
-656 -1873 0
-658 -1874 0
-659 -1875 0
-660 -1877 0
-656 -1888 0
-658 -1889 0
-660 -1891 0
-656 -1927 0
-659 -1928 0
-660 -1930 0
-656 -1938 0
-658 -1939 0
-659 -1940 0
-660 -1942 0
-662 -709 0
-663 -711 0
-664 -712 0
-665 -713 0
-667 -714 0
-662 -716 0
-664 -719 0
-666 -720 0
-667 -721 0
-662 -775 0
-664 -777 0
-665 -778 0
-666 -779 0
-667 -780 0
-662 -781 0
-663 -783 0
-664 -784 0
-666 -785 0
-667 -786 0
-664 -790 0
-666 -791 0
-667 -792 0
-663 -796 0
-665 -797 0
-667 -798 0
-665 -803 0
-666 -804 0
-667 -805 0
-661 -817 0
-664 -819 0
-667 -820 0
-661 -824 0
-663 -827 0
-664 -828 0
-666 -829 0
-667 -830 0
-661 -834 0
-665 -836 0
-667 -837 0
-661 -866 0
-664 -868 0
-665 -869 0
-666 -870 0
-667 -871 0
-661 -873 0
-663 -876 0
-665 -877 0
-667 -878 0
-661 -880 0
-664 -883 0
-665 -884 0
-667 -885 0
-664 -919 0
-665 -920 0
-667 -921 0
-663 -926 0
-666 -927 0
-667 -928 0
-663 -991 0
-664 -992 0
-667 -993 0
-663 -997 0
-665 -998 0
-666 -999 0
-667 -1000 0
-661 -1009 0
-663 -1011 0
-664 -1012 0
-666 -1013 0
-667 -1014 0
-662 -1037 0
-664 -1038 0
-665 -1039 0
-667 -1040 0
-662 -1043 0
-663 -1045 0
-664 -1046 0
-665 -1047 0
-666 -1048 0
-667 -1049 0
-662 -1052 0
-665 -1054 0
-667 -1055 0
-661 -1080 0
-662 -1081 0
-663 -1083 0
-664 -1084 0
-665 -1085 0
-667 -1086 0
-664 -1090 0
-666 -1091 0
-667 -1092 0
-663 -1096 0
-665 -1097 0
-667 -1098 0
-661 -1107 0
-664 -1109 0
-667 -1110 0
-661 -1112 0
-663 -1113 0
-664 -1114 0
-666 -1115 0
-667 -1116 0
-661 -1118 0
-665 -1121 0
-667 -1122 0
-661 -1135 0
-662 -1136 0
-664 -1138 0
-665 -1139 0
-667 -1140 0
-661 -1161 0
-663 -1163 0
-664 -1164 0
-665 -1165 0
-667 -1166 0
-662 -1175 0
-664 -1176 0
-666 -1177 0
-667 -1178 0
-662 -1181 0
-663 -1183 0
-664 -1184 0
-667 -1185 0
-662 -1188 0
-665 -1190 0
-666 -1191 0
-667 -1192 0
-664 -1214 0
-665 -1215 0
-667 -1216 0
-663 -1220 0
-666 -1221 0
-667 -1222 0
-662 -1225 0
-663 -1228 0
-664 -1229 0
-665 -1230 0
-666 -1231 0
-667 -1232 0
-662 -1234 0
-664 -1237 0
-665 -1238 0
-667 -1239 0
-662 -1241 0
-663 -1243 0
-665 -1244 0
-666 -1245 0
-667 -1246 0
-663 -1264 0
-664 -1265 0
-667 -1266 0
-663 -1269 0
-665 -1270 0
-666 -1271 0
-667 -1272 0
-664 -1290 0
-665 -1291 0
-666 -1292 0
-667 -1293 0
-663 -1298 0
-664 -1299 0
-667 -1300 0
-662 -1412 0
-664 -1415 0
-667 -1416 0
-662 -1418 0
-663 -1420 0
-664 -1421 0
-666 -1422 0
-667 -1423 0
-662 -1425 0
-664 -1428 0
-665 -1429 0
-667 -1430 0
-664 -1439 0
-665 -1440 0
-666 -1441 0
-667 -1442 0
-663 -1446 0
-664 -1447 0
-667 -1448 0
-663 -1458 0
-664 -1459 0
-665 -1460 0
-666 -1461 0
-667 -1462 0
-661 -1465 0
-663 -1466 0
-666 -1467 0
-667 -1468 0
-661 -1471 0
-663 -1474 0
-664 -1475 0
-665 -1476 0
-667 -1477 0
-663 -1517 0
-665 -1518 0
-667 -1519 0
-664 -1523 0
-666 -1524 0
-667 -1525 0
-662 -1594 0
-663 -1596 0
-665 -1597 0
-666 -1598 0
-667 -1599 0
-662 -1601 0
-663 -1603 0
-664 -1604 0
-665 -1605 0
-667 -1606 0
-661 -1628 0
-662 -1629 0
-663 -1631 0
-665 -1632 0
-667 -1633 0
-663 -1637 0
-666 -1638 0
-667 -1639 0
-664 -1643 0
-665 -1644 0
-667 -1645 0
-661 -1656 0
-663 -1659 0
-667 -1660 0
-661 -1662 0
-663 -1665 0
-666 -1666 0
-667 -1667 0
-661 -1669 0
-663 -1671 0
-664 -1672 0
-665 -1673 0
-667 -1674 0
-662 -1695 0
-663 -1698 0
-666 -1699 0
-667 -1700 0
-662 -1703 0
-663 -1705 0
-667 -1706 0
-662 -1709 0
-663 -1711 0
-664 -1712 0
-665 -1713 0
-666 -1714 0
-667 -1715 0
-663 -1740 0
-665 -1741 0
-667 -1742 0
-664 -1747 0
-666 -1748 0
-667 -1749 0
-663 -1753 0
-664 -1754 0
-667 -1755 0
-662 -1756 0
-663 -1759 0
-665 -1760 0
-667 -1761 0
-662 -1762 0
-664 -1764 0
-665 -1765 0
-666 -1766 0
-667 -1767 0
-663 -1783 0
-664 -1784 0
-665 -1785 0
-666 -1786 0
-667 -1787 0
-662 -1824 0
-663 -1826 0
-664 -1827 0
-666 -1828 0
-667 -1829 0
-662 -1830 0
-663 -1833 0
-665 -1834 0
-667 -1835 0
-663 -1838 0
-664 -1839 0
-665 -1840 0
-666 -1841 0
-667 -1842 0
-663 -1847 0
-665 -1848 0
-666 -1849 0
-667 -1850 0
-664 -1854 0
-665 -1855 0
-666 -1856 0
-667 -1857 0
-661 -1859 0
-663 -1861 0
-665 -1862 0
-666 -1863 0
-667 -1864 0
-662 -1900 0
-663 -1901 0
-665 -1902 0
-666 -1903 0
-667 -1904 0
-665 -1928 0
-666 -1929 0
-667 -1930 0
-663 -1933 0
-665 -1934 0
-666 -1935 0
-667 -1936 0
-664 -1939 0
-665 -1940 0
-666 -1941 0
-667 -1942 0
-670 -725 0
-671 -726 0
-673 -728 0
-669 -788 0
-670 -789 0
-673 -792 0
-669 -794 0
-671 -796 0
-672 -797 0
-673 -798 0
-668 -799 0
-669 -800 0
-670 -802 0
-672 -803 0
-673 -805 0
-669 -816 0
-673 -820 0
-668 -821 0
-669 -823 0
-670 -826 0
-671 -827 0
-673 -830 0
-668 -831 0
-669 -833 0
-672 -836 0
-673 -837 0
-669 -839 0
-671 -841 0
-673 -843 0
-668 -844 0
-669 -845 0
-670 -847 0
-673 -849 0
-668 -850 0
-669 -851 0
-671 -854 0
-672 -856 0
-673 -858 0
-668 -859 0
-673 -864 0
-669 -893 0
-670 -895 0
-671 -896 0
-673 -897 0
-668 -898 0
-669 -900 0
-670 -902 0
-673 -904 0
-668 -905 0
-669 -907 0
-670 -910 0
-671 -911 0
-672 -913 0
-673 -914 0
-668 -929 0
-670 -934 0
-673 -935 0
-668 -958 0
-670 -962 0
-671 -963 0
-673 -966 0
-669 -988 0
-670 -990 0
-671 -991 0
-673 -993 0
-669 -995 0
-670 -996 0
-671 -997 0
-672 -998 0
-673 -1000 0
-670 -1010 0
-671 -1011 0
-673 -1014 0
-670 -1018 0
-671 -1019 0
-673 -1020 0
-668 -1021 0
-670 -1024 0
-671 -1025 0
-673 -1027 0
-668 -1028 0
-670 -1030 0
-671 -1031 0
-672 -1033 0
-673 -1034 0
-668 -1056 0
-669 -1058 0
-671 -1059 0
-673 -1061 0
-668 -1062 0
-669 -1064 0
-670 -1066 0
-672 -1068 0
-673 -1070 0
-668 -1071 0
-669 -1072 0
-671 -1074 0
-672 -1076 0
-673 -1077 0
-668 -1087 0
-669 -1088 0
-673 -1092 0
-668 -1093 0
-669 -1094 0
-670 -1095 0
-671 -1096 0
-672 -1097 0
-673 -1098 0
-668 -1105 0
-670 -1108 0
-673 -1110 0
-668 -1111 0
-671 -1113 0
-673 -1116 0
-668 -1117 0
-670 -1120 0
-672 -1121 0
-673 -1122 0
-668 -1173 0
-673 -1178 0
-668 -1179 0
-670 -1182 0
-671 -1183 0
-673 -1185 0
-668 -1186 0
-672 -1190 0
-673 -1192 0
-668 -1193 0
-671 -1197 0
-673 -1198 0
-668 -1199 0
-670 -1202 0
-673 -1204 0
-668 -1205 0
-671 -1207 0
-672 -1209 0
-673 -1210 0
-668 -1247 0
-670 -1250 0
-673 -1253 0
-668 -1254 0
-671 -1256 0
-672 -1258 0
-673 -1260 0
-668 -1261 0
-670 -1263 0
-671 -1264 0
-673 -1266 0
-668 -1267 0
-671 -1269 0
-672 -1270 0
-673 -1272 0
-669 -1273 0
-670 -1276 0
-673 -1279 0
-669 -1280 0
-671 -1283 0
-672 -1284 0
-673 -1286 0
-673 -1307 0
-671 -1323 0
-673 -1325 0
-670 -1352 0
-671 -1353 0
-673 -1355 0
-670 -1414 0
-673 -1416 0
-668 -1417 0
-671 -1420 0
-673 -1423 0
-668 -1424 0
-670 -1427 0
-672 -1429 0
-673 -1430 0
-670 -1432 0
-671 -1433 0
-673 -1436 0
-670 -1451 0
-671 -1452 0
-672 -1454 0
-673 -1456 0
-669 -1457 0
-671 -1458 0
-672 -1460 0
-673 -1462 0
-669 -1464 0
-671 -1466 0
-673 -1468 0
-669 -1470 0
-670 -1473 0
-671 -1474 0
-672 -1476 0
-673 -1477 0
-669 -1478 0
-671 -1481 0
-673 -1484 0
-669 -1485 0
-670 -1487 0
-672 -1489 0
-673 -1491 0
-670 -1494 0
-671 -1495 0
-673 -1498 0
-669 -1500 0
-670 -1503 0
-671 -1504 0
-673 -1507 0
-669 -1509 0
-672 -1512 0
-673 -1513 0
-671 -1529 0
-673 -1531 0
-673 -1558 0
-670 -1583 0
-673 -1586 0
-671 -1589 0
-672 -1591 0
-673 -1592 0
-669 -1608 0
-670 -1610 0
-671 -1611 0
-673 -1613 0
-669 -1615 0
-670 -1616 0
-671 -1617 0
-672 -1618 0
-673 -1620 0
-668 -1621 0
-669 -1622 0
-670 -1623 0
-671 -1624 0
-672 -1625 0
-673 -1626 0
-669 -1634 0
-670 -1636 0
-671 -1637 0
-673 -1639 0
-669 -1640 0
-670 -1642 0
-672 -1644 0
-673 -1645 0
-670 -1658 0
-671 -1659 0
-673 -1660 0
-668 -1661 0
-670 -1664 0
-671 -1665 0
-673 -1667 0
-668 -1668 0
-670 -1670 0
-671 -1671 0
-672 -1673 0
-673 -1674 0
-670 -1697 0
-671 -1698 0
-673 -1700 0
-668 -1701 0
-671 -1705 0
-673 -1706 0
-668 -1707 0
-670 -1710 0
-671 -1711 0
-672 -1713 0
-673 -1715 0
-670 -1719 0
-673 -1721 0
-668 -1722 0
-671 -1725 0
-673 -1728 0
-668 -1729 0
-670 -1732 0
-672 -1734 0
-673 -1735 0
-671 -1770 0
-673 -1773 0
-670 -1776 0
-672 -1777 0
-673 -1779 0
-670 -1782 0
-671 -1783 0
-672 -1785 0
-673 -1787 0
-670 -1825 0
-671 -1826 0
-673 -1829 0
-670 -1832 0
-671 -1833 0
-672 -1834 0
-673 -1835 0
-671 -1881 0
-673 -1884 0
-668 -1885 0
-670 -1888 0
-673 -1891 0
-668 -1892 0
-671 -1894 0
-672 -1896 0
-673 -1898 0
-670 -1953 0
-671 -1954 0
-672 -1956 0
-673 -1958 0
-674 -787 0
-677 -789 0
-680 -792 0
-674 -793 0
-678 -796 0
-679 -797 0
-680 -798 0
-674 -806 0
-675 -808 0
-676 -809 0
-677 -811 0
-679 -812 0
-680 -814 0
-674 -822 0
-675 -824 0
-677 -826 0
-678 -827 0
-680 -830 0
-674 -832 0
-675 -834 0
-679 -836 0
-680 -837 0
-675 -846 0
-677 -847 0
-680 -849 0
-675 -852 0
-678 -854 0
-679 -856 0
-680 -858 0
-674 -879 0
-675 -880 0
-677 -882 0
-679 -884 0
-680 -885 0
-675 -886 0
-677 -887 0
-678 -888 0
-679 -889 0
-680 -891 0
-674 -899 0
-676 -901 0
-677 -902 0
-680 -904 0
-674 -906 0
-676 -908 0
-677 -910 0
-678 -911 0
-679 -913 0
-680 -914 0
-677 -953 0
-678 -954 0
-680 -957 0
-674 -987 0
-677 -990 0
-678 -991 0
-680 -993 0
-674 -994 0
-677 -996 0
-678 -997 0
-679 -998 0
-680 -1000 0
-674 -1001 0
-675 -1002 0
-676 -1003 0
-677 -1004 0
-678 -1005 0
-679 -1006 0
-680 -1007 0
-675 -1022 0
-677 -1024 0
-678 -1025 0
-680 -1027 0
-675 -1029 0
-677 -1030 0
-678 -1031 0
-679 -1033 0
-680 -1034 0
-674 -1035 0
-676 -1037 0
-679 -1039 0
-680 -1040 0
-674 -1057 0
-678 -1059 0
-680 -1061 0
-674 -1063 0
-677 -1066 0
-679 -1068 0
-680 -1070 0
-674 -1079 0
-675 -1080 0
-676 -1081 0
-678 -1083 0
-679 -1085 0
-680 -1086 0
-680 -1092 0
-677 -1095 0
-678 -1096 0
-679 -1097 0
-680 -1098 0
-675 -1100 0
-676 -1101 0
-679 -1102 0
-680 -1104 0
-675 -1112 0
-678 -1113 0
-680 -1116 0
-675 -1118 0
-677 -1120 0
-679 -1121 0
-680 -1122 0
-674 -1141 0
-675 -1142 0
-679 -1144 0
-680 -1146 0
-675 -1161 0
-678 -1163 0
-679 -1165 0
-680 -1166 0
-674 -1168 0
-676 -1169 0
-677 -1170 0
-679 -1171 0
-680 -1172 0
-674 -1180 0
-676 -1181 0
-677 -1182 0
-678 -1183 0
-680 -1185 0
-674 -1187 0
-676 -1188 0
-679 -1190 0
-680 -1192 0
-676 -1200 0
-677 -1202 0
-680 -1204 0
-676 -1206 0
-678 -1207 0
-679 -1209 0
-680 -1210 0
-674 -1224 0
-676 -1225 0
-677 -1227 0
-678 -1228 0
-679 -1230 0
-680 -1232 0
-674 -1248 0
-677 -1250 0
-680 -1253 0
-674 -1255 0
-678 -1256 0
-679 -1258 0
-680 -1260 0
-677 -1263 0
-678 -1264 0
-680 -1266 0
-678 -1269 0
-679 -1270 0
-680 -1272 0
-676 -1274 0
-677 -1276 0
-680 -1279 0
-676 -1281 0
-678 -1283 0
-679 -1284 0
-680 -1286 0
-676 -1405 0
-679 -1408 0
-680 -1410 0
-676 -1418 0
-678 -1420 0
-680 -1423 0
-676 -1425 0
-677 -1427 0
-679 -1429 0
-680 -1430 0
-677 -1451 0
-678 -1452 0
-679 -1454 0
-680 -1456 0
-674 -1463 0
-675 -1465 0
-678 -1466 0
-680 -1468 0
-674 -1469 0
-675 -1471 0
-677 -1473 0
-678 -1474 0
-679 -1476 0
-680 -1477 0
-675 -1479 0
-678 -1481 0
-680 -1484 0
-675 -1486 0
-677 -1487 0
-679 -1489 0
-680 -1491 0
-674 -1499 0
-676 -1501 0
-677 -1503 0
-678 -1504 0
-680 -1507 0
-674 -1508 0
-676 -1510 0
-679 -1512 0
-680 -1513 0
-680 -1551 0
-675 -1581 0
-677 -1583 0
-680 -1586 0
-675 -1587 0
-678 -1589 0
-679 -1591 0
-680 -1592 0
-674 -1607 0
-677 -1610 0
-678 -1611 0
-680 -1613 0
-674 -1614 0
-677 -1616 0
-678 -1617 0
-679 -1618 0
-680 -1620 0
-674 -1627 0
-675 -1628 0
-676 -1629 0
-677 -1630 0
-678 -1631 0
-679 -1632 0
-680 -1633 0
-677 -1636 0
-678 -1637 0
-680 -1639 0
-677 -1642 0
-679 -1644 0
-680 -1645 0
-675 -1646 0
-676 -1647 0
-677 -1649 0
-678 -1650 0
-679 -1652 0
-680 -1654 0
-675 -1662 0
-677 -1664 0
-678 -1665 0
-680 -1667 0
-675 -1669 0
-677 -1670 0
-678 -1671 0
-679 -1673 0
-680 -1674 0
-674 -1687 0
-676 -1688 0
-678 -1690 0
-679 -1692 0
-680 -1693 0
-674 -1702 0
-676 -1703 0
-678 -1705 0
-680 -1706 0
-674 -1708 0
-676 -1709 0
-677 -1710 0
-678 -1711 0
-679 -1713 0
-680 -1715 0
-676 -1723 0
-678 -1725 0
-680 -1728 0
-676 -1730 0
-677 -1732 0
-679 -1734 0
-680 -1735 0
-677 -1752 0
-678 -1753 0
-680 -1755 0
-674 -1768 0
-678 -1770 0
-680 -1773 0
-674 -1774 0
-677 -1776 0
-679 -1777 0
-680 -1779 0
-677 -1782 0
-678 -1783 0
-679 -1785 0
-680 -1787 0
-676 -1824 0
-677 -1825 0
-678 -1826 0
-680 -1829 0
-676 -1830 0
-677 -1832 0
-678 -1833 0
-679 -1834 0
-680 -1835 0
-674 -1858 0
-675 -1859 0
-678 -1861 0
-679 -1862 0
-680 -1864 0
-674 -1865 0
-675 -1866 0
-679 -1868 0
-680 -1870 0
-674 -1871 0
-676 -1872 0
-677 -1873 0
-679 -1875 0
-680 -1877 0
-674 -1886 0
-677 -1888 0
-680 -1891 0
-674 -1893 0
-678 -1894 0
-679 -1896 0
-680 -1898 0
-674 -1905 0
-677 -1906 0
-678 -1907 0
-679 -1909 0
-680 -1910 0
-674 -1925 0
-677 -1927 0
-679 -1928 0
-680 -1930 0
-677 -1953 0
-678 -1954 0
-679 -1956 0
-680 -1958 0
-683 -716 0
-685 -720 0
-686 -721 0
-683 -781 0
-685 -785 0
-686 -786 0
-685 -791 0
-686 -792 0
-681 -799 0
-684 -803 0
-685 -804 0
-686 -805 0
-682 -808 0
-683 -809 0
-684 -812 0
-685 -813 0
-686 -814 0
-682 -817 0
-686 -820 0
-681 -831 0
-682 -834 0
-684 -836 0
-686 -837 0
-682 -840 0
-685 -842 0
-686 -843 0
-681 -850 0
-682 -852 0
-684 -856 0
-685 -857 0
-686 -858 0
-682 -866 0
-684 -869 0
-685 -870 0
-686 -871 0
-682 -880 0
-684 -884 0
-686 -885 0
-682 -886 0
-684 -889 0
-685 -890 0
-686 -891 0
-683 -894 0
-686 -897 0
-681 -905 0
-683 -908 0
-684 -913 0
-686 -914 0
-681 -922 0
-685 -927 0
-686 -928 0
-681 -945 0
-686 -950 0
-686 -993 0
-682 -1002 0
-683 -1003 0
-684 -1006 0
-686 -1007 0
-682 -1009 0
-685 -1013 0
-686 -1014 0
-682 -1016 0
-686 -1020 0
-681 -1028 0
-682 -1029 0
-684 -1033 0
-686 -1034 0
-681 -1041 0
-683 -1043 0
-684 -1047 0
-685 -1048 0
-686 -1049 0
-681 -1056 0
-686 -1061 0
-681 -1071 0
-684 -1076 0
-686 -1077 0
-681 -1078 0
-682 -1080 0
-683 -1081 0
-684 -1085 0
-686 -1086 0
-681 -1087 0
-685 -1091 0
-686 -1092 0
-681 -1099 0
-682 -1100 0
-683 -1101 0
-684 -1102 0
-685 -1103 0
-686 -1104 0
-681 -1105 0
-682 -1107 0
-686 -1110 0
-681 -1117 0
-682 -1118 0
-684 -1121 0
-686 -1122 0
-681 -1147 0
-682 -1148 0
-684 -1152 0
-686 -1153 0
-681 -1167 0
-683 -1169 0
-684 -1171 0
-686 -1172 0
-681 -1173 0
-683 -1175 0
-685 -1177 0
-686 -1178 0
-681 -1186 0
-683 -1188 0
-684 -1190 0
-685 -1191 0
-686 -1192 0
-681 -1193 0
-683 -1195 0
-686 -1198 0
-681 -1205 0
-683 -1206 0
-684 -1209 0
-686 -1210 0
-681 -1217 0
-685 -1221 0
-686 -1222 0
-681 -1233 0
-683 -1234 0
-684 -1238 0
-686 -1239 0
-681 -1247 0
-685 -1252 0
-686 -1253 0
-681 -1261 0
-686 -1266 0
-683 -1281 0
-684 -1284 0
-685 -1285 0
-686 -1286 0
-686 -1300 0
-685 -1318 0
-686 -1319 0
-683 -1405 0
-684 -1408 0
-685 -1409 0
-686 -1410 0
-683 -1412 0
-686 -1416 0
-681 -1424 0
-683 -1425 0
-684 -1429 0
-686 -1430 0
-683 -1431 0
-685 -1435 0
-686 -1436 0
-681 -1443 0
-686 -1448 0
-684 -1460 0
-685 -1461 0
-686 -1462 0
-682 -1471 0
-684 -1476 0
-686 -1477 0
-682 -1486 0
-684 -1489 0
-685 -1490 0
-686 -1491 0
-683 -1510 0
-684 -1512 0
-686 -1513 0
-685 -1524 0
-686 -1525 0
-686 -1545 0
-682 -1587 0
-684 -1591 0
-686 -1592 0
-683 -1594 0
-684 -1597 0
-685 -1598 0
-686 -1599 0
-686 -1613 0
-681 -1621 0
-684 -1625 0
-686 -1626 0
-682 -1628 0
-683 -1629 0
-684 -1632 0
-686 -1633 0
-685 -1638 0
-686 -1639 0
-682 -1646 0
-683 -1647 0
-684 -1652 0
-685 -1653 0
-686 -1654 0
-682 -1656 0
-686 -1660 0
-681 -1668 0
-682 -1669 0
-684 -1673 0
-686 -1674 0
-682 -1675 0
-684 -1679 0
-686 -1680 0
-683 -1688 0
-684 -1692 0
-686 -1693 0
-683 -1695 0
-685 -1699 0
-686 -1700 0
-681 -1707 0
-683 -1709 0
-684 -1713 0
-685 -1714 0
-686 -1715 0
-683 -1717 0
-686 -1721 0
-681 -1729 0
-683 -1730 0
-684 -1734 0
-686 -1735 0
-681 -1743 0
-685 -1748 0
-686 -1749 0
-683 -1756 0
-684 -1760 0
-686 -1761 0
-685 -1772 0
-686 -1773 0
-683 -1830 0
-684 -1834 0
-686 -1835 0
-684 -1848 0
-685 -1849 0
-686 -1850 0
-682 -1859 0
-684 -1862 0
-685 -1863 0
-686 -1864 0
-682 -1866 0
-684 -1868 0
-685 -1869 0
-686 -1870 0
-683 -1872 0
-684 -1875 0
-685 -1876 0
-686 -1877 0
-685 -1883 0
-686 -1884 0
-681 -1892 0
-684 -1896 0
-685 -1897 0
-686 -1898 0
-681 -1911 0
-684 -1915 0
-685 -1916 0
-686 -1917 0
-681 -1931 0
-684 -1934 0
-685 -1935 0
-686 -1936 0
-684 -1956 0
-685 -1957 0
-686 -1958 0
-689 -709 0
-691 -710 0
-692 -711 0
-693 -712 0
-694 -713 0
-695 -714 0
-689 -775 0
-690 -776 0
-693 -777 0
-694 -778 0
-695 -780 0
-690 -795 0
-692 -796 0
-694 -797 0
-695 -798 0
-687 -799 0
-690 -801 0
-691 -802 0
-694 -803 0
-695 -805 0
-688 -808 0
-689 -809 0
-690 -810 0
-691 -811 0
-694 -812 0
-695 -814 0
-688 -817 0
-690 -818 0
-693 -819 0
-695 -820 0
-687 -821 0
-688 -824 0
-690 -825 0
-691 -826 0
-692 -827 0
-693 -828 0
-695 -830 0
-688 -840 0
-692 -841 0
-695 -843 0
-687 -844 0
-688 -846 0
-691 -847 0
-695 -849 0
-688 -873 0
-690 -874 0
-691 -875 0
-692 -876 0
-694 -877 0
-695 -878 0
-688 -880 0
-690 -881 0
-691 -882 0
-693 -883 0
-694 -884 0
-695 -885 0
-688 -886 0
-691 -887 0
-692 -888 0
-694 -889 0
-695 -891 0
-689 -894 0
-691 -895 0
-692 -896 0
-695 -897 0
-687 -898 0
-689 -901 0
-691 -902 0
-695 -904 0
-687 -915 0
-691 -918 0
-693 -919 0
-694 -920 0
-695 -921 0
-687 -936 0
-690 -939 0
-691 -940 0
-692 -941 0
-694 -942 0
-695 -944 0
-691 -996 0
-692 -997 0
-694 -998 0
-695 -1000 0
-688 -1002 0
-689 -1003 0
-691 -1004 0
-692 -1005 0
-694 -1006 0
-695 -1007 0
-688 -1009 0
-691 -1010 0
-692 -1011 0
-693 -1012 0
-695 -1014 0
-688 -1016 0
-690 -1017 0
-691 -1018 0
-692 -1019 0
-695 -1020 0
-687 -1021 0
-688 -1022 0
-690 -1023 0
-691 -1024 0
-692 -1025 0
-695 -1027 0
-687 -1050 0
-689 -1052 0
-690 -1053 0
-694 -1054 0
-695 -1055 0
-687 -1062 0
-690 -1065 0
-691 -1066 0
-693 -1067 0
-694 -1068 0
-695 -1070 0
-687 -1071 0
-690 -1073 0
-692 -1074 0
-693 -1075 0
-694 -1076 0
-695 -1077 0
-687 -1078 0
-688 -1080 0
-689 -1081 0
-690 -1082 0
-692 -1083 0
-693 -1084 0
-694 -1085 0
-695 -1086 0
-687 -1093 0
-691 -1095 0
-692 -1096 0
-694 -1097 0
-695 -1098 0
-687 -1099 0
-688 -1100 0
-689 -1101 0
-694 -1102 0
-695 -1104 0
-687 -1105 0
-688 -1107 0
-691 -1108 0
-693 -1109 0
-695 -1110 0
-687 -1111 0
-688 -1112 0
-692 -1113 0
-693 -1114 0
-695 -1116 0
-687 -1154 0
-688 -1155 0
-690 -1156 0
-693 -1157 0
-694 -1158 0
-695 -1160 0
-687 -1167 0
-689 -1169 0
-691 -1170 0
-694 -1171 0
-695 -1172 0
-687 -1173 0
-689 -1175 0
-693 -1176 0
-695 -1178 0
-687 -1179 0
-689 -1181 0
-691 -1182 0
-692 -1183 0
-693 -1184 0
-695 -1185 0
-687 -1193 0
-689 -1195 0
-690 -1196 0
-692 -1197 0
-695 -1198 0
-687 -1199 0
-689 -1200 0
-690 -1201 0
-691 -1202 0
-695 -1204 0
-687 -1211 0
-690 -1213 0
-693 -1214 0
-694 -1215 0
-695 -1216 0
-687 -1240 0
-689 -1241 0
-691 -1242 0
-692 -1243 0
-694 -1244 0
-695 -1246 0
-687 -1254 0
-692 -1256 0
-693 -1257 0
-694 -1258 0
-695 -1260 0
-687 -1267 0
-690 -1268 0
-692 -1269 0
-694 -1270 0
-695 -1272 0
-689 -1274 0
-690 -1275 0
-691 -1276 0
-693 -1277 0
-695 -1279 0
-690 -1289 0
-693 -1290 0
-694 -1291 0
-695 -1293 0
-692 -1309 0
-693 -1310 0
-694 -1311 0
-695 -1313 0
-690 -1397 0
-691 -1398 0
-692 -1399 0
-693 -1400 0
-694 -1401 0
-695 -1403 0
-689 -1405 0
-690 -1406 0
-693 -1407 0
-694 -1408 0
-695 -1410 0
-689 -1412 0
-690 -1413 0
-691 -1414 0
-693 -1415 0
-695 -1416 0
-687 -1417 0
-689 -1418 0
-690 -1419 0
-692 -1420 0
-693 -1421 0
-695 -1423 0
-689 -1431 0
-691 -1432 0
-692 -1433 0
-693 -1434 0
-695 -1436 0
-687 -1437 0
-691 -1438 0
-693 -1439 0
-694 -1440 0
-695 -1442 0
-690 -1450 0
-691 -1451 0
-692 -1452 0
-693 -1453 0
-694 -1454 0
-695 -1456 0
-692 -1458 0
-693 -1459 0
-694 -1460 0
-695 -1462 0
-688 -1465 0
-692 -1466 0
-695 -1468 0
-688 -1479 0
-690 -1480 0
-692 -1481 0
-693 -1482 0
-695 -1484 0
-689 -1501 0
-690 -1502 0
-691 -1503 0
-692 -1504 0
-693 -1505 0
-695 -1507 0
-690 -1516 0
-692 -1517 0
-694 -1518 0
-695 -1519 0
-690 -1534 0
-693 -1535 0
-694 -1536 0
-695 -1538 0
-688 -1581 0
-690 -1582 0
-691 -1583 0
-693 -1584 0
-695 -1586 0
-689 -1601 0
-691 -1602 0
-692 -1603 0
-693 -1604 0
-694 -1605 0
-695 -1606 0
-691 -1616 0
-692 -1617 0
-694 -1618 0
-695 -1620 0
-687 -1621 0
-691 -1623 0
-692 -1624 0
-694 -1625 0
-695 -1626 0
-688 -1628 0
-689 -1629 0
-691 -1630 0
-692 -1631 0
-694 -1632 0
-695 -1633 0
-690 -1641 0
-691 -1642 0
-693 -1643 0
-694 -1644 0
-695 -1645 0
-688 -1646 0
-689 -1647 0
-690 -1648 0
-691 -1649 0
-692 -1650 0
-693 -1651 0
-694 -1652 0
-695 -1654 0
-688 -1656 0
-690 -1657 0
-691 -1658 0
-692 -1659 0
-695 -1660 0
-687 -1661 0
-688 -1662 0
-690 -1663 0
-691 -1664 0
-692 -1665 0
-695 -1667 0
-688 -1681 0
-691 -1682 0
-692 -1683 0
-694 -1684 0
-695 -1686 0
-689 -1688 0
-690 -1689 0
-692 -1690 0
-693 -1691 0
-694 -1692 0
-695 -1693 0
-689 -1695 0
-690 -1696 0
-691 -1697 0
-692 -1698 0
-695 -1700 0
-687 -1701 0
-689 -1703 0
-690 -1704 0
-692 -1705 0
-695 -1706 0
-689 -1717 0
-690 -1718 0
-691 -1719 0
-693 -1720 0
-695 -1721 0
-687 -1722 0
-689 -1723 0
-690 -1724 0
-692 -1725 0
-693 -1726 0
-695 -1728 0
-687 -1736 0
-690 -1738 0
-691 -1739 0
-692 -1740 0
-694 -1741 0
-695 -1742 0
-689 -1762 0
-690 -1763 0
-693 -1764 0
-694 -1765 0
-695 -1767 0
-690 -1775 0
-691 -1776 0
-694 -1777 0
-695 -1779 0
-690 -1781 0
-691 -1782 0
-692 -1783 0
-693 -1784 0
-694 -1785 0
-695 -1787 0
-689 -1824 0
-691 -1825 0
-692 -1826 0
-693 -1827 0
-695 -1829 0
-690 -1836 0
-691 -1837 0
-692 -1838 0
-693 -1839 0
-694 -1840 0
-695 -1842 0
-690 -1853 0
-693 -1854 0
-694 -1855 0
-695 -1857 0
-688 -1859 0
-690 -1860 0
-692 -1861 0
-694 -1862 0
-695 -1864 0
-688 -1866 0
-693 -1867 0
-694 -1868 0
-695 -1870 0
-689 -1872 0
-691 -1873 0
-693 -1874 0
-694 -1875 0
-695 -1877 0
-690 -1880 0
-692 -1881 0
-693 -1882 0
-695 -1884 0
-687 -1885 0
-690 -1887 0
-691 -1888 0
-693 -1889 0
-695 -1891 0
-687 -1918 0
-690 -1920 0
-691 -1921 0
-692 -1922 0
-694 -1923 0
-695 -1924 0
-687 -1937 0
-691 -1938 0
-693 -1939 0
-694 -1940 0
-695 -1942 0
-697 -717 0
-699 -719 0
-701 -721 0
-696 -722 0
-697 -724 0
-698 -726 0
-699 -727 0
-701 -728 0
-697 -751 0
-701 -754 0
-699 -790 0
-701 -792 0
-696 -817 0
-697 -818 0
-699 -819 0
-701 -820 0
-696 -824 0
-697 -825 0
-698 -827 0
-699 -828 0
-701 -830 0
-696 -840 0
-698 -841 0
-701 -843 0
-696 -846 0
-701 -849 0
-696 -861 0
-697 -862 0
-701 -864 0
-696 -866 0
-699 -868 0
-700 -869 0
-701 -871 0
-696 -880 0
-697 -881 0
-699 -883 0
-700 -884 0
-701 -885 0
-696 -886 0
-698 -888 0
-700 -889 0
-701 -891 0
-698 -896 0
-701 -897 0
-701 -904 0
-697 -925 0
-698 -926 0
-701 -928 0
-696 -931 0
-697 -933 0
-701 -935 0
-698 -948 0
-699 -949 0
-701 -950 0
-698 -954 0
-699 -955 0
-701 -957 0
-696 -960 0
-698 -963 0
-699 -964 0
-701 -966 0
-696 -982 0
-697 -983 0
-698 -984 0
-699 -985 0
-701 -986 0
-698 -997 0
-700 -998 0
-701 -1000 0
-696 -1002 0
-698 -1005 0
-700 -1006 0
-701 -1007 0
-696 -1029 0
-698 -1031 0
-699 -1032 0
-700 -1033 0
-701 -1034 0
-698 -1059 0
-699 -1060 0
-701 -1061 0
-697 -1089 0
-699 -1090 0
-701 -1092 0
-696 -1107 0
-699 -1109 0
-701 -1110 0
-696 -1112 0
-698 -1113 0
-699 -1114 0
-701 -1116 0
-697 -1124 0
-699 -1126 0
-700 -1127 0
-701 -1128 0
-696 -1142 0
-699 -1143 0
-700 -1144 0
-701 -1146 0
-696 -1148 0
-698 -1150 0
-699 -1151 0
-700 -1152 0
-701 -1153 0
-696 -1161 0
-697 -1162 0
-698 -1163 0
-699 -1164 0
-700 -1165 0
-701 -1166 0
-699 -1176 0
-701 -1178 0
-698 -1183 0
-699 -1184 0
-701 -1185 0
-697 -1196 0
-698 -1197 0
-701 -1198 0
-697 -1201 0
-701 -1204 0
-698 -1220 0
-701 -1222 0
-697 -1226 0
-698 -1228 0
-699 -1229 0
-700 -1230 0
-701 -1232 0
-697 -1235 0
-699 -1237 0
-700 -1238 0
-701 -1239 0
-698 -1256 0
-699 -1257 0
-700 -1258 0
-701 -1260 0
-697 -1268 0
-698 -1269 0
-700 -1270 0
-701 -1272 0
-697 -1275 0
-699 -1277 0
-701 -1279 0
-697 -1296 0
-698 -1298 0
-699 -1299 0
-701 -1300 0
-696 -1302 0
-697 -1304 0
-699 -1305 0
-701 -1307 0
-697 -1315 0
-698 -1317 0
-701 -1319 0
-696 -1320 0
-697 -1322 0
-698 -1323 0
-701 -1325 0
-696 -1343 0
-697 -1344 0
-698 -1346 0
-701 -1348 0
-697 -1351 0
-698 -1353 0
-701 -1355 0
-697 -1378 0
-698 -1379 0
-699 -1380 0
-701 -1382 0
-697 -1413 0
-699 -1415 0
-701 -1416 0
-697 -1419 0
-698 -1420 0
-699 -1421 0
-701 -1423 0
-698 -1433 0
-699 -1434 0
-701 -1436 0
-697 -1444 0
-698 -1446 0
-699 -1447 0
-701 -1448 0
-697 -1450 0
-698 -1452 0
-699 -1453 0
-700 -1454 0
-701 -1456 0
-696 -1465 0
-698 -1466 0
-701 -1468 0
-696 -1479 0
-697 -1480 0
-698 -1481 0
-699 -1482 0
-701 -1484 0
-696 -1493 0
-698 -1495 0
-699 -1496 0
-701 -1498 0
-697 -1502 0
-698 -1504 0
-699 -1505 0
-701 -1507 0
-699 -1523 0
-701 -1525 0
-696 -1527 0
-698 -1529 0
-699 -1530 0
-701 -1531 0
-697 -1541 0
-698 -1543 0
-699 -1544 0
-701 -1545 0
-697 -1548 0
-699 -1549 0
-701 -1551 0
-696 -1553 0
-697 -1555 0
-699 -1556 0
-701 -1558 0
-696 -1577 0
-699 -1579 0
-701 -1580 0
-696 -1587 0
-697 -1588 0
-698 -1589 0
-699 -1590 0
-700 -1591 0
-701 -1592 0
-697 -1609 0
-698 -1611 0
-699 -1612 0
-701 -1613 0
-697 -1635 0
-698 -1637 0
-701 -1639 0
-696 -1656 0
-697 -1657 0
-698 -1659 0
-701 -1660 0
-696 -1662 0
-697 -1663 0
-698 -1665 0
-701 -1667 0
-696 -1675 0
-697 -1676 0
-698 -1677 0
-699 -1678 0
-700 -1679 0
-701 -1680 0
-697 -1696 0
-698 -1698 0
-701 -1700 0
-697 -1704 0
-698 -1705 0
-701 -1706 0
-697 -1718 0
-699 -1720 0
-701 -1721 0
-697 -1724 0
-698 -1725 0
-699 -1726 0
-701 -1728 0
-697 -1745 0
-699 -1747 0
-701 -1749 0
-697 -1751 0
-698 -1753 0
-699 -1754 0
-701 -1755 0
-697 -1757 0
-698 -1759 0
-700 -1760 0
-701 -1761 0
-697 -1775 0
-700 -1777 0
-701 -1779 0
-697 -1781 0
-698 -1783 0
-699 -1784 0
-700 -1785 0
-701 -1787 0
-696 -1794 0
-697 -1795 0
-699 -1797 0
-701 -1799 0
-698 -1808 0
-699 -1809 0
-701 -1811 0
-698 -1826 0
-699 -1827 0
-701 -1829 0
-697 -1880 0
-698 -1881 0
-699 -1882 0
-701 -1884 0
-697 -1887 0
-699 -1889 0
-701 -1891 0
-703 -710 0
-704 -711 0
-705 -713 0
-707 -714 0
-702 -722 0
-703 -725 0
-704 -726 0
-707 -728 0
-704 -745 0
-705 -747 0
-707 -748 0
-704 -796 0
-705 -797 0
-707 -798 0
-702 -817 0
-707 -820 0
-702 -834 0
-705 -836 0
-707 -837 0
-702 -840 0
-704 -841 0
-706 -842 0
-707 -843 0
-702 -852 0
-704 -854 0
-705 -856 0
-706 -857 0
-707 -858 0
-702 -861 0
-706 -863 0
-707 -864 0
-702 -873 0
-703 -875 0
-704 -876 0
-705 -877 0
-707 -878 0
-702 -880 0
-703 -882 0
-705 -884 0
-707 -885 0
-702 -886 0
-703 -887 0
-704 -888 0
-705 -889 0
-706 -890 0
-707 -891 0
-703 -895 0
-704 -896 0
-707 -897 0
-703 -910 0
-704 -911 0
-705 -913 0
-707 -914 0
-703 -918 0
-705 -920 0
-707 -921 0
-702 -931 0
-703 -934 0
-707 -935 0
-703 -940 0
-704 -941 0
-705 -942 0
-706 -943 0
-707 -944 0
-703 -953 0
-704 -954 0
-706 -956 0
-707 -957 0
-702 -960 0
-703 -962 0
-704 -963 0
-706 -965 0
-707 -966 0
-702 -975 0
-703 -976 0
-705 -977 0
-706 -978 0
-707 -979 0
-703 -990 0
-704 -991 0
-707 -993 0
-702 -1002 0
-703 -1004 0
-704 -1005 0
-705 -1006 0
-707 -1007 0
-702 -1022 0
-703 -1024 0
-704 -1025 0
-706 -1026 0
-707 -1027 0
-703 -1066 0
-705 -1068 0
-706 -1069 0
-707 -1070 0
-703 -1095 0
-704 -1096 0
-705 -1097 0
-707 -1098 0
-702 -1107 0
-703 -1108 0
-707 -1110 0
-702 -1118 0
-703 -1120 0
-705 -1121 0
-707 -1122 0
-704 -1130 0
-705 -1132 0
-706 -1133 0
-707 -1134 0
-702 -1142 0
-705 -1144 0
-706 -1145 0
-707 -1146 0
-702 -1155 0
-705 -1158 0
-706 -1159 0
-707 -1160 0
-702 -1161 0
-704 -1163 0
-705 -1165 0
-707 -1166 0
-706 -1177 0
-707 -1178 0
-705 -1190 0
-706 -1191 0
-707 -1192 0
-704 -1197 0
-707 -1198 0
-704 -1207 0
-705 -1209 0
-707 -1210 0
-705 -1215 0
-707 -1216 0
-703 -1227 0
-704 -1228 0
-705 -1230 0
-706 -1231 0
-707 -1232 0
-703 -1242 0
-704 -1243 0
-705 -1244 0
-706 -1245 0
-707 -1246 0
-703 -1250 0
-706 -1252 0
-707 -1253 0
-703 -1263 0
-704 -1264 0
-707 -1266 0
-704 -1283 0
-705 -1284 0
-706 -1285 0
-707 -1286 0
-705 -1291 0
-706 -1292 0
-707 -1293 0
-702 -1302 0
-706 -1306 0
-707 -1307 0
-704 -1309 0
-705 -1311 0
-706 -1312 0
-707 -1313 0
-702 -1320 0
-704 -1323 0
-706 -1324 0
-707 -1325 0
-702 -1336 0
-705 -1339 0
-706 -1340 0
-707 -1341 0
-703 -1352 0
-704 -1353 0
-706 -1354 0
-707 -1355 0
-703 -1371 0
-704 -1372 0
-705 -1373 0
-706 -1374 0
-707 -1375 0
-703 -1414 0
-707 -1416 0
-703 -1427 0
-705 -1429 0
-707 -1430 0
-703 -1432 0
-704 -1433 0
-706 -1435 0
-707 -1436 0
-703 -1438 0
-705 -1440 0
-706 -1441 0
-707 -1442 0
-702 -1471 0
-703 -1473 0
-704 -1474 0
-705 -1476 0
-707 -1477 0
-702 -1486 0
-703 -1487 0
-705 -1489 0
-706 -1490 0
-707 -1491 0
-702 -1493 0
-703 -1494 0
-704 -1495 0
-706 -1497 0
-707 -1498 0
-705 -1512 0
-707 -1513 0
-704 -1517 0
-705 -1518 0
-707 -1519 0
-702 -1527 0
-704 -1529 0
-707 -1531 0
-705 -1536 0
-706 -1537 0
-707 -1538 0
-706 -1550 0
-707 -1551 0
-702 -1553 0
-706 -1557 0
-707 -1558 0
-702 -1568 0
-704 -1570 0
-705 -1572 0
-706 -1573 0
-707 -1574 0
-702 -1581 0
-703 -1583 0
-706 -1585 0
-707 -1586 0
-703 -1616 0
-704 -1617 0
-705 -1618 0
-706 -1619 0
-707 -1620 0
-703 -1642 0
-705 -1644 0
-707 -1645 0
-702 -1656 0
-703 -1658 0
-704 -1659 0
-707 -1660 0
-702 -1669 0
-703 -1670 0
-704 -1671 0
-705 -1673 0
-707 -1674 0
-702 -1681 0
-703 -1682 0
-704 -1683 0
-705 -1684 0
-706 -1685 0
-707 -1686 0
-703 -1697 0
-704 -1698 0
-706 -1699 0
-707 -1700 0
-703 -1710 0
-704 -1711 0
-705 -1713 0
-706 -1714 0
-707 -1715 0
-703 -1719 0
-707 -1721 0
-703 -1732 0
-705 -1734 0
-707 -1735 0
-703 -1739 0
-704 -1740 0
-705 -1741 0
-707 -1742 0
-703 -1752 0
-704 -1753 0
-707 -1755 0
-705 -1765 0
-706 -1766 0
-707 -1767 0
-704 -1770 0
-706 -1772 0
-707 -1773 0
-702 -1788 0
-703 -1789 0
-704 -1790 0
-705 -1791 0
-706 -1792 0
-707 -1793 0
-705 -1803 0
-706 -1804 0
-707 -1805 0
-703 -1832 0
-704 -1833 0
-705 -1834 0
-707 -1835 0
-703 -1837 0
-704 -1838 0
-705 -1840 0
-706 -1841 0
-707 -1842 0
-704 -1881 0
-706 -1883 0
-707 -1884 0
-704 -1894 0
-705 -1896 0
-706 -1897 0
-707 -1898 0
-703 -1953 0
-704 -1954 0
-705 -1956 0
-706 -1957 0
-707 -1958 0
-708 -794 0
-711 -796 0
-713 -797 0
-714 -798 0
-708 -800 0
-710 -802 0
-713 -803 0
-714 -805 0
-708 -807 0
-709 -809 0
-710 -811 0
-713 -812 0
-714 -814 0
-708 -833 0
-713 -836 0
-714 -837 0
-708 -839 0
-711 -841 0
-714 -843 0
-708 -845 0
-710 -847 0
-714 -849 0
-714 -864 0
-708 -865 0
-710 -867 0
-712 -868 0
-713 -869 0
-714 -871 0
-710 -882 0
-712 -883 0
-713 -884 0
-714 -885 0
-708 -893 0
-709 -894 0
-710 -895 0
-711 -896 0
-714 -897 0
-708 -900 0
-709 -901 0
-710 -902 0
-714 -904 0
-708 -924 0
-711 -926 0
-714 -928 0
-709 -932 0
-710 -934 0
-714 -935 0
-708 -938 0
-710 -940 0
-711 -941 0
-713 -942 0
-714 -944 0
-711 -970 0
-713 -971 0
-714 -972 0
-710 -976 0
-713 -977 0
-714 -979 0
-708 -988 0
-710 -990 0
-711 -991 0
-712 -992 0
-714 -993 0
-710 -1010 0
-711 -1011 0
-712 -1012 0
-714 -1014 0
-708 -1051 0
-709 -1052 0
-713 -1054 0
-714 -1055 0
-708 -1094 0
-710 -1095 0
-711 -1096 0
-713 -1097 0
-714 -1098 0
-709 -1101 0
-713 -1102 0
-714 -1104 0
-710 -1120 0
-713 -1121 0
-714 -1122 0
-708 -1129 0
-711 -1130 0
-712 -1131 0
-713 -1132 0
-714 -1134 0
-709 -1136 0
-710 -1137 0
-712 -1138 0
-713 -1139 0
-714 -1140 0
-712 -1157 0
-713 -1158 0
-714 -1160 0
-711 -1163 0
-712 -1164 0
-713 -1165 0
-714 -1166 0
-709 -1169 0
-710 -1170 0
-713 -1171 0
-714 -1172 0
-709 -1188 0
-713 -1190 0
-714 -1192 0
-709 -1195 0
-711 -1197 0
-714 -1198 0
-709 -1200 0
-710 -1202 0
-714 -1204 0
-710 -1219 0
-711 -1220 0
-714 -1222 0
-709 -1225 0
-710 -1227 0
-711 -1228 0
-712 -1229 0
-713 -1230 0
-714 -1232 0
-709 -1234 0
-710 -1236 0
-712 -1237 0
-713 -1238 0
-714 -1239 0
-711 -1256 0
-712 -1257 0
-713 -1258 0
-714 -1260 0
-710 -1263 0
-711 -1264 0
-712 -1265 0
-714 -1266 0
-708 -1280 0
-709 -1281 0
-711 -1283 0
-713 -1284 0
-714 -1286 0
-708 -1314 0
-710 -1316 0
-711 -1317 0
-714 -1319 0
-709 -1321 0
-711 -1323 0
-714 -1325 0
-710 -1345 0
-711 -1346 0
-714 -1348 0
-709 -1350 0
-710 -1352 0
-711 -1353 0
-714 -1355 0
-709 -1364 0
-711 -1365 0
-713 -1366 0
-714 -1368 0
-709 -1370 0
-710 -1371 0
-711 -1372 0
-713 -1373 0
-714 -1375 0
-710 -1393 0
-711 -1394 0
-713 -1395 0
-714 -1396 0
-710 -1398 0
-711 -1399 0
-712 -1400 0
-713 -1401 0
-714 -1403 0
-708 -1457 0
-711 -1458 0
-712 -1459 0
-713 -1460 0
-714 -1462 0
-708 -1470 0
-710 -1473 0
-711 -1474 0
-712 -1475 0
-713 -1476 0
-714 -1477 0
-708 -1478 0
-711 -1481 0
-712 -1482 0
-714 -1484 0
-710 -1494 0
-711 -1495 0
-712 -1496 0
-714 -1498 0
-708 -1500 0
-709 -1501 0
-710 -1503 0
-711 -1504 0
-712 -1505 0
-714 -1507 0
-708 -1521 0
-710 -1522 0
-712 -1523 0
-714 -1525 0
-709 -1528 0
-711 -1529 0
-712 -1530 0
-714 -1531 0
-708 -1533 0
-712 -1535 0
-713 -1536 0
-714 -1538 0
-710 -1562 0
-712 -1563 0
-713 -1564 0
-714 -1565 0
-711 -1570 0
-712 -1571 0
-713 -1572 0
-714 -1574 0
-708 -1600 0
-709 -1601 0
-710 -1602 0
-711 -1603 0
-712 -1604 0
-713 -1605 0
-714 -1606 0
-708 -1640 0
-710 -1642 0
-712 -1643 0
-713 -1644 0
-714 -1645 0
-709 -1647 0
-710 -1649 0
-711 -1650 0
-712 -1651 0
-713 -1652 0
-714 -1654 0
-710 -1670 0
-711 -1671 0
-712 -1672 0
-713 -1673 0
-714 -1674 0
-710 -1682 0
-711 -1683 0
-713 -1684 0
-714 -1686 0
-709 -1688 0
-711 -1690 0
-712 -1691 0
-713 -1692 0
-714 -1693 0
-709 -1709 0
-710 -1710 0
-711 -1711 0
-712 -1712 0
-713 -1713 0
-714 -1715 0
-709 -1717 0
-710 -1719 0
-712 -1720 0
-714 -1721 0
-709 -1723 0
-711 -1725 0
-712 -1726 0
-714 -1728 0
-710 -1746 0
-712 -1747 0
-714 -1749 0
-710 -1752 0
-711 -1753 0
-712 -1754 0
-714 -1755 0
-709 -1756 0
-710 -1758 0
-711 -1759 0
-713 -1760 0
-714 -1761 0
-710 -1776 0
-713 -1777 0
-714 -1779 0
-710 -1796 0
-712 -1797 0
-714 -1799 0
-709 -1800 0
-712 -1802 0
-713 -1803 0
-714 -1805 0
-710 -1819 0
-711 -1820 0
-712 -1821 0
-713 -1822 0
-714 -1823 0
-708 -1845 0
-710 -1846 0
-711 -1847 0
-713 -1848 0
-714 -1850 0
-711 -1861 0
-713 -1862 0
-714 -1864 0
-709 -1900 0
-711 -1901 0
-713 -1902 0
-714 -1904 0
-710 -1921 0
-711 -1922 0
-713 -1923 0
-714 -1924 0
-710 -1927 0
-713 -1928 0
-714 -1930 0
-711 -1933 0
-713 -1934 0
-714 -1936 0
-710 -1944 0
-711 -1945 0
-712 -1946 0
-713 -1947 0
-714 -1949 0
-715 -788 0
-718 -789 0
-719 -790 0
-720 -791 0
-721 -792 0
-715 -800 0
-717 -801 0
-718 -802 0
-720 -804 0
-721 -805 0
-715 -807 0
-716 -809 0
-717 -810 0
-718 -811 0
-720 -813 0
-721 -814 0
-715 -823 0
-717 -825 0
-718 -826 0
-719 -828 0
-720 -829 0
-721 -830 0
-715 -839 0
-720 -842 0
-721 -843 0
-715 -851 0
-717 -853 0
-719 -855 0
-720 -857 0
-721 -858 0
-717 -862 0
-720 -863 0
-721 -864 0
-715 -872 0
-717 -874 0
-718 -875 0
-721 -878 0
-717 -881 0
-718 -882 0
-719 -883 0
-721 -885 0
-715 -893 0
-716 -894 0
-718 -895 0
-721 -897 0
-715 -907 0
-716 -908 0
-717 -909 0
-718 -910 0
-719 -912 0
-721 -914 0
-715 -917 0
-718 -918 0
-719 -919 0
-721 -921 0
-716 -932 0
-717 -933 0
-718 -934 0
-721 -935 0
-715 -947 0
-719 -949 0
-721 -950 0
-721 -972 0
-717 -983 0
-719 -985 0
-721 -986 0
-715 -995 0
-718 -996 0
-720 -999 0
-721 -1000 0
-718 -1010 0
-719 -1012 0
-720 -1013 0
-721 -1014 0
-715 -1042 0
-716 -1043 0
-718 -1044 0
-719 -1046 0
-720 -1048 0
-721 -1049 0
-715 -1088 0
-717 -1089 0
-719 -1090 0
-720 -1091 0
-721 -1092 0
-716 -1101 0
-720 -1103 0
-721 -1104 0
-719 -1114 0
-720 -1115 0
-721 -1116 0
-715 -1123 0
-717 -1124 0
-718 -1125 0
-719 -1126 0
-721 -1128 0
-716 -1136 0
-718 -1137 0
-719 -1138 0
-721 -1140 0
-718 -1149 0
-719 -1151 0
-721 -1153 0
-717 -1162 0
-719 -1164 0
-721 -1166 0
-716 -1169 0
-718 -1170 0
-721 -1172 0
-716 -1181 0
-718 -1182 0
-719 -1184 0
-721 -1185 0
-716 -1195 0
-717 -1196 0
-721 -1198 0
-716 -1206 0
-719 -1208 0
-721 -1210 0
-717 -1213 0
-719 -1214 0
-721 -1216 0
-716 -1225 0
-717 -1226 0
-718 -1227 0
-719 -1229 0
-720 -1231 0
-721 -1232 0
-716 -1241 0
-718 -1242 0
-720 -1245 0
-721 -1246 0
-717 -1249 0
-718 -1250 0
-719 -1251 0
-720 -1252 0
-721 -1253 0
-717 -1268 0
-720 -1271 0
-721 -1272 0
-715 -1273 0
-716 -1274 0
-717 -1275 0
-718 -1276 0
-719 -1277 0
-720 -1278 0
-721 -1279 0
-715 -1308 0
-719 -1310 0
-720 -1312 0
-721 -1313 0
-716 -1321 0
-717 -1322 0
-720 -1324 0
-721 -1325 0
-717 -1337 0
-719 -1338 0
-720 -1340 0
-721 -1341 0
-716 -1350 0
-717 -1351 0
-718 -1352 0
-720 -1354 0
-721 -1355 0
-716 -1364 0
-720 -1367 0
-721 -1368 0
-716 -1377 0
-717 -1378 0
-719 -1380 0
-720 -1381 0
-721 -1382 0
-719 -1386 0
-720 -1388 0
-721 -1389 0
-715 -1457 0
-719 -1459 0
-720 -1461 0
-721 -1462 0
-715 -1464 0
-720 -1467 0
-721 -1468 0
-715 -1485 0
-718 -1487 0
-719 -1488 0
-720 -1490 0
-721 -1491 0
-718 -1494 0
-719 -1496 0
-720 -1497 0
-721 -1498 0
-715 -1509 0
-716 -1510 0
-719 -1511 0
-721 -1513 0
-715 -1515 0
-717 -1516 0
-721 -1519 0
-716 -1528 0
-719 -1530 0
-721 -1531 0
-715 -1540 0
-717 -1541 0
-718 -1542 0
-719 -1544 0
-721 -1545 0
-717 -1561 0
-718 -1562 0
-719 -1563 0
-721 -1565 0
-718 -1578 0
-719 -1579 0
-721 -1580 0
-715 -1593 0
-716 -1594 0
-717 -1595 0
-720 -1598 0
-721 -1599 0
-715 -1634 0
-717 -1635 0
-718 -1636 0
-720 -1638 0
-721 -1639 0
-716 -1647 0
-717 -1648 0
-718 -1649 0
-719 -1651 0
-720 -1653 0
-721 -1654 0
-717 -1663 0
-718 -1664 0
-720 -1666 0
-721 -1667 0
-717 -1676 0
-719 -1678 0
-721 -1680 0
-716 -1688 0
-717 -1689 0
-719 -1691 0
-721 -1693 0
-716 -1703 0
-717 -1704 0
-721 -1706 0
-716 -1717 0
-717 -1718 0
-718 -1719 0
-719 -1720 0
-721 -1721 0
-716 -1730 0
-717 -1731 0
-718 -1732 0
-719 -1733 0
-721 -1735 0
-717 -1738 0
-718 -1739 0
-721 -1742 0
-717 -1751 0
-718 -1752 0
-719 -1754 0
-721 -1755 0
-716 -1762 0
-717 -1763 0
-719 -1764 0
-720 -1766 0
-721 -1767 0
-717 -1769 0
-719 -1771 0
-720 -1772 0
-721 -1773 0
-717 -1781 0
-718 -1782 0
-719 -1784 0
-720 -1786 0
-721 -1787 0
-718 -1789 0
-720 -1792 0
-721 -1793 0
-716 -1806 0
-718 -1807 0
-719 -1809 0
-720 -1810 0
-721 -1811 0
-717 -1813 0
-718 -1814 0
-720 -1816 0
-721 -1817 0
-715 -1852 0
-717 -1853 0
-719 -1854 0
-720 -1856 0
-721 -1857 0
-717 -1860 0
-720 -1863 0
-721 -1864 0
-716 -1900 0
-720 -1903 0
-721 -1904 0
-719 -1914 0
-720 -1916 0
-721 -1917 0
-717 -1926 0
-718 -1927 0
-720 -1929 0
-721 -1930 0
-718 -1938 0
-719 -1939 0
-720 -1941 0
-721 -1942 0
-717 -1952 0
-718 -1953 0
-719 -1955 0
-720 -1957 0
-721 -1958 0
-725 -789 0
-727 -790 0
-728 -792 0
-724 -795 0
-726 -796 0
-728 -798 0
-724 -801 0
-725 -802 0
-728 -805 0
-722 -840 0
-726 -841 0
-728 -843 0
-722 -846 0
-725 -847 0
-728 -849 0
-722 -852 0
-724 -853 0
-726 -854 0
-727 -855 0
-728 -858 0
-722 -866 0
-725 -867 0
-727 -868 0
-728 -871 0
-722 -873 0
-724 -874 0
-725 -875 0
-726 -876 0
-728 -878 0
-722 -886 0
-725 -887 0
-726 -888 0
-728 -891 0
-723 -894 0
-725 -895 0
-726 -896 0
-728 -897 0
-723 -901 0
-725 -902 0
-728 -904 0
-723 -908 0
-724 -909 0
-725 -910 0
-726 -911 0
-727 -912 0
-728 -914 0
-725 -918 0
-727 -919 0
-728 -921 0
-724 -925 0
-726 -926 0
-728 -928 0
-722 -960 0
-723 -961 0
-725 -962 0
-726 -963 0
-727 -964 0
-728 -966 0
-722 -969 0
-726 -970 0
-728 -972 0
-722 -975 0
-725 -976 0
-728 -979 0
-722 -982 0
-724 -983 0
-726 -984 0
-727 -985 0
-728 -986 0
-722 -1002 0
-723 -1003 0
-725 -1004 0
-726 -1005 0
-728 -1007 0
-722 -1009 0
-725 -1010 0
-726 -1011 0
-727 -1012 0
-728 -1014 0
-724 -1089 0
-727 -1090 0
-728 -1092 0
-725 -1095 0
-726 -1096 0
-728 -1098 0
-724 -1124 0
-725 -1125 0
-727 -1126 0
-728 -1128 0
-726 -1130 0
-727 -1131 0
-728 -1134 0
-722 -1161 0
-724 -1162 0
-726 -1163 0
-727 -1164 0
-728 -1166 0
-723 -1195 0
-724 -1196 0
-726 -1197 0
-728 -1198 0
-723 -1200 0
-724 -1201 0
-725 -1202 0
-728 -1204 0
-723 -1206 0
-726 -1207 0
-727 -1208 0
-728 -1210 0
-724 -1213 0
-727 -1214 0
-728 -1216 0
-725 -1219 0
-726 -1220 0
-728 -1222 0
-723 -1225 0
-724 -1226 0
-725 -1227 0
-726 -1228 0
-727 -1229 0
-728 -1232 0
-723 -1234 0
-724 -1235 0
-725 -1236 0
-727 -1237 0
-728 -1239 0
-723 -1241 0
-725 -1242 0
-726 -1243 0
-728 -1246 0
-724 -1249 0
-725 -1250 0
-727 -1251 0
-728 -1253 0
-726 -1256 0
-727 -1257 0
-728 -1260 0
-726 -1309 0
-727 -1310 0
-728 -1313 0
-724 -1315 0
-725 -1316 0
-726 -1317 0
-728 -1319 0
-723 -1364 0
-726 -1365 0
-728 -1368 0
-723 -1370 0
-725 -1371 0
-726 -1372 0
-728 -1375 0
-723 -1377 0
-724 -1378 0
-726 -1379 0
-727 -1380 0
-728 -1382 0
-726 -1385 0
-727 -1386 0
-728 -1389 0
-724 -1392 0
-725 -1393 0
-726 -1394 0
-728 -1396 0
-726 -1458 0
-727 -1459 0
-728 -1462 0
-722 -1479 0
-724 -1480 0
-726 -1481 0
-727 -1482 0
-728 -1484 0
-722 -1486 0
-725 -1487 0
-727 -1488 0
-728 -1491 0
-723 -1501 0
-724 -1502 0
-725 -1503 0
-726 -1504 0
-727 -1505 0
-728 -1507 0
-723 -1510 0
-727 -1511 0
-728 -1513 0
-724 -1516 0
-726 -1517 0
-728 -1519 0
-725 -1522 0
-727 -1523 0
-728 -1525 0
-722 -1553 0
-723 -1554 0
-724 -1555 0
-727 -1556 0
-728 -1558 0
-722 -1560 0
-724 -1561 0
-725 -1562 0
-727 -1563 0
-728 -1565 0
-722 -1568 0
-724 -1569 0
-726 -1570 0
-727 -1571 0
-728 -1574 0
-722 -1577 0
-725 -1578 0
-727 -1579 0
-728 -1580 0
-724 -1635 0
-725 -1636 0
-726 -1637 0
-728 -1639 0
-724 -1641 0
-725 -1642 0
-727 -1643 0
-728 -1645 0
-723 -1717 0
-724 -1718 0
-725 -1719 0
-727 -1720 0
-728 -1721 0
-723 -1723 0
-724 -1724 0
-726 -1725 0
-727 -1726 0
-728 -1728 0
-723 -1730 0
-724 -1731 0
-725 -1732 0
-727 -1733 0
-728 -1735 0
-724 -1738 0
-725 -1739 0
-726 -1740 0
-728 -1742 0
-724 -1745 0
-725 -1746 0
-727 -1747 0
-728 -1749 0
-724 -1751 0
-725 -1752 0
-726 -1753 0
-727 -1754 0
-728 -1755 0
-723 -1756 0
-724 -1757 0
-725 -1758 0
-726 -1759 0
-728 -1761 0
-723 -1762 0
-724 -1763 0
-727 -1764 0
-728 -1767 0
-724 -1769 0
-726 -1770 0
-727 -1771 0
-728 -1773 0
-724 -1775 0
-725 -1776 0
-728 -1779 0
-723 -1800 0
-724 -1801 0
-727 -1802 0
-728 -1805 0
-723 -1806 0
-725 -1807 0
-726 -1808 0
-727 -1809 0
-728 -1811 0
-724 -1813 0
-725 -1814 0
-728 -1817 0
-725 -1819 0
-726 -1820 0
-727 -1821 0
-728 -1823 0
-725 -1846 0
-726 -1847 0
-728 -1850 0
-724 -1853 0
-727 -1854 0
-728 -1857 0
-722 -1866 0
-727 -1867 0
-728 -1870 0
-723 -1872 0
-725 -1873 0
-727 -1874 0
-728 -1877 0
-724 -1926 0
-725 -1927 0
-728 -1930 0
-724 -1932 0
-726 -1933 0
-728 -1936 0
-725 -1938 0
-727 -1939 0
-728 -1942 0
-724 -1943 0
-725 -1944 0
-726 -1945 0
-727 -1946 0
-728 -1949 0
-724 -1952 0
-725 -1953 0
-726 -1954 0
-727 -1955 0
-728 -1958 0
-731 -789 0
-732 -790 0
-734 -792 0
-733 -797 0
-734 -798 0
-729 -808 0
-730 -809 0
-731 -811 0
-733 -812 0
-734 -814 0
-729 -824 0
-731 -826 0
-732 -828 0
-734 -830 0
-729 -834 0
-733 -836 0
-734 -837 0
-729 -846 0
-731 -847 0
-734 -849 0
-729 -852 0
-732 -855 0
-733 -856 0
-734 -858 0
-729 -880 0
-731 -882 0
-732 -883 0
-733 -884 0
-734 -885 0
-729 -886 0
-731 -887 0
-733 -889 0
-734 -891 0
-730 -894 0
-731 -895 0
-734 -897 0
-731 -918 0
-732 -919 0
-733 -920 0
-734 -921 0
-734 -928 0
-729 -931 0
-730 -932 0
-731 -934 0
-734 -935 0
-731 -940 0
-733 -942 0
-734 -944 0
-732 -949 0
-734 -950 0
-729 -960 0
-730 -961 0
-731 -962 0
-732 -964 0
-734 -966 0
-729 -975 0
-731 -976 0
-733 -977 0
-734 -979 0
-729 -982 0
-732 -985 0
-734 -986 0
-729 -1009 0
-731 -1010 0
-732 -1012 0
-734 -1014 0
-729 -1016 0
-731 -1018 0
-734 -1020 0
-730 -1043 0
-731 -1044 0
-732 -1046 0
-733 -1047 0
-734 -1049 0
-730 -1052 0
-733 -1054 0
-734 -1055 0
-732 -1075 0
-733 -1076 0
-734 -1077 0
-731 -1125 0
-732 -1126 0
-733 -1127 0
-734 -1128 0
-732 -1131 0
-733 -1132 0
-734 -1134 0
-729 -1135 0
-730 -1136 0
-731 -1137 0
-732 -1138 0
-733 -1139 0
-734 -1140 0
-729 -1148 0
-731 -1149 0
-732 -1151 0
-733 -1152 0
-734 -1153 0
-729 -1155 0
-732 -1157 0
-733 -1158 0
-734 -1160 0
-730 -1169 0
-731 -1170 0
-733 -1171 0
-734 -1172 0
-730 -1181 0
-731 -1182 0
-732 -1184 0
-734 -1185 0
-730 -1188 0
-733 -1190 0
-734 -1192 0
-730 -1200 0
-731 -1202 0
-734 -1204 0
-730 -1206 0
-732 -1208 0
-733 -1209 0
-734 -1210 0
-730 -1225 0
-731 -1227 0
-732 -1229 0
-733 -1230 0
-734 -1232 0
-731 -1250 0
-732 -1251 0
-734 -1253 0
-732 -1257 0
-733 -1258 0
-734 -1260 0
-731 -1263 0
-732 -1265 0
-734 -1266 0
-733 -1270 0
-734 -1272 0
-730 -1274 0
-731 -1276 0
-732 -1277 0
-734 -1279 0
-730 -1281 0
-733 -1284 0
-734 -1286 0
-730 -1350 0
-731 -1352 0
-734 -1355 0
-730 -1370 0
-731 -1371 0
-733 -1373 0
-734 -1375 0
-730 -1377 0
-732 -1380 0
-734 -1382 0
-731 -1398 0
-732 -1400 0
-733 -1401 0
-734 -1403 0
-729 -1465 0
-734 -1468 0
-729 -1471 0
-731 -1473 0
-732 -1475 0
-733 -1476 0
-734 -1477 0
-729 -1479 0
-732 -1482 0
-734 -1484 0
-729 -1486 0
-731 -1487 0
-732 -1488 0
-733 -1489 0
-734 -1491 0
-733 -1518 0
-734 -1519 0
-731 -1522 0
-732 -1523 0
-734 -1525 0
-729 -1527 0
-730 -1528 0
-732 -1530 0
-734 -1531 0
-732 -1535 0
-733 -1536 0
-734 -1538 0
-731 -1542 0
-732 -1544 0
-734 -1545 0
-729 -1553 0
-730 -1554 0
-732 -1556 0
-734 -1558 0
-729 -1568 0
-732 -1571 0
-733 -1572 0
-734 -1574 0
-729 -1577 0
-731 -1578 0
-732 -1579 0
-734 -1580 0
-730 -1594 0
-733 -1597 0
-734 -1599 0
-730 -1601 0
-731 -1602 0
-732 -1604 0
-733 -1605 0
-734 -1606 0
-731 -1623 0
-733 -1625 0
-734 -1626 0
-729 -1675 0
-732 -1678 0
-733 -1679 0
-734 -1680 0
-729 -1681 0
-731 -1682 0
-733 -1684 0
-734 -1686 0
-730 -1688 0
-732 -1691 0
-733 -1692 0
-734 -1693 0
-730 -1703 0
-734 -1706 0
-730 -1709 0
-731 -1710 0
-732 -1712 0
-733 -1713 0
-734 -1715 0
-730 -1723 0
-732 -1726 0
-734 -1728 0
-730 -1730 0
-731 -1732 0
-732 -1733 0
-733 -1734 0
-734 -1735 0
-731 -1752 0
-732 -1754 0
-734 -1755 0
-732 -1771 0
-734 -1773 0
-731 -1776 0
-733 -1777 0
-734 -1779 0
-731 -1782 0
-732 -1784 0
-733 -1785 0
-734 -1787 0
-730 -1800 0
-732 -1802 0
-733 -1803 0
-734 -1805 0
-730 -1806 0
-731 -1807 0
-732 -1809 0
-734 -1811 0
-729 -1859 0
-733 -1862 0
-734 -1864 0
-729 -1866 0
-732 -1867 0
-733 -1868 0
-734 -1870 0
-732 -1882 0
-734 -1884 0
-730 -1900 0
-733 -1902 0
-734 -1904 0
-732 -1914 0
-733 -1915 0
-734 -1917 0
-731 -1921 0
-733 -1923 0
-734 -1924 0
-733 -1934 0
-734 -1936 0
-731 -1938 0
-732 -1939 0
-733 -1940 0
-734 -1942 0
-731 -1953 0
-732 -1955 0
-733 -1956 0
-734 -1958 0
-736 -787 0
-738 -789 0
-739 -790 0
-741 -791 0
-742 -792 0
-736 -793 0
-740 -797 0
-742 -798 0
-736 -806 0
-737 -809 0
-738 -811 0
-740 -812 0
-741 -813 0
-742 -814 0
-736 -822 0
-738 -826 0
-739 -828 0
-741 -829 0
-742 -830 0
-736 -832 0
-740 -836 0
-742 -837 0
-736 -838 0
-741 -842 0
-742 -843 0
-736 -860 0
-741 -863 0
-742 -864 0
-736 -879 0
-738 -882 0
-739 -883 0
-740 -884 0
-742 -885 0
-736 -899 0
-737 -901 0
-738 -902 0
-741 -903 0
-742 -904 0
-736 -906 0
-737 -908 0
-738 -910 0
-739 -912 0
-740 -913 0
-742 -914 0
-736 -937 0
-738 -940 0
-740 -942 0
-741 -943 0
-742 -944 0
-736 -946 0
-739 -949 0
-742 -950 0
-736 -959 0
-737 -961 0
-738 -962 0
-739 -964 0
-741 -965 0
-742 -966 0
-736 -974 0
-738 -976 0
-740 -977 0
-741 -978 0
-742 -979 0
-736 -981 0
-739 -985 0
-742 -986 0
-736 -987 0
-738 -990 0
-739 -992 0
-742 -993 0
-736 -994 0
-738 -996 0
-740 -998 0
-741 -999 0
-742 -1000 0
-736 -1001 0
-737 -1003 0
-738 -1004 0
-740 -1006 0
-742 -1007 0
-736 -1015 0
-738 -1018 0
-742 -1020 0
-737 -1043 0
-738 -1044 0
-739 -1046 0
-740 -1047 0
-741 -1048 0
-742 -1049 0
-737 -1052 0
-740 -1054 0
-742 -1055 0
-739 -1075 0
-740 -1076 0
-742 -1077 0
-739 -1090 0
-741 -1091 0
-742 -1092 0
-738 -1095 0
-740 -1097 0
-742 -1098 0
-737 -1101 0
-740 -1102 0
-741 -1103 0
-742 -1104 0
-739 -1114 0
-741 -1115 0
-742 -1116 0
-738 -1120 0
-740 -1121 0
-742 -1122 0
-738 -1125 0
-739 -1126 0
-740 -1127 0
-742 -1128 0
-739 -1131 0
-740 -1132 0
-741 -1133 0
-742 -1134 0
-737 -1136 0
-738 -1137 0
-739 -1138 0
-740 -1139 0
-742 -1140 0
-738 -1149 0
-739 -1151 0
-740 -1152 0
-742 -1153 0
-739 -1157 0
-740 -1158 0
-741 -1159 0
-742 -1160 0
-739 -1164 0
-740 -1165 0
-742 -1166 0
-737 -1200 0
-738 -1202 0
-741 -1203 0
-742 -1204 0
-737 -1206 0
-739 -1208 0
-740 -1209 0
-742 -1210 0
-737 -1234 0
-738 -1236 0
-739 -1237 0
-740 -1238 0
-742 -1239 0
-737 -1241 0
-738 -1242 0
-740 -1244 0
-741 -1245 0
-742 -1246 0
-738 -1263 0
-739 -1265 0
-742 -1266 0
-740 -1270 0
-741 -1271 0
-742 -1272 0
-737 -1274 0
-738 -1276 0
-739 -1277 0
-741 -1278 0
-742 -1279 0
-737 -1281 0
-740 -1284 0
-741 -1285 0
-742 -1286 0
-739 -1310 0
-740 -1311 0
-741 -1312 0
-742 -1313 0
-738 -1316 0
-741 -1318 0
-742 -1319 0
-737 -1321 0
-741 -1324 0
-742 -1325 0
-739 -1338 0
-740 -1339 0
-741 -1340 0
-742 -1341 0
-738 -1345 0
-741 -1347 0
-742 -1348 0
-737 -1370 0
-738 -1371 0
-740 -1373 0
-741 -1374 0
-742 -1375 0
-737 -1377 0
-739 -1380 0
-741 -1381 0
-742 -1382 0
-738 -1398 0
-739 -1400 0
-740 -1401 0
-741 -1402 0
-742 -1403 0
-736 -1463 0
-741 -1467 0
-742 -1468 0
-736 -1469 0
-738 -1473 0
-739 -1475 0
-740 -1476 0
-742 -1477 0
-736 -1492 0
-738 -1494 0
-739 -1496 0
-741 -1497 0
-742 -1498 0
-736 -1499 0
-737 -1501 0
-738 -1503 0
-739 -1505 0
-741 -1506 0
-742 -1507 0
-736 -1508 0
-737 -1510 0
-739 -1511 0
-740 -1512 0
-742 -1513 0
-736 -1532 0
-739 -1535 0
-740 -1536 0
-741 -1537 0
-742 -1538 0
-736 -1539 0
-738 -1542 0
-739 -1544 0
-742 -1545 0
-736 -1552 0
-737 -1554 0
-739 -1556 0
-741 -1557 0
-742 -1558 0
-736 -1567 0
-739 -1571 0
-740 -1572 0
-741 -1573 0
-742 -1574 0
-736 -1576 0
-738 -1578 0
-739 -1579 0
-742 -1580 0
-737 -1594 0
-740 -1597 0
-741 -1598 0
-742 -1599 0
-737 -1601 0
-738 -1602 0
-739 -1604 0
-740 -1605 0
-742 -1606 0
-738 -1623 0
-740 -1625 0
-742 -1626 0
-738 -1636 0
-741 -1638 0
-742 -1639 0
-738 -1642 0
-739 -1643 0
-740 -1644 0
-742 -1645 0
-737 -1647 0
-738 -1649 0
-739 -1651 0
-740 -1652 0
-741 -1653 0
-742 -1654 0
-738 -1664 0
-741 -1666 0
-742 -1667 0
-738 -1670 0
-739 -1672 0
-740 -1673 0
-742 -1674 0
-739 -1678 0
-740 -1679 0
-742 -1680 0
-738 -1682 0
-740 -1684 0
-741 -1685 0
-742 -1686 0
-737 -1723 0
-739 -1726 0
-741 -1727 0
-742 -1728 0
-737 -1730 0
-738 -1732 0
-739 -1733 0
-740 -1734 0
-742 -1735 0
-738 -1752 0
-739 -1754 0
-742 -1755 0
-737 -1756 0
-738 -1758 0
-740 -1760 0
-742 -1761 0
-737 -1762 0
-739 -1764 0
-740 -1765 0
-741 -1766 0
-742 -1767 0
-738 -1782 0
-739 -1784 0
-740 -1785 0
-741 -1786 0
-742 -1787 0
-738 -1789 0
-740 -1791 0
-741 -1792 0
-742 -1793 0
-738 -1796 0
-739 -1797 0
-741 -1798 0
-742 -1799 0
-737 -1800 0
-739 -1802 0
-740 -1803 0
-741 -1804 0
-742 -1805 0
-737 -1806 0
-738 -1807 0
-739 -1809 0
-741 -1810 0
-742 -1811 0
-736 -1858 0
-740 -1862 0
-741 -1863 0
-742 -1864 0
-736 -1871 0
-737 -1872 0
-738 -1873 0
-739 -1874 0
-740 -1875 0
-741 -1876 0
-742 -1877 0
-736 -1879 0
-739 -1882 0
-741 -1883 0
-742 -1884 0
-736 -1899 0
-737 -1900 0
-740 -1902 0
-741 -1903 0
-742 -1904 0
-736 -1912 0
-739 -1914 0
-740 -1915 0
-741 -1916 0
-742 -1917 0
-736 -1919 0
-738 -1921 0
-740 -1923 0
-742 -1924 0
-736 -1925 0
-738 -1927 0
-740 -1928 0
-741 -1929 0
-742 -1930 0
-746 -790 0
-748 -792 0
-743 -799 0
-747 -803 0
-748 -805 0
-744 -809 0
-747 -812 0
-748 -814 0
-746 -819 0
-748 -820 0
-743 -831 0
-747 -836 0
-748 -837 0
-743 -844 0
-748 -849 0
-743 -859 0
-748 -864 0
-746 -868 0
-747 -869 0
-748 -871 0
-746 -883 0
-747 -884 0
-748 -885 0
-744 -894 0
-745 -896 0
-748 -897 0
-743 -905 0
-744 -908 0
-745 -911 0
-746 -912 0
-747 -913 0
-748 -914 0
-743 -922 0
-745 -926 0
-748 -928 0
-743 -936 0
-745 -941 0
-747 -942 0
-748 -944 0
-743 -951 0
-745 -954 0
-746 -955 0
-748 -957 0
-743 -958 0
-744 -961 0
-745 -963 0
-746 -964 0
-748 -966 0
-743 -967 0
-745 -970 0
-747 -971 0
-748 -972 0
-743 -980 0
-745 -984 0
-746 -985 0
-748 -986 0
-745 -991 0
-746 -992 0
-748 -993 0
-744 -1003 0
-745 -1005 0
-747 -1006 0
-748 -1007 0
-745 -1011 0
-746 -1012 0
-748 -1014 0
-743 -1021 0
-745 -1025 0
-748 -1027 0
-744 -1037 0
-746 -1038 0
-747 -1039 0
-748 -1040 0
-743 -1050 0
-744 -1052 0
-747 -1054 0
-748 -1055 0
-743 -1062 0
-746 -1067 0
-747 -1068 0
-748 -1070 0
-743 -1087 0
-746 -1090 0
-748 -1092 0
-743 -1099 0
-744 -1101 0
-747 -1102 0
-748 -1104 0
-743 -1105 0
-746 -1109 0
-748 -1110 0
-743 -1117 0
-747 -1121 0
-748 -1122 0
-746 -1126 0
-747 -1127 0
-748 -1128 0
-744 -1136 0
-746 -1138 0
-747 -1139 0
-748 -1140 0
-746 -1143 0
-747 -1144 0
-748 -1146 0
-743 -1154 0
-746 -1157 0
-747 -1158 0
-748 -1160 0
-743 -1193 0
-744 -1195 0
-745 -1197 0
-748 -1198 0
-743 -1205 0
-744 -1206 0
-745 -1207 0
-746 -1208 0
-747 -1209 0
-748 -1210 0
-743 -1217 0
-745 -1220 0
-748 -1222 0
-744 -1225 0
-745 -1228 0
-746 -1229 0
-747 -1230 0
-748 -1232 0
-743 -1240 0
-744 -1241 0
-745 -1243 0
-747 -1244 0
-748 -1246 0
-743 -1254 0
-745 -1256 0
-746 -1257 0
-747 -1258 0
-748 -1260 0
-743 -1261 0
-745 -1264 0
-746 -1265 0
-748 -1266 0
-744 -1281 0
-745 -1283 0
-747 -1284 0
-748 -1286 0
-745 -1298 0
-746 -1299 0
-748 -1300 0
-745 -1309 0
-746 -1310 0
-747 -1311 0
-748 -1313 0
-744 -1321 0
-745 -1323 0
-748 -1325 0
-745 -1330 0
-746 -1331 0
-747 -1332 0
-748 -1334 0
-743 -1342 0
-745 -1346 0
-748 -1348 0
-744 -1364 0
-745 -1365 0
-747 -1366 0
-748 -1368 0
-743 -1376 0
-744 -1377 0
-745 -1379 0
-746 -1380 0
-748 -1382 0
-743 -1390 0
-745 -1394 0
-747 -1395 0
-748 -1396 0
-745 -1399 0
-746 -1400 0
-747 -1401 0
-748 -1403 0
-744 -1431 0
-745 -1433 0
-746 -1434 0
-748 -1436 0
-743 -1443 0
-745 -1446 0
-746 -1447 0
-748 -1448 0
-745 -1452 0
-746 -1453 0
-747 -1454 0
-748 -1456 0
-745 -1458 0
-746 -1459 0
-747 -1460 0
-748 -1462 0
-745 -1474 0
-746 -1475 0
-747 -1476 0
-748 -1477 0
-745 -1481 0
-746 -1482 0
-748 -1484 0
-745 -1495 0
-746 -1496 0
-748 -1498 0
-744 -1510 0
-746 -1511 0
-747 -1512 0
-748 -1513 0
-746 -1523 0
-748 -1525 0
-746 -1535 0
-747 -1536 0
-748 -1538 0
-743 -1546 0
-746 -1549 0
-748 -1551 0
-744 -1554 0
-746 -1556 0
-748 -1558 0
-746 -1563 0
-747 -1564 0
-748 -1565 0
-743 -1575 0
-746 -1579 0
-748 -1580 0
-746 -1584 0
-748 -1586 0
-744 -1601 0
-745 -1603 0
-746 -1604 0
-747 -1605 0
-748 -1606 0
-745 -1617 0
-747 -1618 0
-748 -1620 0
-745 -1637 0
-748 -1639 0
-744 -1647 0
-745 -1650 0
-746 -1651 0
-747 -1652 0
-748 -1654 0
-745 -1659 0
-748 -1660 0
-743 -1668 0
-745 -1671 0
-746 -1672 0
-747 -1673 0
-748 -1674 0
-745 -1683 0
-747 -1684 0
-748 -1686 0
-744 -1717 0
-746 -1720 0
-748 -1721 0
-743 -1729 0
-744 -1730 0
-746 -1733 0
-747 -1734 0
-748 -1735 0
-743 -1743 0
-746 -1747 0
-748 -1749 0
-744 -1762 0
-746 -1764 0
-747 -1765 0
-748 -1767 0
-747 -1777 0
-748 -1779 0
-746 -1797 0
-748 -1799 0
-744 -1806 0
-745 -1808 0
-746 -1809 0
-748 -1811 0
-745 -1820 0
-746 -1821 0
-747 -1822 0
-748 -1823 0
-745 -1847 0
-747 -1848 0
-748 -1850 0
-745 -1861 0
-747 -1862 0
-748 -1864 0
-744 -1872 0
-746 -1874 0
-747 -1875 0
-748 -1877 0
-743 -1885 0
-746 -1889 0
-748 -1891 0
-744 -1900 0
-745 -1901 0
-747 -1902 0
-748 -1904 0
-745 -1907 0
-746 -1908 0
-747 -1909 0
-748 -1910 0
-743 -1918 0
-745 -1922 0
-747 -1923 0
-748 -1924 0
-743 -1931 0
-745 -1933 0
-747 -1934 0
-748 -1936 0
-745 -1945 0
-746 -1946 0
-747 -1947 0
-748 -1949 0
-751 -795 0
-754 -798 0
-749 -799 0
-751 -801 0
-752 -802 0
-753 -804 0
-754 -805 0
-750 -809 0
-751 -810 0
-752 -811 0
-753 -813 0
-754 -814 0
-751 -818 0
-754 -820 0
-749 -821 0
-751 -825 0
-752 -826 0
-753 -829 0
-754 -830 0
-749 -850 0
-751 -853 0
-753 -857 0
-754 -858 0
-749 -859 0
-751 -862 0
-753 -863 0
-754 -864 0
-751 -874 0
-752 -875 0
-754 -878 0
-751 -881 0
-752 -882 0
-754 -885 0
-750 -894 0
-752 -895 0
-754 -897 0
-749 -898 0
-750 -901 0
-752 -902 0
-753 -903 0
-754 -904 0
-749 -915 0
-752 -918 0
-754 -921 0
-749 -945 0
-754 -950 0
-749 -951 0
-752 -953 0
-753 -956 0
-754 -957 0
-749 -958 0
-750 -961 0
-752 -962 0
-753 -965 0
-754 -966 0
-749 -967 0
-754 -972 0
-749 -973 0
-752 -976 0
-753 -978 0
-754 -979 0
-752 -996 0
-753 -999 0
-754 -1000 0
-750 -1003 0
-752 -1004 0
-754 -1007 0
-752 -1010 0
-753 -1013 0
-754 -1014 0
-749 -1028 0
-752 -1030 0
-754 -1034 0
-750 -1037 0
-754 -1040 0
-749 -1041 0
-750 -1043 0
-752 -1044 0
-753 -1048 0
-754 -1049 0
-749 -1056 0
-754 -1061 0
-749 -1093 0
-752 -1095 0
-754 -1098 0
-749 -1099 0
-750 -1101 0
-753 -1103 0
-754 -1104 0
-749 -1105 0
-752 -1108 0
-754 -1110 0
-749 -1111 0
-753 -1115 0
-754 -1116 0
-753 -1133 0
-754 -1134 0
-750 -1136 0
-752 -1137 0
-754 -1140 0
-753 -1145 0
-754 -1146 0
-749 -1147 0
-752 -1149 0
-754 -1153 0
-749 -1193 0
-750 -1195 0
-751 -1196 0
-754 -1198 0
-749 -1199 0
-750 -1200 0
-751 -1201 0
-752 -1202 0
-753 -1203 0
-754 -1204 0
-749 -1211 0
-751 -1213 0
-754 -1216 0
-750 -1225 0
-751 -1226 0
-752 -1227 0
-753 -1231 0
-754 -1232 0
-749 -1233 0
-750 -1234 0
-751 -1235 0
-752 -1236 0
-754 -1239 0
-749 -1247 0
-751 -1249 0
-752 -1250 0
-753 -1252 0
-754 -1253 0
-749 -1267 0
-751 -1268 0
-753 -1271 0
-754 -1272 0
-750 -1274 0
-751 -1275 0
-752 -1276 0
-753 -1278 0
-754 -1279 0
-751 -1289 0
-753 -1292 0
-754 -1293 0
-751 -1315 0
-752 -1316 0
-753 -1318 0
-754 -1319 0
-750 -1321 0
-751 -1322 0
-753 -1324 0
-754 -1325 0
-751 -1328 0
-752 -1329 0
-753 -1333 0
-754 -1334 0
-749 -1335 0
-751 -1337 0
-753 -1340 0
-754 -1341 0
-750 -1364 0
-753 -1367 0
-754 -1368 0
-749 -1369 0
-750 -1370 0
-752 -1371 0
-753 -1374 0
-754 -1375 0
-749 -1383 0
-753 -1388 0
-754 -1389 0
-750 -1431 0
-752 -1432 0
-753 -1435 0
-754 -1436 0
-749 -1437 0
-752 -1438 0
-753 -1441 0
-754 -1442 0
-753 -1461 0
-754 -1462 0
-753 -1467 0
-754 -1468 0
-752 -1487 0
-753 -1490 0
-754 -1491 0
-752 -1494 0
-753 -1497 0
-754 -1498 0
-750 -1501 0
-751 -1502 0
-752 -1503 0
-753 -1506 0
-754 -1507 0
-751 -1516 0
-754 -1519 0
-751 -1541 0
-752 -1542 0
-754 -1545 0
-749 -1546 0
-751 -1548 0
-753 -1550 0
-754 -1551 0
-750 -1554 0
-751 -1555 0
-753 -1557 0
-754 -1558 0
-751 -1561 0
-752 -1562 0
-754 -1565 0
-749 -1566 0
-751 -1569 0
-753 -1573 0
-754 -1574 0
-751 -1588 0
-754 -1592 0
-750 -1594 0
-751 -1595 0
-753 -1598 0
-754 -1599 0
-751 -1609 0
-752 -1610 0
-754 -1613 0
-751 -1641 0
-752 -1642 0
-754 -1645 0
-750 -1647 0
-751 -1648 0
-752 -1649 0
-753 -1653 0
-754 -1654 0
-751 -1657 0
-752 -1658 0
-754 -1660 0
-749 -1661 0
-751 -1663 0
-752 -1664 0
-753 -1666 0
-754 -1667 0
-751 -1676 0
-754 -1680 0
-750 -1717 0
-751 -1718 0
-752 -1719 0
-754 -1721 0
-749 -1722 0
-750 -1723 0
-751 -1724 0
-753 -1727 0
-754 -1728 0
-749 -1736 0
-751 -1738 0
-752 -1739 0
-754 -1742 0
-750 -1756 0
-751 -1757 0
-752 -1758 0
-754 -1761 0
-751 -1769 0
-753 -1772 0
-754 -1773 0
-751 -1781 0
-752 -1782 0
-753 -1786 0
-754 -1787 0
-752 -1789 0
-753 -1792 0
-754 -1793 0
-750 -1800 0
-751 -1801 0
-753 -1804 0
-754 -1805 0
-751 -1813 0
-752 -1814 0
-753 -1816 0
-754 -1817 0
-751 -1836 0
-752 -1837 0
-753 -1841 0
-754 -1842 0
-751 -1853 0
-753 -1856 0
-754 -1857 0
-751 -1860 0
-753 -1863 0
-754 -1864 0
-750 -1872 0
-752 -1873 0
-753 -1876 0
-754 -1877 0
-749 -1892 0
-753 -1897 0
-754 -1898 0
-750 -1900 0
-753 -1903 0
-754 -1904 0
-752 -1906 0
-754 -1910 0
-749 -1911 0
-753 -1916 0
-754 -1917 0
-749 -1937 0
-752 -1938 0
-753 -1941 0
-754 -1942 0
-751 -1952 0
-752 -1953 0
-753 -1957 0
-754 -1958 0
-757 -789 0
-760 -792 0
-756 -795 0
-758 -796 0
-759 -797 0
-760 -798 0
-755 -809 0
-756 -810 0
-757 -811 0
-759 -812 0
-760 -814 0
-756 -818 0
-760 -820 0
-757 -847 0
-760 -849 0
-756 -853 0
-758 -854 0
-759 -856 0
-760 -858 0
-756 -862 0
-760 -864 0
-757 -887 0
-758 -888 0
-759 -889 0
-760 -891 0
-755 -901 0
-757 -902 0
-760 -904 0
-755 -908 0
-756 -909 0
-757 -910 0
-758 -911 0
-759 -913 0
-760 -914 0
-757 -918 0
-759 -920 0
-760 -921 0
-756 -925 0
-758 -926 0
-760 -928 0
-755 -932 0
-756 -933 0
-757 -934 0
-760 -935 0
-757 -953 0
-758 -954 0
-760 -957 0
-757 -976 0
-759 -977 0
-760 -979 0
-756 -983 0
-758 -984 0
-760 -986 0
-756 -989 0
-757 -990 0
-758 -991 0
-760 -993 0
-757 -996 0
-758 -997 0
-759 -998 0
-760 -1000 0
-755 -1003 0
-757 -1004 0
-758 -1005 0
-759 -1006 0
-760 -1007 0
-757 -1010 0
-758 -1011 0
-760 -1014 0
-756 -1023 0
-757 -1024 0
-758 -1025 0
-760 -1027 0
-757 -1030 0
-758 -1031 0
-759 -1033 0
-760 -1034 0
-755 -1043 0
-757 -1044 0
-758 -1045 0
-759 -1047 0
-760 -1049 0
-755 -1052 0
-756 -1053 0
-759 -1054 0
-760 -1055 0
-758 -1059 0
-760 -1061 0
-756 -1065 0
-757 -1066 0
-759 -1068 0
-760 -1070 0
-755 -1081 0
-756 -1082 0
-758 -1083 0
-759 -1085 0
-760 -1086 0
-758 -1113 0
-760 -1116 0
-756 -1119 0
-757 -1120 0
-759 -1121 0
-760 -1122 0
-756 -1124 0
-757 -1125 0
-759 -1127 0
-760 -1128 0
-758 -1130 0
-759 -1132 0
-760 -1134 0
-755 -1136 0
-757 -1137 0
-759 -1139 0
-760 -1140 0
-759 -1144 0
-760 -1146 0
-755 -1181 0
-757 -1182 0
-758 -1183 0
-760 -1185 0
-755 -1188 0
-756 -1189 0
-759 -1190 0
-760 -1192 0
-755 -1234 0
-756 -1235 0
-757 -1236 0
-759 -1238 0
-760 -1239 0
-755 -1241 0
-757 -1242 0
-758 -1243 0
-759 -1244 0
-760 -1246 0
-756 -1249 0
-757 -1250 0
-760 -1253 0
-758 -1256 0
-759 -1258 0
-760 -1260 0
-755 -1274 0
-756 -1275 0
-757 -1276 0
-760 -1279 0
-755 -1281 0
-756 -1282 0
-758 -1283 0
-759 -1284 0
-760 -1286 0
-756 -1289 0
-759 -1291 0
-760 -1293 0
-756 -1296 0
-757 -1297 0
-758 -1298 0
-760 -1300 0
-755 -1303 0
-756 -1304 0
-760 -1307 0
-756 -1337 0
-759 -1339 0
-760 -1341 0
-756 -1344 0
-757 -1345 0
-758 -1346 0
-760 -1348 0
-755 -1418 0
-756 -1419 0
-758 -1420 0
-760 -1423 0
-755 -1425 0
-756 -1426 0
-757 -1427 0
-759 -1429 0
-760 -1430 0
-756 -1450 0
-757 -1451 0
-758 -1452 0
-759 -1454 0
-760 -1456 0
-756 -1480 0
-758 -1481 0
-760 -1484 0
-757 -1487 0
-759 -1489 0
-760 -1491 0
-757 -1494 0
-758 -1495 0
-760 -1498 0
-755 -1501 0
-756 -1502 0
-757 -1503 0
-758 -1504 0
-760 -1507 0
-755 -1510 0
-759 -1512 0
-760 -1513 0
-756 -1516 0
-758 -1517 0
-759 -1518 0
-760 -1519 0
-757 -1522 0
-760 -1525 0
-755 -1528 0
-758 -1529 0
-760 -1531 0
-756 -1548 0
-760 -1551 0
-756 -1569 0
-758 -1570 0
-759 -1572 0
-760 -1574 0
-757 -1578 0
-760 -1580 0
-756 -1582 0
-757 -1583 0
-760 -1586 0
-756 -1588 0
-758 -1589 0
-759 -1591 0
-760 -1592 0
-755 -1594 0
-756 -1595 0
-758 -1596 0
-759 -1597 0
-760 -1599 0
-755 -1601 0
-757 -1602 0
-758 -1603 0
-759 -1605 0
-760 -1606 0
-756 -1609 0
-757 -1610 0
-758 -1611 0
-760 -1613 0
-757 -1616 0
-758 -1617 0
-759 -1618 0
-760 -1620 0
-755 -1629 0
-757 -1630 0
-758 -1631 0
-759 -1632 0
-760 -1633 0
-756 -1663 0
-757 -1664 0
-758 -1665 0
-760 -1667 0
-757 -1670 0
-758 -1671 0
-759 -1673 0
-760 -1674 0
-755 -1703 0
-756 -1704 0
-758 -1705 0
-760 -1706 0
-755 -1709 0
-757 -1710 0
-758 -1711 0
-759 -1713 0
-760 -1715 0
-756 -1751 0
-757 -1752 0
-758 -1753 0
-760 -1755 0
-755 -1756 0
-756 -1757 0
-757 -1758 0
-758 -1759 0
-759 -1760 0
-760 -1761 0
-755 -1762 0
-756 -1763 0
-759 -1765 0
-760 -1767 0
-756 -1769 0
-758 -1770 0
-760 -1773 0
-756 -1775 0
-757 -1776 0
-759 -1777 0
-760 -1779 0
-757 -1789 0
-758 -1790 0
-759 -1791 0
-760 -1793 0
-756 -1795 0
-757 -1796 0
-760 -1799 0
-755 -1824 0
-757 -1825 0
-758 -1826 0
-760 -1829 0
-755 -1830 0
-756 -1831 0
-757 -1832 0
-758 -1833 0
-759 -1834 0
-760 -1835 0
-759 -1868 0
-760 -1870 0
-755 -1872 0
-757 -1873 0
-759 -1875 0
-760 -1877 0
-756 -1887 0
-757 -1888 0
-760 -1891 0
-758 -1894 0
-759 -1896 0
-760 -1898 0
-755 -1900 0
-758 -1901 0
-759 -1902 0
-760 -1904 0
-757 -1906 0
-758 -1907 0
-759 -1909 0
-760 -1910 0
-756 -1932 0
-758 -1933 0
-759 -1934 0
-760 -1936 0
-757 -1938 0
-759 -1940 0
-760 -1942 0
-756 -1952 0
-757 -1953 0
-758 -1954 0
-759 -1956 0
-760 -1958 0
-764 -789 0
-765 -790 0
-767 -792 0
-763 -818 0
-765 -819 0
-767 -820 0
-761 -821 0
-763 -825 0
-764 -826 0
-765 -828 0
-767 -830 0
-767 -843 0
-761 -844 0
-764 -847 0
-767 -849 0
-761 -859 0
-763 -862 0
-767 -864 0
-762 -894 0
-764 -895 0
-767 -897 0
-761 -898 0
-762 -901 0
-764 -902 0
-767 -904 0
-761 -922 0
-763 -925 0
-767 -928 0
-761 -929 0
-762 -932 0
-763 -933 0
-764 -934 0
-767 -935 0
-761 -945 0
-765 -949 0
-767 -950 0
-761 -951 0
-764 -953 0
-765 -955 0
-767 -957 0
-761 -958 0
-762 -961 0
-764 -962 0
-765 -964 0
-767 -966 0
-761 -980 0
-763 -983 0
-765 -985 0
-767 -986 0
-763 -989 0
-764 -990 0
-765 -992 0
-767 -993 0
-764 -1010 0
-765 -1012 0
-767 -1014 0
-763 -1017 0
-764 -1018 0
-767 -1020 0
-761 -1021 0
-763 -1023 0
-764 -1024 0
-767 -1027 0
-762 -1037 0
-765 -1038 0
-766 -1039 0
-767 -1040 0
-761 -1041 0
-762 -1043 0
-764 -1044 0
-765 -1046 0
-766 -1047 0
-767 -1049 0
-761 -1062 0
-763 -1065 0
-764 -1066 0
-765 -1067 0
-766 -1068 0
-767 -1070 0
-761 -1071 0
-763 -1073 0
-765 -1075 0
-766 -1076 0
-767 -1077 0
-761 -1078 0
-762 -1081 0
-763 -1082 0
-765 -1084 0
-766 -1085 0
-767 -1086 0
-761 -1093 0
-764 -1095 0
-766 -1097 0
-767 -1098 0
-761 -1099 0
-762 -1101 0
-766 -1102 0
-767 -1104 0
-761 -1117 0
-763 -1119 0
-764 -1120 0
-766 -1121 0
-767 -1122 0
-763 -1124 0
-764 -1125 0
-765 -1126 0
-766 -1127 0
-767 -1128 0
-765 -1143 0
-766 -1144 0
-767 -1146 0
-761 -1147 0
-764 -1149 0
-765 -1151 0
-766 -1152 0
-767 -1153 0
-763 -1162 0
-765 -1164 0
-766 -1165 0
-767 -1166 0
-761 -1167 0
-762 -1169 0
-764 -1170 0
-766 -1171 0
-767 -1172 0
-761 -1186 0
-762 -1188 0
-763 -1189 0
-766 -1190 0
-767 -1192 0
-761 -1205 0
-762 -1206 0
-765 -1208 0
-766 -1209 0
-767 -1210 0
-762 -1225 0
-763 -1226 0
-764 -1227 0
-765 -1229 0
-766 -1230 0
-767 -1232 0
-761 -1233 0
-762 -1234 0
-763 -1235 0
-764 -1236 0
-765 -1237 0
-766 -1238 0
-767 -1239 0
-761 -1254 0
-765 -1257 0
-766 -1258 0
-767 -1260 0
-761 -1267 0
-763 -1268 0
-766 -1270 0
-767 -1272 0
-762 -1274 0
-763 -1275 0
-764 -1276 0
-765 -1277 0
-767 -1279 0
-763 -1296 0
-764 -1297 0
-765 -1299 0
-767 -1300 0
-762 -1303 0
-763 -1304 0
-765 -1305 0
-767 -1307 0
-763 -1315 0
-764 -1316 0
-767 -1319 0
-762 -1321 0
-763 -1322 0
-767 -1325 0
-761 -1342 0
-763 -1344 0
-764 -1345 0
-767 -1348 0
-762 -1350 0
-763 -1351 0
-764 -1352 0
-767 -1355 0
-761 -1376 0
-762 -1377 0
-763 -1378 0
-765 -1380 0
-767 -1382 0
-762 -1405 0
-763 -1406 0
-765 -1407 0
-766 -1408 0
-767 -1410 0
-761 -1424 0
-762 -1425 0
-763 -1426 0
-764 -1427 0
-765 -1428 0
-766 -1429 0
-767 -1430 0
-763 -1450 0
-764 -1451 0
-765 -1453 0
-766 -1454 0
-767 -1456 0
-767 -1468 0
-763 -1480 0
-765 -1482 0
-767 -1484 0
-764 -1494 0
-765 -1496 0
-767 -1498 0
-762 -1501 0
-763 -1502 0
-764 -1503 0
-765 -1505 0
-767 -1507 0
-764 -1522 0
-765 -1523 0
-767 -1525 0
-762 -1528 0
-765 -1530 0
-767 -1531 0
-763 -1541 0
-764 -1542 0
-765 -1544 0
-767 -1545 0
-761 -1546 0
-763 -1548 0
-765 -1549 0
-767 -1551 0
-762 -1554 0
-763 -1555 0
-765 -1556 0
-767 -1558 0
-761 -1575 0
-764 -1578 0
-765 -1579 0
-767 -1580 0
-763 -1582 0
-764 -1583 0
-765 -1584 0
-767 -1586 0
-762 -1594 0
-763 -1595 0
-766 -1597 0
-767 -1599 0
-764 -1616 0
-766 -1618 0
-767 -1620 0
-761 -1621 0
-764 -1623 0
-766 -1625 0
-767 -1626 0
-762 -1629 0
-764 -1630 0
-766 -1632 0
-767 -1633 0
-763 -1641 0
-764 -1642 0
-765 -1643 0
-766 -1644 0
-767 -1645 0
-762 -1647 0
-763 -1648 0
-764 -1649 0
-765 -1651 0
-766 -1652 0
-767 -1654 0
-761 -1668 0
-764 -1670 0
-765 -1672 0
-766 -1673 0
-767 -1674 0
-763 -1676 0
-765 -1678 0
-766 -1679 0
-767 -1680 0
-762 -1688 0
-763 -1689 0
-765 -1691 0
-766 -1692 0
-767 -1693 0
-761 -1707 0
-762 -1709 0
-764 -1710 0
-765 -1712 0
-766 -1713 0
-767 -1715 0
-761 -1729 0
-762 -1730 0
-763 -1731 0
-764 -1732 0
-765 -1733 0
-766 -1734 0
-767 -1735 0
-762 -1756 0
-763 -1757 0
-764 -1758 0
-766 -1760 0
-767 -1761 0
-763 -1775 0
-764 -1776 0
-766 -1777 0
-767 -1779 0
-763 -1781 0
-764 -1782 0
-765 -1784 0
-766 -1785 0
-767 -1787 0
-763 -1795 0
-764 -1796 0
-765 -1797 0
-767 -1799 0
-762 -1806 0
-764 -1807 0
-765 -1809 0
-767 -1811 0
-762 -1830 0
-763 -1831 0
-764 -1832 0
-766 -1834 0
-767 -1835 0
-763 -1880 0
-765 -1882 0
-767 -1884 0
-761 -1885 0
-763 -1887 0
-764 -1888 0
-765 -1889 0
-767 -1891 0
-764 -1906 0
-765 -1908 0
-766 -1909 0
-767 -1910 0
-761 -1911 0
-765 -1914 0
-766 -1915 0
-767 -1917 0
-763 -1926 0
-764 -1927 0
-766 -1928 0
-767 -1930 0
-761 -1931 0
-763 -1932 0
-766 -1934 0
-767 -1936 0
-771 -796 0
-772 -797 0
-774 -798 0
-774 -820 0
-768 -831 0
-772 -836 0
-774 -837 0
-771 -841 0
-773 -842 0
-774 -843 0
-768 -850 0
-771 -854 0
-772 -856 0
-773 -857 0
-774 -858 0
-768 -859 0
-773 -863 0
-774 -864 0
-769 -894 0
-770 -895 0
-771 -896 0
-774 -897 0
-768 -905 0
-769 -908 0
-770 -910 0
-771 -911 0
-772 -913 0
-774 -914 0
-768 -915 0
-770 -918 0
-772 -920 0
-774 -921 0
-768 -929 0
-769 -932 0
-770 -934 0
-774 -935 0
-768 -936 0
-770 -940 0
-771 -941 0
-772 -942 0
-773 -943 0
-774 -944 0
-768 -951 0
-770 -953 0
-771 -954 0
-773 -956 0
-774 -957 0
-768 -958 0
-769 -961 0
-770 -962 0
-771 -963 0
-773 -965 0
-774 -966 0
-768 -973 0
-770 -976 0
-772 -977 0
-773 -978 0
-774 -979 0
-770 -996 0
-771 -997 0
-772 -998 0
-773 -999 0
-774 -1000 0
-770 -1010 0
-771 -1011 0
-773 -1013 0
-774 -1014 0
-770 -1018 0
-771 -1019 0
-774 -1020 0
-768 -1028 0
-770 -1030 0
-771 -1031 0
-772 -1033 0
-774 -1034 0
-769 -1037 0
-772 -1039 0
-774 -1040 0
-768 -1050 0
-769 -1052 0
-772 -1054 0
-774 -1055 0
-768 -1056 0
-771 -1059 0
-774 -1061 0
-768 -1071 0
-771 -1074 0
-772 -1076 0
-774 -1077 0
-768 -1078 0
-769 -1081 0
-771 -1083 0
-772 -1085 0
-774 -1086 0
-768 -1087 0
-773 -1091 0
-774 -1092 0
-768 -1099 0
-769 -1101 0
-772 -1102 0
-773 -1103 0
-774 -1104 0
-768 -1111 0
-771 -1113 0
-773 -1115 0
-774 -1116 0
-771 -1130 0
-772 -1132 0
-773 -1133 0
-774 -1134 0
-772 -1144 0
-773 -1145 0
-774 -1146 0
-768 -1154 0
-772 -1158 0
-773 -1159 0
-774 -1160 0
-771 -1163 0
-772 -1165 0
-774 -1166 0
-768 -1167 0
-769 -1169 0
-770 -1170 0
-772 -1171 0
-774 -1172 0
-768 -1179 0
-769 -1181 0
-770 -1182 0
-771 -1183 0
-774 -1185 0
-768 -1199 0
-769 -1200 0
-770 -1202 0
-773 -1203 0
-774 -1204 0
-769 -1225 0
-770 -1227 0
-771 -1228 0
-772 -1230 0
-773 -1231 0
-774 -1232 0
-768 -1240 0
-769 -1241 0
-770 -1242 0
-771 -1243 0
-772 -1244 0
-773 -1245 0
-774 -1246 0
-768 -1247 0
-770 -1250 0
-773 -1252 0
-774 -1253 0
-768 -1261 0
-770 -1263 0
-771 -1264 0
-774 -1266 0
-769 -1281 0
-771 -1283 0
-772 -1284 0
-773 -1285 0
-774 -1286 0
-772 -1291 0
-773 -1292 0
-774 -1293 0
-769 -1303 0
-773 -1306 0
-774 -1307 0
-771 -1309 0
-772 -1311 0
-773 -1312 0
-774 -1313 0
-769 -1321 0
-771 -1323 0
-773 -1324 0
-774 -1325 0
-768 -1335 0
-772 -1339 0
-773 -1340 0
-774 -1341 0
-769 -1350 0
-770 -1352 0
-771 -1353 0
-773 -1354 0
-774 -1355 0
-768 -1369 0
-769 -1370 0
-770 -1371 0
-771 -1372 0
-772 -1373 0
-773 -1374 0
-774 -1375 0
-770 -1398 0
-771 -1399 0
-772 -1401 0
-773 -1402 0
-774 -1403 0
-769 -1405 0
-772 -1408 0
-773 -1409 0
-774 -1410 0
-768 -1417 0
-769 -1418 0
-771 -1420 0
-773 -1422 0
-774 -1423 0
-770 -1473 0
-771 -1474 0
-772 -1476 0
-774 -1477 0
-770 -1487 0
-772 -1489 0
-773 -1490 0
-774 -1491 0
-770 -1494 0
-771 -1495 0
-773 -1497 0
-774 -1498 0
-769 -1510 0
-772 -1512 0
-774 -1513 0
-771 -1517 0
-772 -1518 0
-774 -1519 0
-769 -1528 0
-771 -1529 0
-774 -1531 0
-772 -1536 0
-773 -1537 0
-774 -1538 0
-768 -1546 0
-773 -1550 0
-774 -1551 0
-769 -1554 0
-773 -1557 0
-774 -1558 0
-768 -1566 0
-771 -1570 0
-772 -1572 0
-773 -1573 0
-774 -1574 0
-771 -1589 0
-772 -1591 0
-774 -1592 0
-769 -1601 0
-770 -1602 0
-771 -1603 0
-772 -1605 0
-774 -1606 0
-770 -1610 0
-771 -1611 0
-774 -1613 0
-768 -1621 0
-770 -1623 0
-771 -1624 0
-772 -1625 0
-774 -1626 0
-769 -1629 0
-770 -1630 0
-771 -1631 0
-772 -1632 0
-774 -1633 0
-770 -1636 0
-771 -1637 0
-773 -1638 0
-774 -1639 0
-769 -1647 0
-770 -1649 0
-771 -1650 0
-772 -1652 0
-773 -1653 0
-774 -1654 0
-768 -1661 0
-770 -1664 0
-771 -1665 0
-773 -1666 0
-774 -1667 0
-770 -1682 0
-771 -1683 0
-772 -1684 0
-773 -1685 0
-774 -1686 0
-769 -1688 0
-771 -1690 0
-772 -1692 0
-774 -1693 0
-768 -1701 0
-769 -1703 0
-771 -1705 0
-774 -1706 0
-768 -1722 0
-769 -1723 0
-771 -1725 0
-773 -1727 0
-774 -1728 0
-769 -1762 0
-772 -1765 0
-773 -1766 0
-774 -1767 0
-771 -1770 0
-773 -1772 0
-774 -1773 0
-770 -1789 0
-771 -1790 0
-772 -1791 0
-773 -1792 0
-774 -1793 0
-769 -1800 0
-772 -1803 0
-773 -1804 0
-774 -1805 0
-769 -1824 0
-770 -1825 0
-771 -1826 0
-773 -1828 0
-774 -1829 0
-771 -1881 0
-773 -1883 0
-774 -1884 0
-768 -1892 0
-771 -1894 0
-772 -1896 0
-773 -1897 0
-774 -1898 0
-770 -1906 0
-771 -1907 0
-772 -1909 0
-774 -1910 0
-768 -1918 0
-770 -1921 0
-771 -1922 0
-772 -1923 0
-774 -1924 0
-770 -1927 0
-772 -1928 0
-773 -1929 0
-774 -1930 0
-768 -1937 0
-770 -1938 0
-772 -1940 0
-773 -1941 0
-774 -1942 0
-770 -1953 0
-771 -1954 0
-772 -1956 0
-773 -1957 0
-774 -1958 0
-777 -790 0
-779 -791 0
-780 -792 0
-776 -818 0
-777 -819 0
-780 -820 0
-776 -825 0
-777 -828 0
-779 -829 0
-780 -830 0
-777 -868 0
-778 -869 0
-779 -870 0
-780 -871 0
-776 -881 0
-777 -883 0
-778 -884 0
-780 -885 0
-775 -894 0
-780 -897 0
-775 -901 0
-779 -903 0
-780 -904 0
-776 -925 0
-779 -927 0
-780 -928 0
-775 -932 0
-776 -933 0
-780 -935 0
-776 -939 0
-778 -942 0
-779 -943 0
-780 -944 0
-778 -971 0
-780 -972 0
-778 -977 0
-779 -978 0
-780 -979 0
-778 -998 0
-779 -999 0
-780 -1000 0
-775 -1003 0
-778 -1006 0
-780 -1007 0
-776 -1017 0
-780 -1020 0
-776 -1023 0
-779 -1026 0
-780 -1027 0
-775 -1037 0
-777 -1038 0
-778 -1039 0
-780 -1040 0
-775 -1043 0
-777 -1046 0
-778 -1047 0
-779 -1048 0
-780 -1049 0
-776 -1065 0
-777 -1067 0
-778 -1068 0
-779 -1069 0
-780 -1070 0
-776 -1073 0
-777 -1075 0
-778 -1076 0
-780 -1077 0
-775 -1081 0
-776 -1082 0
-777 -1084 0
-778 -1085 0
-780 -1086 0
-776 -1089 0
-777 -1090 0
-779 -1091 0
-780 -1092 0
-777 -1109 0
-780 -1110 0
-777 -1114 0
-779 -1115 0
-780 -1116 0
-777 -1131 0
-778 -1132 0
-779 -1133 0
-780 -1134 0
-775 -1136 0
-777 -1138 0
-778 -1139 0
-780 -1140 0
-776 -1156 0
-777 -1157 0
-778 -1158 0
-779 -1159 0
-780 -1160 0
-776 -1162 0
-777 -1164 0
-778 -1165 0
-780 -1166 0
-775 -1169 0
-778 -1171 0
-780 -1172 0
-775 -1188 0
-776 -1189 0
-778 -1190 0
-779 -1191 0
-780 -1192 0
-775 -1195 0
-776 -1196 0
-780 -1198 0
-775 -1200 0
-776 -1201 0
-779 -1203 0
-780 -1204 0
-779 -1221 0
-780 -1222 0
-775 -1241 0
-778 -1244 0
-779 -1245 0
-780 -1246 0
-776 -1268 0
-778 -1270 0
-779 -1271 0
-780 -1272 0
-775 -1274 0
-776 -1275 0
-777 -1277 0
-779 -1278 0
-780 -1279 0
-776 -1296 0
-777 -1299 0
-780 -1300 0
-775 -1303 0
-776 -1304 0
-777 -1305 0
-779 -1306 0
-780 -1307 0
-777 -1310 0
-778 -1311 0
-779 -1312 0
-780 -1313 0
-776 -1328 0
-777 -1331 0
-778 -1332 0
-779 -1333 0
-780 -1334 0
-776 -1337 0
-777 -1338 0
-778 -1339 0
-779 -1340 0
-780 -1341 0
-775 -1350 0
-776 -1351 0
-779 -1354 0
-780 -1355 0
-775 -1364 0
-778 -1366 0
-779 -1367 0
-780 -1368 0
-775 -1370 0
-778 -1373 0
-779 -1374 0
-780 -1375 0
-776 -1392 0
-778 -1395 0
-780 -1396 0
-775 -1405 0
-776 -1406 0
-777 -1407 0
-778 -1408 0
-779 -1409 0
-780 -1410 0
-775 -1425 0
-776 -1426 0
-777 -1428 0
-778 -1429 0
-780 -1430 0
-775 -1431 0
-777 -1434 0
-779 -1435 0
-780 -1436 0
-776 -1444 0
-777 -1447 0
-780 -1448 0
-779 -1467 0
-780 -1468 0
-775 -1501 0
-776 -1502 0
-777 -1505 0
-779 -1506 0
-780 -1507 0
-777 -1523 0
-779 -1524 0
-780 -1525 0
-775 -1528 0
-777 -1530 0
-780 -1531 0
-776 -1534 0
-777 -1535 0
-778 -1536 0
-779 -1537 0
-780 -1538 0
-776 -1561 0
-777 -1563 0
-778 -1564 0
-780 -1565 0
-776 -1569 0
-777 -1571 0
-778 -1572 0
-779 -1573 0
-780 -1574 0
-776 -1582 0
-777 -1584 0
-779 -1585 0
-780 -1586 0
-775 -1594 0
-776 -1595 0
-778 -1597 0
-779 -1598 0
-780 -1599 0
-778 -1618 0
-779 -1619 0
-780 -1620 0
-778 -1625 0
-780 -1626 0
-775 -1629 0
-778 -1632 0
-780 -1633 0
-776 -1635 0
-779 -1638 0
-780 -1639 0
-776 -1657 0
-780 -1660 0
-776 -1663 0
-779 -1666 0
-780 -1667 0
-778 -1684 0
-779 -1685 0
-780 -1686 0
-775 -1688 0
-776 -1689 0
-777 -1691 0
-778 -1692 0
-780 -1693 0
-775 -1709 0
-777 -1712 0
-778 -1713 0
-779 -1714 0
-780 -1715 0
-775 -1717 0
-776 -1718 0
-777 -1720 0
-780 -1721 0
-775 -1723 0
-776 -1724 0
-777 -1726 0
-779 -1727 0
-780 -1728 0
-776 -1745 0
-777 -1747 0
-779 -1748 0
-780 -1749 0
-776 -1751 0
-777 -1754 0
-780 -1755 0
-775 -1762 0
-776 -1763 0
-777 -1764 0
-778 -1765 0
-779 -1766 0
-780 -1767 0
-776 -1781 0
-777 -1784 0
-778 -1785 0
-779 -1786 0
-780 -1787 0
-778 -1791 0
-779 -1792 0
-780 -1793 0
-775 -1800 0
-776 -1801 0
-777 -1802 0
-778 -1803 0
-779 -1804 0
-780 -1805 0
-777 -1821 0
-778 -1822 0
-780 -1823 0
-775 -1830 0
-776 -1831 0
-778 -1834 0
-780 -1835 0
-777 -1908 0
-778 -1909 0
-780 -1910 0
-777 -1914 0
-778 -1915 0
-779 -1916 0
-780 -1917 0
-776 -1943 0
-777 -1946 0
-778 -1947 0
-779 -1948 0
-780 -1949 0
-783 -796 0
-786 -798 0
-784 -819 0
-786 -820 0
-786 -837 0
-782 -875 0
-783 -876 0
-786 -878 0
-782 -882 0
-784 -883 0
-786 -885 0
-781 -894 0
-782 -895 0
-783 -896 0
-786 -897 0
-781 -908 0
-782 -910 0
-783 -911 0
-784 -912 0
-786 -914 0
-782 -918 0
-784 -919 0
-786 -921 0
-781 -932 0
-782 -934 0
-786 -935 0
-783 -948 0
-784 -949 0
-786 -950 0
-783 -970 0
-786 -972 0
-783 -984 0
-784 -985 0
-786 -986 0
-782 -990 0
-783 -991 0
-784 -992 0
-786 -993 0
-781 -1003 0
-782 -1004 0
-783 -1005 0
-786 -1007 0
-782 -1018 0
-783 -1019 0
-786 -1020 0
-782 -1030 0
-783 -1031 0
-784 -1032 0
-786 -1034 0
-781 -1037 0
-784 -1038 0
-786 -1040 0
-781 -1052 0
-786 -1055 0
-783 -1059 0
-784 -1060 0
-786 -1061 0
-783 -1074 0
-784 -1075 0
-786 -1077 0
-781 -1081 0
-783 -1083 0
-784 -1084 0
-786 -1086 0
-782 -1095 0
-783 -1096 0
-786 -1098 0
-782 -1108 0
-784 -1109 0
-786 -1110 0
-782 -1120 0
-786 -1122 0
-782 -1125 0
-784 -1126 0
-786 -1128 0
-781 -1136 0
-782 -1137 0
-784 -1138 0
-786 -1140 0
-782 -1149 0
-783 -1150 0
-784 -1151 0
-786 -1153 0
-783 -1163 0
-784 -1164 0
-786 -1166 0
-781 -1169 0
-782 -1170 0
-786 -1172 0
-781 -1181 0
-782 -1182 0
-783 -1183 0
-784 -1184 0
-786 -1185 0
-781 -1195 0
-783 -1197 0
-786 -1198 0
-781 -1206 0
-783 -1207 0
-784 -1208 0
-786 -1210 0
-784 -1214 0
-786 -1216 0
-781 -1234 0
-782 -1236 0
-784 -1237 0
-786 -1239 0
-782 -1263 0
-783 -1264 0
-784 -1265 0
-786 -1266 0
-781 -1281 0
-783 -1283 0
-785 -1285 0
-786 -1286 0
-784 -1290 0
-785 -1292 0
-786 -1293 0
-781 -1303 0
-784 -1305 0
-785 -1306 0
-786 -1307 0
-782 -1316 0
-783 -1317 0
-785 -1318 0
-786 -1319 0
-782 -1329 0
-783 -1330 0
-784 -1331 0
-785 -1333 0
-786 -1334 0
-782 -1345 0
-783 -1346 0
-785 -1347 0
-786 -1348 0
-781 -1350 0
-782 -1352 0
-783 -1353 0
-785 -1354 0
-786 -1355 0
-781 -1364 0
-783 -1365 0
-785 -1367 0
-786 -1368 0
-781 -1377 0
-783 -1379 0
-784 -1380 0
-785 -1381 0
-786 -1382 0
-783 -1385 0
-784 -1386 0
-785 -1388 0
-786 -1389 0
-782 -1398 0
-783 -1399 0
-784 -1400 0
-785 -1402 0
-786 -1403 0
-781 -1405 0
-784 -1407 0
-785 -1409 0
-786 -1410 0
-781 -1418 0
-783 -1420 0
-784 -1421 0
-785 -1422 0
-786 -1423 0
-781 -1431 0
-782 -1432 0
-783 -1433 0
-784 -1434 0
-785 -1435 0
-786 -1436 0
-782 -1438 0
-784 -1439 0
-785 -1441 0
-786 -1442 0
-782 -1473 0
-783 -1474 0
-784 -1475 0
-786 -1477 0
-781 -1510 0
-784 -1511 0
-786 -1513 0
-783 -1517 0
-786 -1519 0
-781 -1528 0
-783 -1529 0
-784 -1530 0
-786 -1531 0
-782 -1542 0
-783 -1543 0
-784 -1544 0
-786 -1545 0
-782 -1562 0
-784 -1563 0
-786 -1565 0
-782 -1578 0
-784 -1579 0
-786 -1580 0
-783 -1589 0
-784 -1590 0
-786 -1592 0
-781 -1601 0
-782 -1602 0
-783 -1603 0
-784 -1604 0
-786 -1606 0
-782 -1610 0
-783 -1611 0
-784 -1612 0
-786 -1613 0
-782 -1623 0
-783 -1624 0
-786 -1626 0
-781 -1629 0
-782 -1630 0
-783 -1631 0
-786 -1633 0
-782 -1642 0
-784 -1643 0
-786 -1645 0
-782 -1658 0
-783 -1659 0
-786 -1660 0
-782 -1670 0
-783 -1671 0
-784 -1672 0
-786 -1674 0
-783 -1677 0
-784 -1678 0
-786 -1680 0
-781 -1688 0
-783 -1690 0
-784 -1691 0
-786 -1693 0
-781 -1703 0
-783 -1705 0
-786 -1706 0
-781 -1717 0
-782 -1719 0
-784 -1720 0
-786 -1721 0
-781 -1730 0
-782 -1732 0
-784 -1733 0
-786 -1735 0
-782 -1739 0
-783 -1740 0
-786 -1742 0
-782 -1752 0
-783 -1753 0
-784 -1754 0
-786 -1755 0
-781 -1756 0
-782 -1758 0
-783 -1759 0
-786 -1761 0
-782 -1796 0
-784 -1797 0
-785 -1798 0
-786 -1799 0
-781 -1806 0
-782 -1807 0
-783 -1808 0
-784 -1809 0
-785 -1810 0
-786 -1811 0
-782 -1814 0
-785 -1816 0
-786 -1817 0
-781 -1824 0
-782 -1825 0
-783 -1826 0
-784 -1827 0
-785 -1828 0
-786 -1829 0
-782 -1837 0
-783 -1838 0
-784 -1839 0
-785 -1841 0
-786 -1842 0
-782 -1906 0
-783 -1907 0
-784 -1908 0
-786 -1910 0
-782 -1921 0
-783 -1922 0
-786 -1924 0
-787 -981 0
-790 -985 0
-792 -986 0
-789 -1030 0
-790 -1032 0
-792 -1034 0
-789 -1120 0
-792 -1122 0
-790 -1157 0
-791 -1159 0
-792 -1160 0
-787 -1187 0
-791 -1191 0
-792 -1192 0
-790 -1208 0
-792 -1210 0
-787 -1218 0
-789 -1219 0
-791 -1221 0
-792 -1222 0
-789 -1242 0
-791 -1245 0
-792 -1246 0
-787 -1255 0
-790 -1257 0
-791 -1259 0
-792 -1260 0
-791 -1271 0
-792 -1272 0
-789 -1345 0
-791 -1347 0
-792 -1348 0
-790 -1380 0
-791 -1381 0
-792 -1382 0
-787 -1391 0
-789 -1393 0
-792 -1396 0
-789 -1427 0
-790 -1428 0
-792 -1430 0
-789 -1445 0
-790 -1447 0
-792 -1448 0
-789 -1451 0
-790 -1453 0
-791 -1455 0
-792 -1456 0
-787 -1469 0
-788 -1470 0
-789 -1473 0
-790 -1475 0
-792 -1477 0
-788 -1485 0
-789 -1487 0
-790 -1488 0
-791 -1490 0
-792 -1491 0
-787 -1492 0
-789 -1494 0
-790 -1496 0
-791 -1497 0
-792 -1498 0
-787 -1508 0
-788 -1509 0
-790 -1511 0
-792 -1513 0
-787 -1520 0
-788 -1521 0
-789 -1522 0
-790 -1523 0
-791 -1524 0
-792 -1525 0
-787 -1526 0
-790 -1530 0
-792 -1531 0
-787 -1539 0
-788 -1540 0
-789 -1542 0
-790 -1544 0
-792 -1545 0
-788 -1547 0
-790 -1549 0
-791 -1550 0
-792 -1551 0
-787 -1552 0
-790 -1556 0
-791 -1557 0
-792 -1558 0
-787 -1559 0
-789 -1562 0
-790 -1563 0
-792 -1565 0
-787 -1567 0
-790 -1571 0
-791 -1573 0
-792 -1574 0
-789 -1583 0
-790 -1584 0
-791 -1585 0
-792 -1586 0
-788 -1600 0
-789 -1602 0
-790 -1604 0
-792 -1606 0
-787 -1614 0
-788 -1615 0
-789 -1616 0
-791 -1619 0
-792 -1620 0
-788 -1622 0
-789 -1623 0
-792 -1626 0
-787 -1627 0
-789 -1630 0
-792 -1633 0
-788 -1640 0
-789 -1642 0
-790 -1643 0
-792 -1645 0
-789 -1649 0
-790 -1651 0
-791 -1653 0
-792 -1654 0
-787 -1655 0
-789 -1658 0
-792 -1660 0
-789 -1664 0
-791 -1666 0
-792 -1667 0
-790 -1678 0
-792 -1680 0
-787 -1687 0
-790 -1691 0
-792 -1693 0
-787 -1694 0
-789 -1697 0
-791 -1699 0
-792 -1700 0
-787 -1702 0
-792 -1706 0
-787 -1716 0
-789 -1719 0
-790 -1720 0
-792 -1721 0
-790 -1726 0
-791 -1727 0
-792 -1728 0
-787 -1737 0
-789 -1739 0
-792 -1742 0
-789 -1758 0
-792 -1761 0
-787 -1768 0
-790 -1771 0
-791 -1772 0
-792 -1773 0
-789 -1789 0
-791 -1792 0
-792 -1793 0
-790 -1802 0
-791 -1804 0
-792 -1805 0
-787 -1812 0
-789 -1814 0
-791 -1816 0
-792 -1817 0
-789 -1825 0
-790 -1827 0
-791 -1828 0
-792 -1829 0
-789 -1837 0
-790 -1839 0
-791 -1841 0
-792 -1842 0
-787 -1893 0
-790 -1895 0
-791 -1897 0
-792 -1898 0
-787 -1919 0
-789 -1921 0
-792 -1924 0
-789 -1938 0
-790 -1939 0
-791 -1941 0
-792 -1942 0
-789 -1953 0
-790 -1955 0
-791 -1957 0
-792 -1958 0
-793 -974 0
-797 -977 0
-798 -979 0
-795 -1023 0
-796 -1025 0
-798 -1027 0
-796 -1113 0
-798 -1116 0
-796 -1150 0
-797 -1152 0
-798 -1153 0
-793 -1180 0
-796 -1183 0
-798 -1185 0
-795 -1201 0
-798 -1204 0
-793 -1212 0
-795 -1213 0
-797 -1215 0
-798 -1216 0
-795 -1235 0
-797 -1238 0
-798 -1239 0
-793 -1248 0
-795 -1249 0
-798 -1253 0
-795 -1262 0
-796 -1264 0
-798 -1266 0
-795 -1337 0
-797 -1339 0
-798 -1341 0
-796 -1372 0
-797 -1373 0
-798 -1375 0
-793 -1384 0
-796 -1385 0
-797 -1387 0
-798 -1389 0
-795 -1397 0
-796 -1399 0
-797 -1401 0
-798 -1403 0
-795 -1419 0
-796 -1420 0
-798 -1423 0
-797 -1440 0
-798 -1442 0
-793 -1463 0
-794 -1464 0
-796 -1466 0
-798 -1468 0
-794 -1478 0
-795 -1480 0
-796 -1481 0
-798 -1484 0
-793 -1492 0
-796 -1495 0
-798 -1498 0
-793 -1499 0
-794 -1500 0
-795 -1502 0
-796 -1504 0
-798 -1507 0
-793 -1514 0
-794 -1515 0
-795 -1516 0
-796 -1517 0
-797 -1518 0
-798 -1519 0
-793 -1526 0
-796 -1529 0
-798 -1531 0
-793 -1532 0
-794 -1533 0
-795 -1534 0
-797 -1536 0
-798 -1538 0
-794 -1547 0
-795 -1548 0
-798 -1551 0
-793 -1552 0
-795 -1555 0
-798 -1558 0
-793 -1559 0
-795 -1561 0
-797 -1564 0
-798 -1565 0
-793 -1576 0
-798 -1580 0
-795 -1588 0
-796 -1589 0
-797 -1591 0
-798 -1592 0
-794 -1593 0
-795 -1595 0
-796 -1596 0
-797 -1597 0
-798 -1599 0
-793 -1607 0
-794 -1608 0
-795 -1609 0
-796 -1611 0
-798 -1613 0
-794 -1622 0
-796 -1624 0
-797 -1625 0
-798 -1626 0
-793 -1627 0
-796 -1631 0
-797 -1632 0
-798 -1633 0
-794 -1634 0
-795 -1635 0
-796 -1637 0
-798 -1639 0
-795 -1648 0
-796 -1650 0
-797 -1652 0
-798 -1654 0
-793 -1655 0
-795 -1657 0
-796 -1659 0
-798 -1660 0
-796 -1671 0
-797 -1673 0
-798 -1674 0
-796 -1683 0
-797 -1684 0
-798 -1686 0
-793 -1687 0
-795 -1689 0
-796 -1690 0
-797 -1692 0
-798 -1693 0
-793 -1694 0
-795 -1696 0
-796 -1698 0
-798 -1700 0
-793 -1708 0
-796 -1711 0
-797 -1713 0
-798 -1715 0
-793 -1716 0
-795 -1718 0
-798 -1721 0
-795 -1731 0
-797 -1734 0
-798 -1735 0
-793 -1744 0
-795 -1745 0
-798 -1749 0
-795 -1763 0
-797 -1765 0
-798 -1767 0
-793 -1774 0
-795 -1775 0
-797 -1777 0
-798 -1779 0
-795 -1781 0
-796 -1783 0
-797 -1785 0
-798 -1787 0
-795 -1795 0
-798 -1799 0
-796 -1808 0
-798 -1811 0
-793 -1818 0
-796 -1820 0
-797 -1822 0
-798 -1823 0
-795 -1831 0
-796 -1833 0
-797 -1834 0
-798 -1835 0
-793 -1886 0
-795 -1887 0
-798 -1891 0
-793 -1912 0
-796 -1913 0
-797 -1915 0
-798 -1917 0
-795 -1932 0
-796 -1933 0
-797 -1934 0
-798 -1936 0
-795 -1943 0
-796 -1945 0
-797 -1947 0
-798 -1949 0
-799 -967 0
-803 -971 0
-805 -972 0
-802 -1010 0
-804 -1013 0
-805 -1014 0
-801 -1017 0
-802 -1018 0
-805 -1020 0
-799 -1105 0
-802 -1108 0
-805 -1110 0
-803 -1144 0
-804 -1145 0
-805 -1146 0
-801 -1162 0
-803 -1165 0
-805 -1166 0
-799 -1173 0
-804 -1177 0
-805 -1178 0
-799 -1193 0
-801 -1196 0
-805 -1198 0
-799 -1211 0
-801 -1213 0
-803 -1215 0
-805 -1216 0
-799 -1217 0
-802 -1219 0
-804 -1221 0
-805 -1222 0
-801 -1226 0
-802 -1227 0
-803 -1230 0
-804 -1231 0
-805 -1232 0
-799 -1247 0
-801 -1249 0
-802 -1250 0
-804 -1252 0
-805 -1253 0
-799 -1254 0
-803 -1258 0
-804 -1259 0
-805 -1260 0
-799 -1261 0
-801 -1262 0
-802 -1263 0
-805 -1266 0
-799 -1267 0
-801 -1268 0
-803 -1270 0
-804 -1271 0
-805 -1272 0
-801 -1328 0
-802 -1329 0
-803 -1332 0
-804 -1333 0
-805 -1334 0
-801 -1358 0
-803 -1361 0
-805 -1362 0
-803 -1366 0
-804 -1367 0
-805 -1368 0
-799 -1383 0
-803 -1387 0
-804 -1388 0
-805 -1389 0
-799 -1390 0
-801 -1392 0
-802 -1393 0
-803 -1395 0
-805 -1396 0
-801 -1397 0
-802 -1398 0
-803 -1401 0
-804 -1402 0
-805 -1403 0
-801 -1413 0
-802 -1414 0
-805 -1416 0
-802 -1432 0
-804 -1435 0
-805 -1436 0
-799 -1437 0
-802 -1438 0
-803 -1440 0
-804 -1441 0
-805 -1442 0
-799 -1443 0
-801 -1444 0
-802 -1445 0
-805 -1448 0
-801 -1450 0
-802 -1451 0
-803 -1454 0
-804 -1455 0
-805 -1456 0
-802 -1494 0
-804 -1497 0
-805 -1498 0
-800 -1515 0
-801 -1516 0
-803 -1518 0
-805 -1519 0
-800 -1521 0
-802 -1522 0
-804 -1524 0
-805 -1525 0
-805 -1531 0
-800 -1533 0
-801 -1534 0
-803 -1536 0
-804 -1537 0
-805 -1538 0
-800 -1540 0
-801 -1541 0
-802 -1542 0
-805 -1545 0
-801 -1555 0
-804 -1557 0
-805 -1558 0
-799 -1566 0
-801 -1569 0
-803 -1572 0
-804 -1573 0
-805 -1574 0
-799 -1575 0
-802 -1578 0
-805 -1580 0
-801 -1582 0
-802 -1583 0
-804 -1585 0
-805 -1586 0
-801 -1588 0
-803 -1591 0
-805 -1592 0
-800 -1608 0
-801 -1609 0
-802 -1610 0
-805 -1613 0
-800 -1615 0
-802 -1616 0
-803 -1618 0
-804 -1619 0
-805 -1620 0
-802 -1630 0
-803 -1632 0
-805 -1633 0
-800 -1634 0
-801 -1635 0
-802 -1636 0
-804 -1638 0
-805 -1639 0
-800 -1640 0
-801 -1641 0
-802 -1642 0
-803 -1644 0
-805 -1645 0
-801 -1648 0
-802 -1649 0
-803 -1652 0
-804 -1653 0
-805 -1654 0
-799 -1661 0
-801 -1663 0
-802 -1664 0
-804 -1666 0
-805 -1667 0
-799 -1668 0
-802 -1670 0
-803 -1673 0
-805 -1674 0
-801 -1676 0
-803 -1679 0
-805 -1680 0
-802 -1682 0
-803 -1684 0
-804 -1685 0
-805 -1686 0
-801 -1689 0
-803 -1692 0
-805 -1693 0
-799 -1701 0
-801 -1704 0
-805 -1706 0
-799 -1707 0
-802 -1710 0
-803 -1713 0
-804 -1714 0
-805 -1715 0
-799 -1722 0
-801 -1724 0
-804 -1727 0
-805 -1728 0
-799 -1729 0
-801 -1731 0
-802 -1732 0
-803 -1734 0
-805 -1735 0
-799 -1750 0
-801 -1751 0
-802 -1752 0
-805 -1755 0
-801 -1757 0
-802 -1758 0
-803 -1760 0
-805 -1761 0
-801 -1763 0
-803 -1765 0
-804 -1766 0
-805 -1767 0
-802 -1789 0
-803 -1791 0
-804 -1792 0
-805 -1793 0
-801 -1795 0
-802 -1796 0
-804 -1798 0
-805 -1799 0
-801 -1801 0
-803 -1803 0
-804 -1804 0
-805 -1805 0
-802 -1807 0
-804 -1810 0
-805 -1811 0
-802 -1825 0
-804 -1828 0
-805 -1829 0
-801 -1831 0
-802 -1832 0
-803 -1834 0
-805 -1835 0
-801 -1880 0
-804 -1883 0
-805 -1884 0
-802 -1906 0
-803 -1909 0
-805 -1910 0
-801 -1926 0
-802 -1927 0
-803 -1928 0
-804 -1929 0
-805 -1930 0
-806 -1212 0
-810 -1213 0
-812 -1215 0
-814 -1216 0
-806 -1218 0
-811 -1219 0
-813 -1221 0
-814 -1222 0
-806 -1248 0
-810 -1249 0
-811 -1250 0
-813 -1252 0
-814 -1253 0
-806 -1255 0
-812 -1258 0
-813 -1259 0
-814 -1260 0
-810 -1262 0
-811 -1263 0
-814 -1266 0
-810 -1268 0
-812 -1270 0
-813 -1271 0
-814 -1272 0
-806 -1384 0
-812 -1387 0
-813 -1388 0
-814 -1389 0
-806 -1391 0
-810 -1392 0
-811 -1393 0
-812 -1395 0
-814 -1396 0
-810 -1397 0
-811 -1398 0
-812 -1401 0
-813 -1402 0
-814 -1403 0
-811 -1438 0
-812 -1440 0
-813 -1441 0
-814 -1442 0
-810 -1444 0
-811 -1445 0
-814 -1448 0
-810 -1450 0
-811 -1451 0
-812 -1454 0
-813 -1455 0
-814 -1456 0
-806 -1514 0
-807 -1515 0
-810 -1516 0
-812 -1518 0
-814 -1519 0
-806 -1520 0
-807 -1521 0
-811 -1522 0
-813 -1524 0
-814 -1525 0
-806 -1532 0
-807 -1533 0
-810 -1534 0
-812 -1536 0
-813 -1537 0
-814 -1538 0
-806 -1539 0
-807 -1540 0
-810 -1541 0
-811 -1542 0
-814 -1545 0
-807 -1547 0
-810 -1548 0
-813 -1550 0
-814 -1551 0
-806 -1559 0
-808 -1560 0
-810 -1561 0
-811 -1562 0
-812 -1564 0
-814 -1565 0
-806 -1567 0
-808 -1568 0
-810 -1569 0
-812 -1572 0
-813 -1573 0
-814 -1574 0
-806 -1576 0
-808 -1577 0
-811 -1578 0
-814 -1580 0
-808 -1581 0
-810 -1582 0
-811 -1583 0
-813 -1585 0
-814 -1586 0
-808 -1587 0
-810 -1588 0
-812 -1591 0
-814 -1592 0
-806 -1607 0
-807 -1608 0
-810 -1609 0
-811 -1610 0
-814 -1613 0
-806 -1614 0
-807 -1615 0
-811 -1616 0
-812 -1618 0
-813 -1619 0
-814 -1620 0
-807 -1622 0
-811 -1623 0
-812 -1625 0
-814 -1626 0
-807 -1634 0
-810 -1635 0
-811 -1636 0
-813 -1638 0
-814 -1639 0
-807 -1640 0
-810 -1641 0
-811 -1642 0
-812 -1644 0
-814 -1645 0
-806 -1655 0
-808 -1656 0
-810 -1657 0
-811 -1658 0
-814 -1660 0
-808 -1662 0
-810 -1663 0
-811 -1664 0
-813 -1666 0
-814 -1667 0
-808 -1669 0
-811 -1670 0
-812 -1673 0
-814 -1674 0
-808 -1675 0
-810 -1676 0
-812 -1679 0
-814 -1680 0
-808 -1681 0
-811 -1682 0
-812 -1684 0
-813 -1685 0
-814 -1686 0
-806 -1694 0
-809 -1695 0
-810 -1696 0
-811 -1697 0
-813 -1699 0
-814 -1700 0
-806 -1702 0
-809 -1703 0
-810 -1704 0
-814 -1706 0
-806 -1708 0
-809 -1709 0
-811 -1710 0
-812 -1713 0
-813 -1714 0
-814 -1715 0
-806 -1716 0
-809 -1717 0
-810 -1718 0
-811 -1719 0
-814 -1721 0
-809 -1723 0
-810 -1724 0
-813 -1727 0
-814 -1728 0
-809 -1730 0
-810 -1731 0
-811 -1732 0
-812 -1734 0
-814 -1735 0
-809 -1756 0
-810 -1757 0
-811 -1758 0
-812 -1760 0
-814 -1761 0
-809 -1762 0
-810 -1763 0
-812 -1765 0
-813 -1766 0
-814 -1767 0
-808 -1788 0
-811 -1789 0
-812 -1791 0
-813 -1792 0
-814 -1793 0
-808 -1794 0
-810 -1795 0
-811 -1796 0
-813 -1798 0
-814 -1799 0
-809 -1800 0
-810 -1801 0
-812 -1803 0
-813 -1804 0
-814 -1805 0
-809 -1806 0
-811 -1807 0
-813 -1810 0
-814 -1811 0
-809 -1824 0
-811 -1825 0
-813 -1828 0
-814 -1829 0
-809 -1830 0
-810 -1831 0
-811 -1832 0
-812 -1834 0
-814 -1835 0
-816 -952 0
-819 -955 0
-820 -957 0
-817 -1022 0
-818 -1023 0
-820 -1027 0
-817 -1029 0
-819 -1032 0
-820 -1034 0
-818 -1201 0
-820 -1204 0
-819 -1208 0
-820 -1210 0
-818 -1235 0
-819 -1237 0
-820 -1239 0
-820 -1246 0
-818 -1262 0
-819 -1265 0
-820 -1266 0
-818 -1268 0
-820 -1272 0
-820 -1375 0
-818 -1378 0
-819 -1380 0
-820 -1382 0
-818 -1397 0
-819 -1400 0
-820 -1403 0
-816 -1457 0
-819 -1459 0
-820 -1462 0
-816 -1478 0
-817 -1479 0
-818 -1480 0
-819 -1482 0
-820 -1484 0
-816 -1485 0
-817 -1486 0
-819 -1488 0
-820 -1491 0
-815 -1499 0
-816 -1500 0
-818 -1502 0
-819 -1505 0
-820 -1507 0
-815 -1508 0
-816 -1509 0
-819 -1511 0
-820 -1513 0
-815 -1532 0
-816 -1533 0
-818 -1534 0
-819 -1535 0
-820 -1538 0
-815 -1539 0
-816 -1540 0
-818 -1541 0
-819 -1544 0
-820 -1545 0
-815 -1552 0
-817 -1553 0
-818 -1555 0
-819 -1556 0
-820 -1558 0
-815 -1567 0
-817 -1568 0
-818 -1569 0
-819 -1571 0
-820 -1574 0
-815 -1576 0
-817 -1577 0
-819 -1579 0
-820 -1580 0
-816 -1593 0
-818 -1595 0
-820 -1599 0
-816 -1600 0
-819 -1604 0
-820 -1606 0
-816 -1622 0
-820 -1626 0
-816 -1634 0
-818 -1635 0
-820 -1639 0
-816 -1640 0
-818 -1641 0
-819 -1643 0
-820 -1645 0
-817 -1646 0
-818 -1648 0
-819 -1651 0
-820 -1654 0
-817 -1662 0
-818 -1663 0
-820 -1667 0
-817 -1669 0
-819 -1672 0
-820 -1674 0
-817 -1675 0
-818 -1676 0
-819 -1678 0
-820 -1680 0
-817 -1681 0
-820 -1686 0
-815 -1687 0
-818 -1689 0
-819 -1691 0
-820 -1693 0
-815 -1702 0
-818 -1704 0
-820 -1706 0
-815 -1708 0
-819 -1712 0
-820 -1715 0
-815 -1716 0
-818 -1718 0
-819 -1720 0
-820 -1721 0
-815 -1737 0
-818 -1738 0
-820 -1742 0
-815 -1744 0
-818 -1745 0
-819 -1747 0
-820 -1749 0
-815 -1768 0
-818 -1769 0
-819 -1771 0
-820 -1773 0
-815 -1774 0
-818 -1775 0
-820 -1779 0
-817 -1788 0
-820 -1793 0
-817 -1794 0
-818 -1795 0
-819 -1797 0
-820 -1799 0
-815 -1812 0
-818 -1813 0
-820 -1817 0
-815 -1818 0
-819 -1821 0
-820 -1823 0
-819 -1827 0
-820 -1829 0
-818 -1831 0
-820 -1835 0
-818 -1836 0
-819 -1839 0
-820 -1842 0
-815 -1886 0
-818 -1887 0
-819 -1889 0
-820 -1891 0
-815 -1893 0
-819 -1895 0
-820 -1898 0
-818 -1932 0
-820 -1936 0
-819 -1939 0
-820 -1942 0
-818 -1943 0
-819 -1946 0
-820 -1949 0
-818 -1952 0
-819 -1955 0
-820 -1958 0
-821 -945 0
-822 -946 0
-823 -947 0
-827 -948 0
-828 -949 0
-830 -950 0
-822 -994 0
-823 -995 0
-826 -996 0
-827 -997 0
-829 -999 0
-830 -1000 0
-822 -1015 0
-824 -1016 0
-825 -1017 0
-826 -1018 0
-827 -1019 0
-830 -1020 0
-821 -1028 0
-824 -1029 0
-826 -1030 0
-827 -1031 0
-828 -1032 0
-830 -1034 0
-821 -1093 0
-823 -1094 0
-826 -1095 0
-827 -1096 0
-830 -1098 0
-823 -1129 0
-827 -1130 0
-828 -1131 0
-829 -1133 0
-830 -1134 0
-824 -1161 0
-825 -1162 0
-827 -1163 0
-828 -1164 0
-830 -1166 0
-821 -1193 0
-822 -1194 0
-825 -1196 0
-827 -1197 0
-830 -1198 0
-821 -1205 0
-827 -1207 0
-828 -1208 0
-830 -1210 0
-821 -1217 0
-822 -1218 0
-826 -1219 0
-827 -1220 0
-829 -1221 0
-830 -1222 0
-822 -1224 0
-825 -1226 0
-826 -1227 0
-827 -1228 0
-828 -1229 0
-829 -1231 0
-830 -1232 0
-821 -1240 0
-826 -1242 0
-827 -1243 0
-829 -1245 0
-830 -1246 0
-821 -1254 0
-822 -1255 0
-827 -1256 0
-828 -1257 0
-829 -1259 0
-830 -1260 0
-821 -1261 0
-825 -1262 0
-826 -1263 0
-827 -1264 0
-828 -1265 0
-830 -1266 0
-823 -1314 0
-825 -1315 0
-826 -1316 0
-827 -1317 0
-829 -1318 0
-830 -1319 0
-822 -1363 0
-827 -1365 0
-829 -1367 0
-830 -1368 0
-821 -1376 0
-825 -1378 0
-827 -1379 0
-828 -1380 0
-829 -1381 0
-830 -1382 0
-821 -1390 0
-822 -1391 0
-825 -1392 0
-826 -1393 0
-827 -1394 0
-830 -1396 0
-825 -1397 0
-826 -1398 0
-827 -1399 0
-828 -1400 0
-829 -1402 0
-830 -1403 0
-826 -1432 0
-827 -1433 0
-828 -1434 0
-829 -1435 0
-830 -1436 0
-821 -1443 0
-825 -1444 0
-826 -1445 0
-827 -1446 0
-828 -1447 0
-830 -1448 0
-825 -1450 0
-826 -1451 0
-827 -1452 0
-828 -1453 0
-829 -1455 0
-830 -1456 0
-823 -1485 0
-824 -1486 0
-826 -1487 0
-828 -1488 0
-829 -1490 0
-830 -1491 0
-822 -1508 0
-823 -1509 0
-828 -1511 0
-830 -1513 0
-822 -1520 0
-823 -1521 0
-826 -1522 0
-828 -1523 0
-829 -1524 0
-830 -1525 0
-822 -1532 0
-823 -1533 0
-825 -1534 0
-828 -1535 0
-829 -1537 0
-830 -1538 0
-821 -1546 0
-823 -1547 0
-825 -1548 0
-828 -1549 0
-829 -1550 0
-830 -1551 0
-822 -1552 0
-824 -1553 0
-825 -1555 0
-828 -1556 0
-829 -1557 0
-830 -1558 0
-822 -1559 0
-824 -1560 0
-825 -1561 0
-826 -1562 0
-828 -1563 0
-830 -1565 0
-821 -1575 0
-822 -1576 0
-824 -1577 0
-826 -1578 0
-828 -1579 0
-830 -1580 0
-824 -1581 0
-825 -1582 0
-826 -1583 0
-828 -1584 0
-829 -1585 0
-830 -1586 0
-823 -1600 0
-826 -1602 0
-827 -1603 0
-828 -1604 0
-830 -1606 0
-822 -1614 0
-823 -1615 0
-826 -1616 0
-827 -1617 0
-829 -1619 0
-830 -1620 0
-823 -1634 0
-825 -1635 0
-826 -1636 0
-827 -1637 0
-829 -1638 0
-830 -1639 0
-824 -1646 0
-825 -1648 0
-826 -1649 0
-827 -1650 0
-828 -1651 0
-829 -1653 0
-830 -1654 0
-822 -1655 0
-824 -1656 0
-825 -1657 0
-826 -1658 0
-827 -1659 0
-830 -1660 0
-821 -1668 0
-824 -1669 0
-826 -1670 0
-827 -1671 0
-828 -1672 0
-830 -1674 0
-824 -1681 0
-826 -1682 0
-827 -1683 0
-829 -1685 0
-830 -1686 0
-822 -1687 0
-825 -1689 0
-827 -1690 0
-828 -1691 0
-830 -1693 0
-822 -1694 0
-825 -1696 0
-826 -1697 0
-827 -1698 0
-829 -1699 0
-830 -1700 0
-821 -1707 0
-822 -1708 0
-826 -1710 0
-827 -1711 0
-828 -1712 0
-829 -1714 0
-830 -1715 0
-821 -1722 0
-825 -1724 0
-827 -1725 0
-828 -1726 0
-829 -1727 0
-830 -1728 0
-821 -1736 0
-822 -1737 0
-825 -1738 0
-826 -1739 0
-827 -1740 0
-830 -1742 0
-821 -1750 0
-825 -1751 0
-826 -1752 0
-827 -1753 0
-828 -1754 0
-830 -1755 0
-825 -1757 0
-826 -1758 0
-827 -1759 0
-830 -1761 0
-822 -1768 0
-825 -1769 0
-827 -1770 0
-828 -1771 0
-829 -1772 0
-830 -1773 0
-824 -1794 0
-825 -1795 0
-826 -1796 0
-828 -1797 0
-829 -1798 0
-830 -1799 0
-825 -1801 0
-828 -1802 0
-829 -1804 0
-830 -1805 0
-822 -1812 0
-825 -1813 0
-826 -1814 0
-829 -1816 0
-830 -1817 0
-825 -1831 0
-826 -1832 0
-827 -1833 0
-830 -1835 0
-825 -1836 0
-826 -1837 0
-827 -1838 0
-828 -1839 0
-829 -1841 0
-830 -1842 0
-822 -1879 0
-825 -1880 0
-827 -1881 0
-828 -1882 0
-829 -1883 0
-830 -1884 0
-821 -1892 0
-822 -1893 0
-827 -1894 0
-828 -1895 0
-829 -1897 0
-830 -1898 0
-822 -1925 0
-825 -1926 0
-826 -1927 0
-829 -1929 0
-830 -1930 0
-821 -1937 0
-826 -1938 0
-828 -1939 0
-829 -1941 0
-830 -1942 0
-825 -1952 0
-826 -1953 0
-827 -1954 0
-828 -1955 0
-829 -1957 0
-830 -1958 0
-831 -936 0
-832 -937 0
-833 -938 0
-835 -939 0
-836 -942 0
-837 -944 0
-832 -987 0
-833 -988 0
-835 -989 0
-837 -993 0
-832 -1015 0
-834 -1016 0
-835 -1017 0
-837 -1020 0
-831 -1021 0
-834 -1022 0
-835 -1023 0
-837 -1027 0
-831 -1087 0
-833 -1088 0
-835 -1089 0
-837 -1092 0
-833 -1123 0
-835 -1124 0
-836 -1127 0
-837 -1128 0
-834 -1161 0
-835 -1162 0
-836 -1165 0
-837 -1166 0
-831 -1193 0
-832 -1194 0
-835 -1196 0
-837 -1198 0
-831 -1199 0
-835 -1201 0
-837 -1204 0
-831 -1211 0
-832 -1212 0
-835 -1213 0
-836 -1215 0
-837 -1216 0
-832 -1224 0
-835 -1226 0
-836 -1230 0
-837 -1232 0
-831 -1233 0
-835 -1235 0
-836 -1238 0
-837 -1239 0
-831 -1247 0
-832 -1248 0
-835 -1249 0
-837 -1253 0
-831 -1267 0
-835 -1268 0
-836 -1270 0
-837 -1272 0
-833 -1308 0
-836 -1311 0
-837 -1313 0
-832 -1363 0
-836 -1366 0
-837 -1368 0
-831 -1369 0
-836 -1373 0
-837 -1375 0
-831 -1383 0
-832 -1384 0
-836 -1387 0
-837 -1389 0
-837 -1436 0
-831 -1437 0
-836 -1440 0
-837 -1442 0
-833 -1478 0
-834 -1479 0
-835 -1480 0
-837 -1484 0
-832 -1499 0
-833 -1500 0
-835 -1502 0
-837 -1507 0
-832 -1514 0
-833 -1515 0
-835 -1516 0
-836 -1518 0
-837 -1519 0
-832 -1539 0
-833 -1540 0
-835 -1541 0
-837 -1545 0
-831 -1546 0
-833 -1547 0
-835 -1548 0
-837 -1551 0
-832 -1552 0
-834 -1553 0
-835 -1555 0
-837 -1558 0
-832 -1559 0
-834 -1560 0
-835 -1561 0
-836 -1564 0
-837 -1565 0
-831 -1566 0
-832 -1567 0
-834 -1568 0
-835 -1569 0
-836 -1572 0
-837 -1574 0
-834 -1587 0
-835 -1588 0
-836 -1591 0
-837 -1592 0
-833 -1593 0
-835 -1595 0
-836 -1597 0
-837 -1599 0
-832 -1607 0
-833 -1608 0
-835 -1609 0
-837 -1613 0
-833 -1640 0
-835 -1641 0
-836 -1644 0
-837 -1645 0
-834 -1646 0
-835 -1648 0
-836 -1652 0
-837 -1654 0
-832 -1655 0
-834 -1656 0
-835 -1657 0
-837 -1660 0
-831 -1661 0
-834 -1662 0
-835 -1663 0
-837 -1667 0
-834 -1675 0
-835 -1676 0
-836 -1679 0
-837 -1680 0
-832 -1687 0
-835 -1689 0
-836 -1692 0
-837 -1693 0
-832 -1694 0
-835 -1696 0
-837 -1700 0
-831 -1701 0
-832 -1702 0
-835 -1704 0
-837 -1706 0
-831 -1729 0
-835 -1731 0
-836 -1734 0
-837 -1735 0
-831 -1743 0
-832 -1744 0
-835 -1745 0
-837 -1749 0
-831 -1750 0
-835 -1751 0
-837 -1755 0
-835 -1763 0
-836 -1765 0
-837 -1767 0
-832 -1774 0
-835 -1775 0
-836 -1777 0
-837 -1779 0
-834 -1788 0
-836 -1791 0
-837 -1793 0
-837 -1811 0
-832 -1818 0
-836 -1822 0
-837 -1823 0
-837 -1829 0
-832 -1879 0
-835 -1880 0
-837 -1884 0
-831 -1885 0
-832 -1886 0
-835 -1887 0
-837 -1891 0
-832 -1925 0
-835 -1926 0
-836 -1928 0
-837 -1930 0
-831 -1931 0
-835 -1932 0
-836 -1934 0
-837 -1936 0
-835 -1943 0
-836 -1947 0
-837 -1949 0
-839 -1072 0
-841 -1074 0
-843 -1077 0
-840 -1148 0
-841 -1150 0
-843 -1153 0
-840 -1155 0
-842 -1159 0
-843 -1160 0
-838 -1180 0
-841 -1183 0
-843 -1185 0
-838 -1187 0
-842 -1191 0
-843 -1192 0
-843 -1239 0
-841 -1243 0
-842 -1245 0
-843 -1246 0
-838 -1248 0
-842 -1252 0
-843 -1253 0
-838 -1255 0
-841 -1256 0
-842 -1259 0
-843 -1260 0
-841 -1420 0
-842 -1422 0
-843 -1423 0
-843 -1430 0
-841 -1452 0
-842 -1455 0
-843 -1456 0
-839 -1457 0
-841 -1458 0
-842 -1461 0
-843 -1462 0
-838 -1463 0
-839 -1464 0
-840 -1465 0
-841 -1466 0
-842 -1467 0
-843 -1468 0
-838 -1469 0
-839 -1470 0
-840 -1471 0
-841 -1474 0
-843 -1477 0
-838 -1499 0
-839 -1500 0
-841 -1504 0
-842 -1506 0
-843 -1507 0
-838 -1508 0
-839 -1509 0
-843 -1513 0
-838 -1514 0
-839 -1515 0
-841 -1517 0
-843 -1519 0
-838 -1520 0
-839 -1521 0
-842 -1524 0
-843 -1525 0
-838 -1526 0
-840 -1527 0
-841 -1529 0
-843 -1531 0
-839 -1547 0
-842 -1550 0
-843 -1551 0
-838 -1567 0
-840 -1568 0
-841 -1570 0
-842 -1573 0
-843 -1574 0
-838 -1576 0
-840 -1577 0
-843 -1580 0
-840 -1581 0
-842 -1585 0
-843 -1586 0
-840 -1587 0
-841 -1589 0
-843 -1592 0
-839 -1593 0
-841 -1596 0
-842 -1598 0
-843 -1599 0
-839 -1600 0
-841 -1603 0
-843 -1606 0
-838 -1607 0
-839 -1608 0
-841 -1611 0
-843 -1613 0
-838 -1614 0
-839 -1615 0
-841 -1617 0
-842 -1619 0
-843 -1620 0
-838 -1627 0
-840 -1628 0
-841 -1631 0
-843 -1633 0
-840 -1662 0
-841 -1665 0
-842 -1666 0
-843 -1667 0
-840 -1669 0
-841 -1671 0
-843 -1674 0
-838 -1687 0
-841 -1690 0
-843 -1693 0
-838 -1694 0
-841 -1698 0
-842 -1699 0
-843 -1700 0
-841 -1725 0
-842 -1727 0
-843 -1728 0
-843 -1735 0
-838 -1737 0
-841 -1740 0
-843 -1742 0
-838 -1744 0
-842 -1748 0
-843 -1749 0
-841 -1783 0
-842 -1786 0
-843 -1787 0
-840 -1788 0
-841 -1790 0
-842 -1792 0
-843 -1793 0
-840 -1794 0
-842 -1798 0
-843 -1799 0
-842 -1804 0
-843 -1805 0
-841 -1808 0
-842 -1810 0
-843 -1811 0
-838 -1812 0
-842 -1816 0
-843 -1817 0
-838 -1818 0
-841 -1820 0
-843 -1823 0
-841 -1838 0
-842 -1841 0
-843 -1842 0
-838 -1912 0
-841 -1913 0
-842 -1916 0
-843 -1917 0
-838 -1919 0
-841 -1922 0
-843 -1924 0
-841 -1945 0
-842 -1948 0
-843 -1949 0
-844 -922 0
-845 -924 0
-848 -927 0
-849 -928 0
-845 -995 0
-847 -996 0
-848 -999 0
-849 -1000 0
-846 -1009 0
-847 -1010 0
-848 -1013 0
-849 -1014 0
-844 -1062 0
-845 -1064 0
-847 -1066 0
-848 -1069 0
-849 -1070 0
-845 -1129 0
-848 -1133 0
-849 -1134 0
-846 -1142 0
-848 -1145 0
-849 -1146 0
-844 -1154 0
-846 -1155 0
-848 -1159 0
-849 -1160 0
-844 -1173 0
-848 -1177 0
-849 -1178 0
-844 -1186 0
-848 -1191 0
-849 -1192 0
-844 -1217 0
-847 -1219 0
-848 -1221 0
-849 -1222 0
-847 -1227 0
-848 -1231 0
-849 -1232 0
-844 -1240 0
-847 -1242 0
-848 -1245 0
-849 -1246 0
-844 -1247 0
-847 -1250 0
-848 -1252 0
-849 -1253 0
-844 -1267 0
-848 -1271 0
-849 -1272 0
-845 -1295 0
-847 -1297 0
-849 -1300 0
-849 -1362 0
-844 -1390 0
-847 -1393 0
-849 -1396 0
-847 -1414 0
-849 -1416 0
-844 -1424 0
-847 -1427 0
-849 -1430 0
-844 -1443 0
-847 -1445 0
-849 -1448 0
-845 -1470 0
-846 -1471 0
-847 -1473 0
-849 -1477 0
-845 -1509 0
-849 -1513 0
-845 -1515 0
-849 -1519 0
-846 -1527 0
-849 -1531 0
-845 -1540 0
-847 -1542 0
-849 -1545 0
-846 -1560 0
-847 -1562 0
-849 -1565 0
-844 -1575 0
-846 -1577 0
-847 -1578 0
-849 -1580 0
-846 -1587 0
-849 -1592 0
-845 -1600 0
-847 -1602 0
-849 -1606 0
-845 -1608 0
-847 -1610 0
-849 -1613 0
-844 -1621 0
-845 -1622 0
-847 -1623 0
-849 -1626 0
-846 -1628 0
-847 -1630 0
-849 -1633 0
-845 -1640 0
-847 -1642 0
-849 -1645 0
-846 -1656 0
-847 -1658 0
-849 -1660 0
-844 -1668 0
-846 -1669 0
-847 -1670 0
-849 -1674 0
-846 -1675 0
-849 -1680 0
-849 -1693 0
-844 -1701 0
-849 -1706 0
-847 -1719 0
-849 -1721 0
-844 -1729 0
-847 -1732 0
-849 -1735 0
-844 -1736 0
-847 -1739 0
-849 -1742 0
-844 -1750 0
-847 -1752 0
-849 -1755 0
-847 -1758 0
-849 -1761 0
-846 -1794 0
-847 -1796 0
-848 -1798 0
-849 -1799 0
-847 -1807 0
-848 -1810 0
-849 -1811 0
-847 -1814 0
-848 -1816 0
-849 -1817 0
-847 -1825 0
-848 -1828 0
-849 -1829 0
-847 -1837 0
-848 -1841 0
-849 -1842 0
-847 -1906 0
-849 -1910 0
-844 -1918 0
-847 -1921 0
-849 -1924 0
-850 -915 0
-851 -917 0
-855 -919 0
-856 -920 0
-858 -921 0
-851 -988 0
-853 -989 0
-854 -991 0
-855 -992 0
-858 -993 0
-852 -1009 0
-854 -1011 0
-855 -1012 0
-857 -1013 0
-858 -1014 0
-850 -1056 0
-851 -1058 0
-854 -1059 0
-855 -1060 0
-858 -1061 0
-851 -1123 0
-853 -1124 0
-855 -1126 0
-856 -1127 0
-858 -1128 0
-852 -1142 0
-855 -1143 0
-856 -1144 0
-857 -1145 0
-858 -1146 0
-850 -1147 0
-852 -1148 0
-854 -1150 0
-855 -1151 0
-856 -1152 0
-858 -1153 0
-850 -1173 0
-855 -1176 0
-857 -1177 0
-858 -1178 0
-850 -1179 0
-854 -1183 0
-855 -1184 0
-858 -1185 0
-850 -1211 0
-853 -1213 0
-855 -1214 0
-856 -1215 0
-858 -1216 0
-853 -1226 0
-854 -1228 0
-855 -1229 0
-856 -1230 0
-857 -1231 0
-858 -1232 0
-850 -1233 0
-853 -1235 0
-855 -1237 0
-856 -1238 0
-858 -1239 0
-850 -1254 0
-854 -1256 0
-855 -1257 0
-856 -1258 0
-857 -1259 0
-858 -1260 0
-850 -1261 0
-853 -1262 0
-854 -1264 0
-855 -1265 0
-858 -1266 0
-851 -1288 0
-853 -1289 0
-855 -1290 0
-856 -1291 0
-857 -1292 0
-858 -1293 0
-853 -1358 0
-854 -1359 0
-855 -1360 0
-856 -1361 0
-858 -1362 0
-850 -1383 0
-854 -1385 0
-855 -1386 0
-856 -1387 0
-857 -1388 0
-858 -1389 0
-853 -1397 0
-854 -1399 0
-855 -1400 0
-856 -1401 0
-857 -1402 0
-858 -1403 0
-853 -1413 0
-855 -1415 0
-858 -1416 0
-850 -1417 0
-853 -1419 0
-854 -1420 0
-855 -1421 0
-857 -1422 0
-858 -1423 0
-850 -1437 0
-855 -1439 0
-856 -1440 0
-857 -1441 0
-858 -1442 0
-853 -1450 0
-854 -1452 0
-855 -1453 0
-856 -1454 0
-857 -1455 0
-858 -1456 0
-851 -1464 0
-852 -1465 0
-854 -1466 0
-857 -1467 0
-858 -1468 0
-851 -1500 0
-853 -1502 0
-854 -1504 0
-855 -1505 0
-857 -1506 0
-858 -1507 0
-851 -1521 0
-855 -1523 0
-857 -1524 0
-858 -1525 0
-852 -1527 0
-854 -1529 0
-855 -1530 0
-858 -1531 0
-851 -1533 0
-853 -1534 0
-855 -1535 0
-856 -1536 0
-857 -1537 0
-858 -1538 0
-852 -1560 0
-853 -1561 0
-855 -1563 0
-856 -1564 0
-858 -1565 0
-850 -1566 0
-852 -1568 0
-853 -1569 0
-854 -1570 0
-855 -1571 0
-856 -1572 0
-857 -1573 0
-858 -1574 0
-852 -1581 0
-853 -1582 0
-855 -1584 0
-857 -1585 0
-858 -1586 0
-851 -1593 0
-853 -1595 0
-854 -1596 0
-856 -1597 0
-857 -1598 0
-858 -1599 0
-851 -1615 0
-854 -1617 0
-856 -1618 0
-857 -1619 0
-858 -1620 0
-850 -1621 0
-851 -1622 0
-854 -1624 0
-856 -1625 0
-858 -1626 0
-852 -1628 0
-854 -1631 0
-856 -1632 0
-858 -1633 0
-851 -1634 0
-853 -1635 0
-854 -1637 0
-857 -1638 0
-858 -1639 0
-852 -1656 0
-853 -1657 0
-854 -1659 0
-858 -1660 0
-850 -1661 0
-852 -1662 0
-853 -1663 0
-854 -1665 0
-857 -1666 0
-858 -1667 0
-852 -1681 0
-854 -1683 0
-856 -1684 0
-857 -1685 0
-858 -1686 0
-853 -1689 0
-854 -1690 0
-855 -1691 0
-856 -1692 0
-858 -1693 0
-850 -1707 0
-854 -1711 0
-855 -1712 0
-856 -1713 0
-857 -1714 0
-858 -1715 0
-853 -1718 0
-855 -1720 0
-858 -1721 0
-850 -1722 0
-853 -1724 0
-854 -1725 0
-855 -1726 0
-857 -1727 0
-858 -1728 0
-850 -1743 0
-853 -1745 0
-855 -1747 0
-857 -1748 0
-858 -1749 0
-850 -1750 0
-853 -1751 0
-854 -1753 0
-855 -1754 0
-858 -1755 0
-853 -1763 0
-855 -1764 0
-856 -1765 0
-857 -1766 0
-858 -1767 0
-853 -1781 0
-854 -1783 0
-855 -1784 0
-856 -1785 0
-857 -1786 0
-858 -1787 0
-852 -1788 0
-854 -1790 0
-856 -1791 0
-857 -1792 0
-858 -1793 0
-853 -1801 0
-855 -1802 0
-856 -1803 0
-857 -1804 0
-858 -1805 0
-854 -1820 0
-855 -1821 0
-856 -1822 0
-858 -1823 0
-853 -1831 0
-854 -1833 0
-856 -1834 0
-858 -1835 0
-854 -1907 0
-855 -1908 0
-856 -1909 0
-858 -1910 0
-850 -1911 0
-854 -1913 0
-855 -1914 0
-856 -1915 0
-857 -1916 0
-858 -1917 0
-853 -1943 0
-854 -1945 0
-855 -1946 0
-856 -1947 0
-857 -1948 0
-858 -1949 0
-860 -987 0
-862 -989 0
-864 -993 0
-860 -994 0
-863 -999 0
-864 -1000 0
-862 -1124 0
-864 -1128 0
-863 -1133 0
-864 -1134 0
-860 -1224 0
-862 -1226 0
-863 -1231 0
-864 -1232 0
-859 -1233 0
-862 -1235 0
-864 -1239 0
-859 -1240 0
-863 -1245 0
-864 -1246 0
-859 -1247 0
-860 -1248 0
-862 -1249 0
-863 -1252 0
-864 -1253 0
-859 -1254 0
-860 -1255 0
-863 -1259 0
-864 -1260 0
-859 -1261 0
-862 -1262 0
-864 -1266 0
-859 -1267 0
-862 -1268 0
-863 -1271 0
-864 -1272 0
-862 -1397 0
-863 -1402 0
-864 -1403 0
-862 -1450 0
-863 -1455 0
-864 -1456 0
-863 -1461 0
-864 -1462 0
-860 -1499 0
-862 -1502 0
-863 -1506 0
-864 -1507 0
-860 -1508 0
-864 -1513 0
-860 -1514 0
-862 -1516 0
-864 -1519 0
-860 -1520 0
-863 -1524 0
-864 -1525 0
-860 -1532 0
-862 -1534 0
-863 -1537 0
-864 -1538 0
-860 -1539 0
-862 -1541 0
-864 -1545 0
-859 -1546 0
-862 -1548 0
-863 -1550 0
-864 -1551 0
-861 -1581 0
-862 -1582 0
-863 -1585 0
-864 -1586 0
-861 -1587 0
-862 -1588 0
-864 -1592 0
-862 -1595 0
-863 -1598 0
-864 -1599 0
-864 -1606 0
-860 -1607 0
-862 -1609 0
-864 -1613 0
-860 -1614 0
-863 -1619 0
-864 -1620 0
-859 -1621 0
-864 -1626 0
-862 -1635 0
-863 -1638 0
-864 -1639 0
-862 -1641 0
-864 -1645 0
-861 -1675 0
-862 -1676 0
-864 -1680 0
-861 -1681 0
-863 -1685 0
-864 -1686 0
-860 -1687 0
-862 -1689 0
-864 -1693 0
-860 -1694 0
-862 -1696 0
-863 -1699 0
-864 -1700 0
-859 -1701 0
-860 -1702 0
-862 -1704 0
-864 -1706 0
-859 -1707 0
-860 -1708 0
-863 -1714 0
-864 -1715 0
-860 -1716 0
-862 -1718 0
-864 -1721 0
-859 -1722 0
-862 -1724 0
-863 -1727 0
-864 -1728 0
-859 -1729 0
-862 -1731 0
-864 -1735 0
-859 -1736 0
-860 -1737 0
-862 -1738 0
-864 -1742 0
-859 -1743 0
-860 -1744 0
-862 -1745 0
-863 -1748 0
-864 -1749 0
-859 -1750 0
-862 -1751 0
-864 -1755 0
-862 -1801 0
-863 -1804 0
-864 -1805 0
-863 -1810 0
-864 -1811 0
-860 -1812 0
-862 -1813 0
-863 -1816 0
-864 -1817 0
-860 -1818 0
-864 -1823 0
-863 -1828 0
-864 -1829 0
-862 -1831 0
-864 -1835 0
-862 -1836 0
-863 -1841 0
-864 -1842 0
-862 -1943 0
-863 -1948 0
-864 -1949 0
-865 -924 0
-870 -927 0
-871 -928 0
-865 -947 0
-868 -949 0
-871 -950 0
-866 -969 0
-869 -971 0
-871 -972 0
-866 -982 0
-868 -985 0
-871 -986 0
-865 -1064 0
-867 -1066 0
-868 -1067 0
-869 -1068 0
-870 -1069 0
-871 -1070 0
-865 -1094 0
-867 -1095 0
-869 -1097 0
-871 -1098 0
-866 -1107 0
-867 -1108 0
-868 -1109 0
-871 -1110 0
-866 -1118 0
-867 -1120 0
-869 -1121 0
-871 -1122 0
-868 -1176 0
-870 -1177 0
-871 -1178 0
-869 -1190 0
-870 -1191 0
-871 -1192 0
-871 -1198 0
-868 -1208 0
-869 -1209 0
-871 -1210 0
-868 -1214 0
-869 -1215 0
-871 -1216 0
-868 -1257 0
-869 -1258 0
-870 -1259 0
-871 -1260 0
-869 -1270 0
-870 -1271 0
-871 -1272 0
-865 -1295 0
-867 -1297 0
-868 -1299 0
-871 -1300 0
-865 -1314 0
-867 -1316 0
-870 -1318 0
-871 -1319 0
-866 -1327 0
-867 -1329 0
-868 -1331 0
-869 -1332 0
-870 -1333 0
-871 -1334 0
-866 -1343 0
-867 -1345 0
-870 -1347 0
-871 -1348 0
-868 -1360 0
-869 -1361 0
-871 -1362 0
-869 -1366 0
-870 -1367 0
-871 -1368 0
-868 -1380 0
-870 -1381 0
-871 -1382 0
-868 -1386 0
-869 -1387 0
-870 -1388 0
-871 -1389 0
-867 -1414 0
-868 -1415 0
-871 -1416 0
-867 -1427 0
-868 -1428 0
-869 -1429 0
-871 -1430 0
-867 -1432 0
-868 -1434 0
-870 -1435 0
-871 -1436 0
-867 -1438 0
-868 -1439 0
-869 -1440 0
-870 -1441 0
-871 -1442 0
-867 -1451 0
-868 -1453 0
-869 -1454 0
-870 -1455 0
-871 -1456 0
-865 -1470 0
-866 -1471 0
-867 -1473 0
-868 -1475 0
-869 -1476 0
-871 -1477 0
-865 -1485 0
-866 -1486 0
-867 -1487 0
-868 -1488 0
-869 -1489 0
-870 -1490 0
-871 -1491 0
-866 -1493 0
-867 -1494 0
-868 -1496 0
-870 -1497 0
-871 -1498 0
-865 -1509 0
-868 -1511 0
-869 -1512 0
-871 -1513 0
-865 -1515 0
-869 -1518 0
-871 -1519 0
-866 -1527 0
-868 -1530 0
-871 -1531 0
-865 -1533 0
-868 -1535 0
-869 -1536 0
-870 -1537 0
-871 -1538 0
-865 -1547 0
-868 -1549 0
-870 -1550 0
-871 -1551 0
-866 -1553 0
-868 -1556 0
-870 -1557 0
-871 -1558 0
-866 -1568 0
-868 -1571 0
-869 -1572 0
-870 -1573 0
-871 -1574 0
-866 -1587 0
-868 -1590 0
-869 -1591 0
-871 -1592 0
-865 -1600 0
-867 -1602 0
-868 -1604 0
-869 -1605 0
-871 -1606 0
-865 -1608 0
-867 -1610 0
-868 -1612 0
-871 -1613 0
-865 -1622 0
-867 -1623 0
-869 -1625 0
-871 -1626 0
-866 -1628 0
-867 -1630 0
-869 -1632 0
-871 -1633 0
-865 -1634 0
-867 -1636 0
-870 -1638 0
-871 -1639 0
-866 -1646 0
-867 -1649 0
-868 -1651 0
-869 -1652 0
-870 -1653 0
-871 -1654 0
-866 -1662 0
-867 -1664 0
-870 -1666 0
-871 -1667 0
-866 -1681 0
-867 -1682 0
-869 -1684 0
-870 -1685 0
-871 -1686 0
-868 -1691 0
-869 -1692 0
-871 -1693 0
-871 -1706 0
-868 -1726 0
-870 -1727 0
-871 -1728 0
-868 -1764 0
-869 -1765 0
-870 -1766 0
-871 -1767 0
-868 -1771 0
-870 -1772 0
-871 -1773 0
-866 -1788 0
-867 -1789 0
-869 -1791 0
-870 -1792 0
-871 -1793 0
-868 -1802 0
-869 -1803 0
-870 -1804 0
-871 -1805 0
-867 -1825 0
-868 -1827 0
-870 -1828 0
-871 -1829 0
-868 -1882 0
-870 -1883 0
-871 -1884 0
-868 -1895 0
-869 -1896 0
-870 -1897 0
-871 -1898 0
-867 -1906 0
-868 -1908 0
-869 -1909 0
-871 -1910 0
-867 -1921 0
-869 -1923 0
-871 -1924 0
-867 -1927 0
-869 -1928 0
-870 -1929 0
-871 -1930 0
-867 -1938 0
-868 -1939 0
-869 -1940 0
-870 -1941 0
-871 -1942 0
-867 -1953 0
-868 -1955 0
-869 -1956 0
-870 -1957 0
-871 -1958 0
-872 -917 0
-875 -918 0
-877 -920 0
-878 -921 0
-872 -938 0
-874 -939 0
-875 -940 0
-876 -941 0
-877 -942 0
-878 -944 0
-873 -969 0
-876 -970 0
-877 -971 0
-878 -972 0
-873 -975 0
-875 -976 0
-877 -977 0
-878 -979 0
-872 -1058 0
-876 -1059 0
-878 -1061 0
-872 -1088 0
-874 -1089 0
-878 -1092 0
-873 -1107 0
-875 -1108 0
-878 -1110 0
-873 -1112 0
-876 -1113 0
-878 -1116 0
-878 -1178 0
-875 -1182 0
-876 -1183 0
-878 -1185 0
-874 -1196 0
-876 -1197 0
-878 -1198 0
-874 -1201 0
-875 -1202 0
-878 -1204 0
-875 -1219 0
-876 -1220 0
-878 -1222 0
-874 -1249 0
-875 -1250 0
-878 -1253 0
-874 -1262 0
-875 -1263 0
-876 -1264 0
-878 -1266 0
-872 -1288 0
-874 -1289 0
-877 -1291 0
-878 -1293 0
-872 -1308 0
-876 -1309 0
-877 -1311 0
-878 -1313 0
-873 -1327 0
-874 -1328 0
-875 -1329 0
-876 -1330 0
-877 -1332 0
-878 -1334 0
-873 -1336 0
-874 -1337 0
-877 -1339 0
-878 -1341 0
-874 -1358 0
-876 -1359 0
-877 -1361 0
-878 -1362 0
-876 -1365 0
-877 -1366 0
-878 -1368 0
-875 -1371 0
-876 -1372 0
-877 -1373 0
-878 -1375 0
-874 -1392 0
-875 -1393 0
-876 -1394 0
-877 -1395 0
-878 -1396 0
-874 -1397 0
-875 -1398 0
-876 -1399 0
-877 -1401 0
-878 -1403 0
-874 -1413 0
-875 -1414 0
-878 -1416 0
-874 -1419 0
-876 -1420 0
-878 -1423 0
-875 -1432 0
-876 -1433 0
-878 -1436 0
-874 -1444 0
-875 -1445 0
-876 -1446 0
-878 -1448 0
-872 -1464 0
-873 -1465 0
-876 -1466 0
-878 -1468 0
-872 -1478 0
-873 -1479 0
-874 -1480 0
-876 -1481 0
-878 -1484 0
-873 -1493 0
-875 -1494 0
-876 -1495 0
-878 -1498 0
-872 -1500 0
-874 -1502 0
-875 -1503 0
-876 -1504 0
-878 -1507 0
-872 -1521 0
-875 -1522 0
-878 -1525 0
-873 -1527 0
-876 -1529 0
-878 -1531 0
-872 -1540 0
-874 -1541 0
-875 -1542 0
-876 -1543 0
-878 -1545 0
-872 -1547 0
-874 -1548 0
-878 -1551 0
-873 -1553 0
-874 -1555 0
-878 -1558 0
-873 -1577 0
-875 -1578 0
-878 -1580 0
-873 -1581 0
-874 -1582 0
-875 -1583 0
-878 -1586 0
-872 -1593 0
-874 -1595 0
-876 -1596 0
-877 -1597 0
-878 -1599 0
-872 -1615 0
-875 -1616 0
-876 -1617 0
-877 -1618 0
-878 -1620 0
-872 -1622 0
-875 -1623 0
-876 -1624 0
-877 -1625 0
-878 -1626 0
-873 -1628 0
-875 -1630 0
-876 -1631 0
-877 -1632 0
-878 -1633 0
-872 -1640 0
-874 -1641 0
-875 -1642 0
-877 -1644 0
-878 -1645 0
-873 -1646 0
-874 -1648 0
-875 -1649 0
-876 -1650 0
-877 -1652 0
-878 -1654 0
-873 -1669 0
-875 -1670 0
-876 -1671 0
-877 -1673 0
-878 -1674 0
-873 -1675 0
-874 -1676 0
-876 -1677 0
-877 -1679 0
-878 -1680 0
-874 -1689 0
-876 -1690 0
-877 -1692 0
-878 -1693 0
-875 -1710 0
-876 -1711 0
-877 -1713 0
-878 -1715 0
-874 -1731 0
-875 -1732 0
-877 -1734 0
-878 -1735 0
-874 -1757 0
-875 -1758 0
-876 -1759 0
-877 -1760 0
-878 -1761 0
-874 -1775 0
-875 -1776 0
-877 -1777 0
-878 -1779 0
-874 -1781 0
-875 -1782 0
-876 -1783 0
-877 -1785 0
-878 -1787 0
-873 -1794 0
-874 -1795 0
-875 -1796 0
-878 -1799 0
-875 -1807 0
-876 -1808 0
-878 -1811 0
-874 -1831 0
-875 -1832 0
-876 -1833 0
-877 -1834 0
-878 -1835 0
-874 -1880 0
-876 -1881 0
-878 -1884 0
-874 -1887 0
-875 -1888 0
-878 -1891 0
-875 -1906 0
-876 -1907 0
-877 -1909 0
-878 -1910 0
-876 -1913 0
-877 -1915 0
-878 -1917 0
-874 -1926 0
-875 -1927 0
-877 -1928 0
-878 -1930 0
-874 -1932 0
-876 -1933 0
-877 -1934 0
-878 -1936 0
-879 -937 0
-881 -939 0
-882 -940 0
-884 -942 0
-885 -944 0
-879 -946 0
-883 -949 0
-885 -950 0
-882 -953 0
-883 -955 0
-885 -957 0
-881 -1089 0
-883 -1090 0
-885 -1092 0
-882 -1095 0
-884 -1097 0
-885 -1098 0
-879 -1194 0
-881 -1196 0
-885 -1198 0
-881 -1201 0
-882 -1202 0
-885 -1204 0
-883 -1208 0
-884 -1209 0
-885 -1210 0
-879 -1212 0
-881 -1213 0
-883 -1214 0
-884 -1215 0
-885 -1216 0
-879 -1218 0
-882 -1219 0
-885 -1222 0
-881 -1262 0
-882 -1263 0
-883 -1265 0
-885 -1266 0
-881 -1268 0
-884 -1270 0
-885 -1272 0
-883 -1310 0
-884 -1311 0
-885 -1313 0
-881 -1315 0
-882 -1316 0
-885 -1319 0
-879 -1363 0
-884 -1366 0
-885 -1368 0
-882 -1371 0
-884 -1373 0
-885 -1375 0
-881 -1378 0
-883 -1380 0
-885 -1382 0
-879 -1384 0
-883 -1386 0
-884 -1387 0
-885 -1389 0
-879 -1391 0
-881 -1392 0
-882 -1393 0
-884 -1395 0
-885 -1396 0
-881 -1397 0
-882 -1398 0
-883 -1400 0
-884 -1401 0
-885 -1403 0
-882 -1432 0
-883 -1434 0
-885 -1436 0
-882 -1438 0
-883 -1439 0
-884 -1440 0
-885 -1442 0
-881 -1444 0
-882 -1445 0
-883 -1447 0
-885 -1448 0
-883 -1459 0
-884 -1460 0
-885 -1462 0
-880 -1479 0
-881 -1480 0
-883 -1482 0
-885 -1484 0
-880 -1486 0
-882 -1487 0
-883 -1488 0
-884 -1489 0
-885 -1491 0
-879 -1499 0
-881 -1502 0
-882 -1503 0
-883 -1505 0
-885 -1507 0
-879 -1508 0
-883 -1511 0
-884 -1512 0
-885 -1513 0
-879 -1514 0
-881 -1516 0
-884 -1518 0
-885 -1519 0
-879 -1520 0
-882 -1522 0
-883 -1523 0
-885 -1525 0
-879 -1552 0
-880 -1553 0
-881 -1555 0
-883 -1556 0
-885 -1558 0
-879 -1559 0
-880 -1560 0
-881 -1561 0
-882 -1562 0
-883 -1563 0
-884 -1564 0
-885 -1565 0
-879 -1567 0
-880 -1568 0
-881 -1569 0
-883 -1571 0
-884 -1572 0
-885 -1574 0
-879 -1576 0
-880 -1577 0
-882 -1578 0
-883 -1579 0
-885 -1580 0
-880 -1581 0
-881 -1582 0
-882 -1583 0
-883 -1584 0
-885 -1586 0
-880 -1587 0
-881 -1588 0
-883 -1590 0
-884 -1591 0
-885 -1592 0
-881 -1595 0
-884 -1597 0
-885 -1599 0
-882 -1602 0
-883 -1604 0
-884 -1605 0
-885 -1606 0
-879 -1607 0
-881 -1609 0
-882 -1610 0
-883 -1612 0
-885 -1613 0
-879 -1614 0
-882 -1616 0
-884 -1618 0
-885 -1620 0
-882 -1623 0
-884 -1625 0
-885 -1626 0
-880 -1646 0
-881 -1648 0
-882 -1649 0
-883 -1651 0
-884 -1652 0
-885 -1654 0
-879 -1655 0
-880 -1656 0
-881 -1657 0
-882 -1658 0
-885 -1660 0
-880 -1662 0
-881 -1663 0
-882 -1664 0
-885 -1667 0
-880 -1669 0
-882 -1670 0
-883 -1672 0
-884 -1673 0
-885 -1674 0
-879 -1687 0
-881 -1689 0
-883 -1691 0
-884 -1692 0
-885 -1693 0
-879 -1694 0
-881 -1696 0
-882 -1697 0
-885 -1700 0
-879 -1702 0
-881 -1704 0
-885 -1706 0
-879 -1708 0
-882 -1710 0
-883 -1712 0
-884 -1713 0
-885 -1715 0
-881 -1757 0
-882 -1758 0
-884 -1760 0
-885 -1761 0
-881 -1763 0
-883 -1764 0
-884 -1765 0
-885 -1767 0
-879 -1768 0
-881 -1769 0
-883 -1771 0
-885 -1773 0
-879 -1774 0
-881 -1775 0
-882 -1776 0
-884 -1777 0
-885 -1779 0
-880 -1788 0
-882 -1789 0
-884 -1791 0
-885 -1793 0
-880 -1794 0
-881 -1795 0
-882 -1796 0
-883 -1797 0
-885 -1799 0
-882 -1825 0
-883 -1827 0
-885 -1829 0
-881 -1831 0
-882 -1832 0
-884 -1834 0
-885 -1835 0
-879 -1879 0
-881 -1880 0
-883 -1882 0
-885 -1884 0
-879 -1886 0
-881 -1887 0
-882 -1888 0
-883 -1889 0
-885 -1891 0
-879 -1893 0
-883 -1895 0
-884 -1896 0
-885 -1898 0
-879 -1925 0
-881 -1926 0
-882 -1927 0
-884 -1928 0
-885 -1930 0
-881 -1932 0
-884 -1934 0
-885 -1936 0
-882 -1938 0
-883 -1939 0
-884 -1940 0
-885 -1942 0
-881 -1952 0
-882 -1953 0
-883 -1955 0
-884 -1956 0
-885 -1958 0
-887 -918 0
-889 -920 0
-891 -921 0
-888 -926 0
-890 -927 0
-891 -928 0
-888 -1059 0
-891 -1061 0
-887 -1066 0
-889 -1068 0
-890 -1069 0
-891 -1070 0
-888 -1074 0
-889 -1076 0
-891 -1077 0
-890 -1177 0
-891 -1178 0
-887 -1182 0
-888 -1183 0
-891 -1185 0
-889 -1190 0
-890 -1191 0
-891 -1192 0
-889 -1215 0
-891 -1216 0
-887 -1219 0
-888 -1220 0
-890 -1221 0
-891 -1222 0
-887 -1250 0
-890 -1252 0
-891 -1253 0
-888 -1256 0
-889 -1258 0
-890 -1259 0
-891 -1260 0
-889 -1291 0
-890 -1292 0
-891 -1293 0
-887 -1297 0
-888 -1298 0
-891 -1300 0
-888 -1359 0
-889 -1361 0
-891 -1362 0
-888 -1385 0
-889 -1387 0
-890 -1388 0
-891 -1389 0
-887 -1393 0
-888 -1394 0
-889 -1395 0
-891 -1396 0
-887 -1414 0
-891 -1416 0
-888 -1420 0
-890 -1422 0
-891 -1423 0
-887 -1427 0
-889 -1429 0
-891 -1430 0
-887 -1438 0
-889 -1440 0
-890 -1441 0
-891 -1442 0
-887 -1445 0
-888 -1446 0
-891 -1448 0
-887 -1451 0
-888 -1452 0
-889 -1454 0
-890 -1455 0
-891 -1456 0
-888 -1458 0
-889 -1460 0
-890 -1461 0
-891 -1462 0
-886 -1465 0
-888 -1466 0
-890 -1467 0
-891 -1468 0
-886 -1471 0
-887 -1473 0
-888 -1474 0
-889 -1476 0
-891 -1477 0
-887 -1503 0
-888 -1504 0
-890 -1506 0
-891 -1507 0
-889 -1512 0
-891 -1513 0
-886 -1527 0
-888 -1529 0
-891 -1531 0
-889 -1536 0
-890 -1537 0
-891 -1538 0
-887 -1542 0
-888 -1543 0
-891 -1545 0
-890 -1550 0
-891 -1551 0
-886 -1560 0
-887 -1562 0
-889 -1564 0
-891 -1565 0
-886 -1568 0
-888 -1570 0
-889 -1572 0
-890 -1573 0
-891 -1574 0
-886 -1577 0
-887 -1578 0
-891 -1580 0
-888 -1596 0
-889 -1597 0
-890 -1598 0
-891 -1599 0
-887 -1602 0
-888 -1603 0
-889 -1605 0
-891 -1606 0
-886 -1628 0
-887 -1630 0
-888 -1631 0
-889 -1632 0
-891 -1633 0
-887 -1636 0
-888 -1637 0
-890 -1638 0
-891 -1639 0
-887 -1642 0
-889 -1644 0
-891 -1645 0
-886 -1656 0
-887 -1658 0
-888 -1659 0
-891 -1660 0
-886 -1662 0
-887 -1664 0
-888 -1665 0
-890 -1666 0
-891 -1667 0
-886 -1669 0
-887 -1670 0
-888 -1671 0
-889 -1673 0
-891 -1674 0
-886 -1675 0
-888 -1677 0
-889 -1679 0
-891 -1680 0
-886 -1681 0
-887 -1682 0
-888 -1683 0
-889 -1684 0
-890 -1685 0
-891 -1686 0
-888 -1690 0
-889 -1692 0
-891 -1693 0
-887 -1719 0
-891 -1721 0
-888 -1725 0
-890 -1727 0
-891 -1728 0
-887 -1732 0
-889 -1734 0
-891 -1735 0
-887 -1758 0
-888 -1759 0
-889 -1760 0
-891 -1761 0
-889 -1765 0
-890 -1766 0
-891 -1767 0
-887 -1782 0
-888 -1783 0
-889 -1785 0
-890 -1786 0
-891 -1787 0
-886 -1788 0
-887 -1789 0
-888 -1790 0
-889 -1791 0
-890 -1792 0
-891 -1793 0
-886 -1794 0
-887 -1796 0
-890 -1798 0
-891 -1799 0
-889 -1803 0
-890 -1804 0
-891 -1805 0
-887 -1807 0
-888 -1808 0
-890 -1810 0
-891 -1811 0
-887 -1906 0
-888 -1907 0
-889 -1909 0
-891 -1910 0
-888 -1913 0
-889 -1915 0
-890 -1916 0
-891 -1917 0
-887 -1921 0
-888 -1922 0
-889 -1923 0
-891 -1924 0
-893 -1072 0
-896 -1074 0
-897 -1077 0
-896 -1113 0
-897 -1116 0
-895 -1120 0
-897 -1122 0
-895 -1149 0
-896 -1150 0
-897 -1153 0
-897 -1160 0
-897 -1341 0
-895 -1345 0
-896 -1346 0
-897 -1348 0
-894 -1418 0
-896 -1420 0
-897 -1423 0
-894 -1425 0
-895 -1427 0
-897 -1430 0
-895 -1438 0
-897 -1442 0
-895 -1445 0
-896 -1446 0
-897 -1448 0
-895 -1451 0
-896 -1452 0
-897 -1456 0
-893 -1457 0
-896 -1458 0
-897 -1462 0
-892 -1463 0
-893 -1464 0
-896 -1466 0
-897 -1468 0
-892 -1469 0
-893 -1470 0
-895 -1473 0
-896 -1474 0
-897 -1477 0
-893 -1478 0
-896 -1481 0
-897 -1484 0
-893 -1485 0
-895 -1487 0
-897 -1491 0
-892 -1492 0
-895 -1494 0
-896 -1495 0
-897 -1498 0
-893 -1547 0
-897 -1551 0
-892 -1567 0
-896 -1570 0
-897 -1574 0
-892 -1576 0
-895 -1578 0
-897 -1580 0
-895 -1583 0
-897 -1586 0
-896 -1589 0
-897 -1592 0
-893 -1593 0
-894 -1594 0
-896 -1596 0
-897 -1599 0
-893 -1600 0
-894 -1601 0
-895 -1602 0
-896 -1603 0
-897 -1606 0
-892 -1607 0
-893 -1608 0
-895 -1610 0
-896 -1611 0
-897 -1613 0
-892 -1614 0
-893 -1615 0
-895 -1616 0
-896 -1617 0
-897 -1620 0
-892 -1627 0
-894 -1629 0
-895 -1630 0
-896 -1631 0
-897 -1633 0
-893 -1634 0
-895 -1636 0
-896 -1637 0
-897 -1639 0
-893 -1640 0
-895 -1642 0
-897 -1645 0
-894 -1647 0
-895 -1649 0
-896 -1650 0
-897 -1654 0
-892 -1655 0
-895 -1658 0
-896 -1659 0
-897 -1660 0
-892 -1702 0
-894 -1703 0
-896 -1705 0
-897 -1706 0
-892 -1708 0
-894 -1709 0
-895 -1710 0
-896 -1711 0
-897 -1715 0
-894 -1723 0
-896 -1725 0
-897 -1728 0
-894 -1730 0
-895 -1732 0
-897 -1735 0
-892 -1737 0
-895 -1739 0
-896 -1740 0
-897 -1742 0
-892 -1744 0
-895 -1746 0
-897 -1749 0
-894 -1756 0
-895 -1758 0
-896 -1759 0
-897 -1761 0
-894 -1762 0
-897 -1767 0
-892 -1768 0
-896 -1770 0
-897 -1773 0
-892 -1774 0
-895 -1776 0
-897 -1779 0
-895 -1782 0
-896 -1783 0
-897 -1787 0
-894 -1800 0
-897 -1805 0
-894 -1806 0
-895 -1807 0
-896 -1808 0
-897 -1811 0
-892 -1812 0
-895 -1814 0
-897 -1817 0
-892 -1818 0
-895 -1819 0
-896 -1820 0
-897 -1823 0
-892 -1912 0
-896 -1913 0
-897 -1917 0
-892 -1919 0
-895 -1921 0
-896 -1922 0
-897 -1924 0
-896 -1933 0
-897 -1936 0
-895 -1938 0
-897 -1942 0
-895 -1944 0
-896 -1945 0
-897 -1949 0
-895 -1953 0
-896 -1954 0
-897 -1958 0
-898 -1062 0
-899 -1063 0
-900 -1064 0
-902 -1066 0
-903 -1069 0
-904 -1070 0
-898 -1093 0
-900 -1094 0
-902 -1095 0
-904 -1098 0
-898 -1105 0
-899 -1106 0
-902 -1108 0
-904 -1110 0
-898 -1117 0
-902 -1120 0
-904 -1122 0
-900 -1129 0
-903 -1133 0
-904 -1134 0
-899 -1141 0
-903 -1145 0
-904 -1146 0
-898 -1154 0
-903 -1159 0
-904 -1160 0
-904 -1166 0
-898 -1217 0
-899 -1218 0
-902 -1219 0
-903 -1221 0
-904 -1222 0
-898 -1254 0
-899 -1255 0
-903 -1259 0
-904 -1260 0
-898 -1267 0
-903 -1271 0
-904 -1272 0
-899 -1294 0
-900 -1295 0
-902 -1297 0
-904 -1300 0
-900 -1314 0
-902 -1316 0
-903 -1318 0
-904 -1319 0
-899 -1326 0
-902 -1329 0
-903 -1333 0
-904 -1334 0
-898 -1342 0
-902 -1345 0
-903 -1347 0
-904 -1348 0
-898 -1390 0
-899 -1391 0
-902 -1393 0
-904 -1396 0
-899 -1411 0
-901 -1412 0
-902 -1414 0
-904 -1416 0
-898 -1424 0
-901 -1425 0
-902 -1427 0
-904 -1430 0
-901 -1431 0
-902 -1432 0
-903 -1435 0
-904 -1436 0
-898 -1437 0
-902 -1438 0
-903 -1441 0
-904 -1442 0
-899 -1469 0
-900 -1470 0
-902 -1473 0
-904 -1477 0
-900 -1485 0
-902 -1487 0
-903 -1490 0
-904 -1491 0
-899 -1492 0
-902 -1494 0
-903 -1497 0
-904 -1498 0
-899 -1520 0
-900 -1521 0
-902 -1522 0
-903 -1524 0
-904 -1525 0
-899 -1539 0
-900 -1540 0
-902 -1542 0
-904 -1545 0
-899 -1559 0
-902 -1562 0
-904 -1565 0
-898 -1575 0
-899 -1576 0
-902 -1578 0
-904 -1580 0
-904 -1592 0
-900 -1600 0
-901 -1601 0
-902 -1602 0
-904 -1606 0
-899 -1607 0
-900 -1608 0
-902 -1610 0
-904 -1613 0
-898 -1621 0
-900 -1622 0
-902 -1623 0
-904 -1626 0
-899 -1627 0
-901 -1629 0
-902 -1630 0
-904 -1633 0
-900 -1634 0
-902 -1636 0
-903 -1638 0
-904 -1639 0
-901 -1647 0
-902 -1649 0
-903 -1653 0
-904 -1654 0
-898 -1661 0
-902 -1664 0
-903 -1666 0
-904 -1667 0
-904 -1680 0
-899 -1694 0
-901 -1695 0
-902 -1697 0
-903 -1699 0
-904 -1700 0
-898 -1707 0
-899 -1708 0
-901 -1709 0
-902 -1710 0
-903 -1714 0
-904 -1715 0
-899 -1716 0
-901 -1717 0
-902 -1719 0
-904 -1721 0
-898 -1729 0
-901 -1730 0
-902 -1732 0
-904 -1735 0
-898 -1736 0
-899 -1737 0
-902 -1739 0
-904 -1742 0
-898 -1750 0
-902 -1752 0
-904 -1755 0
-901 -1762 0
-903 -1766 0
-904 -1767 0
-899 -1768 0
-903 -1772 0
-904 -1773 0
-902 -1789 0
-903 -1792 0
-904 -1793 0
-901 -1806 0
-902 -1807 0
-903 -1810 0
-904 -1811 0
-899 -1812 0
-902 -1814 0
-903 -1816 0
-904 -1817 0
-901 -1824 0
-902 -1825 0
-903 -1828 0
-904 -1829 0
-899 -1905 0
-902 -1906 0
-904 -1910 0
-898 -1918 0
-899 -1919 0
-902 -1921 0
-904 -1924 0
-899 -1925 0
-902 -1927 0
-903 -1929 0
-904 -1930 0
-898 -1937 0
-902 -1938 0
-903 -1941 0
-904 -1942 0
-902 -1953 0
-903 -1957 0
-904 -1958 0
-905 -1056 0
-906 -1057 0
-907 -1058 0
-911 -1059 0
-912 -1060 0
-914 -1061 0
-905 -1087 0
-907 -1088 0
-909 -1089 0
-912 -1090 0
-914 -1092 0
-905 -1105 0
-906 -1106 0
-910 -1108 0
-912 -1109 0
-914 -1110 0
-905 -1111 0
-911 -1113 0
-912 -1114 0
-914 -1116 0
-907 -1123 0
-909 -1124 0
-910 -1125 0
-912 -1126 0
-913 -1127 0
-914 -1128 0
-906 -1141 0
-912 -1143 0
-913 -1144 0
-914 -1146 0
-905 -1147 0
-910 -1149 0
-911 -1150 0
-912 -1151 0
-913 -1152 0
-914 -1153 0
-909 -1162 0
-911 -1163 0
-912 -1164 0
-913 -1165 0
-914 -1166 0
-905 -1211 0
-906 -1212 0
-909 -1213 0
-912 -1214 0
-913 -1215 0
-914 -1216 0
-905 -1247 0
-906 -1248 0
-909 -1249 0
-910 -1250 0
-912 -1251 0
-914 -1253 0
-905 -1261 0
-909 -1262 0
-910 -1263 0
-911 -1264 0
-912 -1265 0
-914 -1266 0
-906 -1287 0
-907 -1288 0
-909 -1289 0
-912 -1290 0
-913 -1291 0
-914 -1293 0
-907 -1308 0
-911 -1309 0
-912 -1310 0
-913 -1311 0
-914 -1313 0
-906 -1326 0
-909 -1328 0
-910 -1329 0
-911 -1330 0
-912 -1331 0
-913 -1332 0
-914 -1334 0
-905 -1335 0
-909 -1337 0
-912 -1338 0
-913 -1339 0
-914 -1341 0
-905 -1383 0
-906 -1384 0
-911 -1385 0
-912 -1386 0
-913 -1387 0
-914 -1389 0
-909 -1397 0
-910 -1398 0
-911 -1399 0
-912 -1400 0
-913 -1401 0
-914 -1403 0
-906 -1411 0
-908 -1412 0
-909 -1413 0
-910 -1414 0
-912 -1415 0
-914 -1416 0
-905 -1417 0
-908 -1418 0
-909 -1419 0
-911 -1420 0
-912 -1421 0
-914 -1423 0
-908 -1431 0
-910 -1432 0
-911 -1433 0
-912 -1434 0
-914 -1436 0
-905 -1443 0
-909 -1444 0
-910 -1445 0
-911 -1446 0
-912 -1447 0
-914 -1448 0
-909 -1450 0
-910 -1451 0
-911 -1452 0
-912 -1453 0
-913 -1454 0
-914 -1456 0
-906 -1463 0
-907 -1464 0
-911 -1466 0
-914 -1468 0
-907 -1478 0
-909 -1480 0
-911 -1481 0
-912 -1482 0
-914 -1484 0
-906 -1492 0
-910 -1494 0
-911 -1495 0
-912 -1496 0
-914 -1498 0
-906 -1514 0
-907 -1515 0
-909 -1516 0
-911 -1517 0
-913 -1518 0
-914 -1519 0
-906 -1532 0
-907 -1533 0
-909 -1534 0
-912 -1535 0
-913 -1536 0
-914 -1538 0
-906 -1559 0
-909 -1561 0
-910 -1562 0
-912 -1563 0
-913 -1564 0
-914 -1565 0
-905 -1566 0
-906 -1567 0
-909 -1569 0
-911 -1570 0
-912 -1571 0
-913 -1572 0
-914 -1574 0
-909 -1582 0
-910 -1583 0
-912 -1584 0
-914 -1586 0
-907 -1593 0
-908 -1594 0
-909 -1595 0
-911 -1596 0
-913 -1597 0
-914 -1599 0
-906 -1614 0
-907 -1615 0
-910 -1616 0
-911 -1617 0
-913 -1618 0
-914 -1620 0
-905 -1621 0
-907 -1622 0
-910 -1623 0
-911 -1624 0
-913 -1625 0
-914 -1626 0
-906 -1627 0
-908 -1629 0
-910 -1630 0
-911 -1631 0
-913 -1632 0
-914 -1633 0
-907 -1640 0
-909 -1641 0
-910 -1642 0
-912 -1643 0
-913 -1644 0
-914 -1645 0
-908 -1647 0
-909 -1648 0
-910 -1649 0
-911 -1650 0
-912 -1651 0
-913 -1652 0
-914 -1654 0
-905 -1668 0
-910 -1670 0
-911 -1671 0
-912 -1672 0
-913 -1673 0
-914 -1674 0
-910 -1682 0
-911 -1683 0
-913 -1684 0
-914 -1686 0
-906 -1694 0
-908 -1695 0
-909 -1696 0
-910 -1697 0
-911 -1698 0
-914 -1700 0
-905 -1701 0
-906 -1702 0
-908 -1703 0
-909 -1704 0
-911 -1705 0
-914 -1706 0
-906 -1716 0
-908 -1717 0
-909 -1718 0
-910 -1719 0
-912 -1720 0
-914 -1721 0
-905 -1722 0
-908 -1723 0
-909 -1724 0
-911 -1725 0
-912 -1726 0
-914 -1728 0
-905 -1743 0
-906 -1744 0
-909 -1745 0
-910 -1746 0
-912 -1747 0
-914 -1749 0
-905 -1750 0
-909 -1751 0
-910 -1752 0
-911 -1753 0
-912 -1754 0
-914 -1755 0
-908 -1756 0
-909 -1757 0
-910 -1758 0
-911 -1759 0
-913 -1760 0
-914 -1761 0
-906 -1774 0
-909 -1775 0
-910 -1776 0
-913 -1777 0
-914 -1779 0
-909 -1781 0
-910 -1782 0
-911 -1783 0
-912 -1784 0
-913 -1785 0
-914 -1787 0
-909 -1795 0
-910 -1796 0
-912 -1797 0
-914 -1799 0
-908 -1800 0
-909 -1801 0
-912 -1802 0
-913 -1803 0
-914 -1805 0
-906 -1818 0
-910 -1819 0
-911 -1820 0
-912 -1821 0
-913 -1822 0
-914 -1823 0
-908 -1830 0
-909 -1831 0
-910 -1832 0
-911 -1833 0
-913 -1834 0
-914 -1835 0
-906 -1905 0
-910 -1906 0
-911 -1907 0
-912 -1908 0
-913 -1909 0
-914 -1910 0
-905 -1911 0
-906 -1912 0
-911 -1913 0
-912 -1914 0
-913 -1915 0
-914 -1917 0
-906 -1925 0
-909 -1926 0
-910 -1927 0
-913 -1928 0
-914 -1930 0
-905 -1931 0
-909 -1932 0
-911 -1933 0
-913 -1934 0
-914 -1936 0
-909 -1943 0
-910 -1944 0
-911 -1945 0
-912 -1946 0
-913 -1947 0
-914 -1949 0
-915 -1028 0
-918 -1030 0
-919 -1032 0
-920 -1033 0
-921 -1034 0
-915 -1050 0
-917 -1051 0
-920 -1054 0
-921 -1055 0
-915 -1093 0
-917 -1094 0
-918 -1095 0
-920 -1097 0
-921 -1098 0
-915 -1099 0
-920 -1102 0
-921 -1104 0
-915 -1117 0
-918 -1120 0
-920 -1121 0
-921 -1122 0
-917 -1129 0
-919 -1131 0
-920 -1132 0
-921 -1134 0
-918 -1137 0
-919 -1138 0
-920 -1139 0
-921 -1140 0
-915 -1154 0
-919 -1157 0
-920 -1158 0
-921 -1160 0
-919 -1164 0
-920 -1165 0
-921 -1166 0
-915 -1205 0
-919 -1208 0
-920 -1209 0
-921 -1210 0
-915 -1240 0
-918 -1242 0
-920 -1244 0
-921 -1246 0
-915 -1267 0
-920 -1270 0
-921 -1272 0
-917 -1280 0
-920 -1284 0
-921 -1286 0
-917 -1314 0
-918 -1316 0
-921 -1319 0
-921 -1325 0
-915 -1342 0
-918 -1345 0
-921 -1348 0
-915 -1376 0
-919 -1380 0
-921 -1382 0
-919 -1407 0
-920 -1408 0
-921 -1410 0
-915 -1424 0
-918 -1427 0
-919 -1428 0
-920 -1429 0
-921 -1430 0
-918 -1432 0
-919 -1434 0
-921 -1436 0
-915 -1443 0
-918 -1445 0
-919 -1447 0
-921 -1448 0
-918 -1451 0
-919 -1453 0
-920 -1454 0
-921 -1456 0
-917 -1457 0
-919 -1459 0
-920 -1460 0
-921 -1462 0
-916 -1469 0
-917 -1470 0
-918 -1473 0
-919 -1475 0
-920 -1476 0
-921 -1477 0
-917 -1478 0
-919 -1482 0
-921 -1484 0
-916 -1492 0
-918 -1494 0
-919 -1496 0
-921 -1498 0
-916 -1508 0
-917 -1509 0
-919 -1511 0
-920 -1512 0
-921 -1513 0
-916 -1539 0
-917 -1540 0
-918 -1542 0
-919 -1544 0
-921 -1545 0
-915 -1546 0
-917 -1547 0
-919 -1549 0
-921 -1551 0
-916 -1552 0
-919 -1556 0
-921 -1558 0
-915 -1575 0
-916 -1576 0
-918 -1578 0
-919 -1579 0
-921 -1580 0
-918 -1583 0
-919 -1584 0
-921 -1586 0
-917 -1593 0
-920 -1597 0
-921 -1599 0
-916 -1614 0
-917 -1615 0
-918 -1616 0
-920 -1618 0
-921 -1620 0
-915 -1621 0
-917 -1622 0
-918 -1623 0
-920 -1625 0
-921 -1626 0
-916 -1627 0
-918 -1630 0
-920 -1632 0
-921 -1633 0
-917 -1634 0
-918 -1636 0
-921 -1639 0
-916 -1655 0
-918 -1658 0
-921 -1660 0
-915 -1661 0
-918 -1664 0
-921 -1667 0
-919 -1678 0
-920 -1679 0
-921 -1680 0
-916 -1687 0
-919 -1691 0
-920 -1692 0
-921 -1693 0
-915 -1707 0
-916 -1708 0
-918 -1710 0
-919 -1712 0
-920 -1713 0
-921 -1715 0
-916 -1716 0
-918 -1719 0
-919 -1720 0
-921 -1721 0
-915 -1722 0
-919 -1726 0
-921 -1728 0
-915 -1743 0
-916 -1744 0
-918 -1746 0
-919 -1747 0
-921 -1749 0
-915 -1750 0
-918 -1752 0
-919 -1754 0
-921 -1755 0
-918 -1758 0
-920 -1760 0
-921 -1761 0
-916 -1774 0
-918 -1776 0
-920 -1777 0
-921 -1779 0
-918 -1789 0
-920 -1791 0
-921 -1793 0
-919 -1802 0
-920 -1803 0
-921 -1805 0
-916 -1818 0
-918 -1819 0
-919 -1821 0
-920 -1822 0
-921 -1823 0
-918 -1825 0
-919 -1827 0
-921 -1829 0
-918 -1837 0
-919 -1839 0
-920 -1840 0
-921 -1842 0
-916 -1851 0
-917 -1852 0
-919 -1854 0
-920 -1855 0
-921 -1857 0
-916 -1865 0
-919 -1867 0
-920 -1868 0
-921 -1870 0
-915 -1892 0
-916 -1893 0
-919 -1895 0
-920 -1896 0
-921 -1898 0
-916 -1899 0
-920 -1902 0
-921 -1904 0
-915 -1918 0
-916 -1919 0
-918 -1921 0
-920 -1923 0
-921 -1924 0
-916 -1925 0
-918 -1927 0
-920 -1928 0
-921 -1930 0
-915 -1931 0
-920 -1934 0
-921 -1936 0
-918 -1944 0
-919 -1946 0
-920 -1947 0
-921 -1949 0
-922 -1021 0
-925 -1023 0
-926 -1025 0
-927 -1026 0
-928 -1027 0
-922 -1041 0
-924 -1042 0
-926 -1045 0
-927 -1048 0
-928 -1049 0
-922 -1087 0
-924 -1088 0
-925 -1089 0
-927 -1091 0
-928 -1092 0
-922 -1099 0
-927 -1103 0
-928 -1104 0
-922 -1111 0
-926 -1113 0
-927 -1115 0
-928 -1116 0
-924 -1123 0
-925 -1124 0
-928 -1128 0
-928 -1140 0
-922 -1147 0
-926 -1150 0
-928 -1153 0
-925 -1162 0
-926 -1163 0
-928 -1166 0
-922 -1199 0
-925 -1201 0
-927 -1203 0
-928 -1204 0
-922 -1233 0
-925 -1235 0
-928 -1239 0
-922 -1261 0
-925 -1262 0
-926 -1264 0
-928 -1266 0
-924 -1273 0
-925 -1275 0
-927 -1278 0
-928 -1279 0
-924 -1308 0
-926 -1309 0
-927 -1312 0
-928 -1313 0
-925 -1322 0
-926 -1323 0
-927 -1324 0
-928 -1325 0
-922 -1335 0
-925 -1337 0
-927 -1340 0
-928 -1341 0
-922 -1369 0
-926 -1372 0
-927 -1374 0
-928 -1375 0
-925 -1397 0
-926 -1399 0
-927 -1402 0
-928 -1403 0
-925 -1406 0
-927 -1409 0
-928 -1410 0
-922 -1417 0
-925 -1419 0
-926 -1420 0
-927 -1422 0
-928 -1423 0
-926 -1433 0
-927 -1435 0
-928 -1436 0
-922 -1437 0
-927 -1441 0
-928 -1442 0
-924 -1457 0
-926 -1458 0
-927 -1461 0
-928 -1462 0
-923 -1463 0
-924 -1464 0
-926 -1466 0
-927 -1467 0
-928 -1468 0
-924 -1485 0
-927 -1490 0
-928 -1491 0
-923 -1492 0
-926 -1495 0
-927 -1497 0
-928 -1498 0
-923 -1499 0
-924 -1500 0
-925 -1502 0
-926 -1504 0
-927 -1506 0
-928 -1507 0
-923 -1532 0
-924 -1533 0
-925 -1534 0
-927 -1537 0
-928 -1538 0
-922 -1546 0
-924 -1547 0
-925 -1548 0
-927 -1550 0
-928 -1551 0
-923 -1552 0
-925 -1555 0
-927 -1557 0
-928 -1558 0
-922 -1566 0
-923 -1567 0
-925 -1569 0
-926 -1570 0
-927 -1573 0
-928 -1574 0
-925 -1588 0
-926 -1589 0
-928 -1592 0
-924 -1600 0
-926 -1603 0
-928 -1606 0
-923 -1607 0
-924 -1608 0
-925 -1609 0
-926 -1611 0
-928 -1613 0
-922 -1621 0
-924 -1622 0
-926 -1624 0
-928 -1626 0
-923 -1627 0
-926 -1631 0
-928 -1633 0
-924 -1640 0
-925 -1641 0
-928 -1645 0
-923 -1655 0
-925 -1657 0
-926 -1659 0
-928 -1660 0
-922 -1668 0
-926 -1671 0
-928 -1674 0
-926 -1683 0
-927 -1685 0
-928 -1686 0
-923 -1687 0
-925 -1689 0
-926 -1690 0
-928 -1693 0
-922 -1701 0
-923 -1702 0
-925 -1704 0
-926 -1705 0
-928 -1706 0
-923 -1716 0
-925 -1718 0
-928 -1721 0
-922 -1729 0
-925 -1731 0
-928 -1735 0
-922 -1736 0
-923 -1737 0
-925 -1738 0
-926 -1740 0
-928 -1742 0
-922 -1750 0
-925 -1751 0
-926 -1753 0
-928 -1755 0
-925 -1763 0
-927 -1766 0
-928 -1767 0
-923 -1768 0
-925 -1769 0
-926 -1770 0
-927 -1772 0
-928 -1773 0
-925 -1781 0
-926 -1783 0
-927 -1786 0
-928 -1787 0
-925 -1795 0
-927 -1798 0
-928 -1799 0
-926 -1808 0
-927 -1810 0
-928 -1811 0
-923 -1812 0
-925 -1813 0
-927 -1816 0
-928 -1817 0
-925 -1831 0
-926 -1833 0
-928 -1835 0
-923 -1844 0
-924 -1845 0
-926 -1847 0
-927 -1849 0
-928 -1850 0
-923 -1865 0
-927 -1869 0
-928 -1870 0
-922 -1885 0
-923 -1886 0
-925 -1887 0
-927 -1890 0
-928 -1891 0
-923 -1899 0
-926 -1901 0
-927 -1903 0
-928 -1904 0
-922 -1911 0
-923 -1912 0
-926 -1913 0
-927 -1916 0
-928 -1917 0
-923 -1925 0
-925 -1926 0
-927 -1929 0
-928 -1930 0
-922 -1937 0
-927 -1941 0
-928 -1942 0
-925 -1952 0
-926 -1954 0
-927 -1957 0
-928 -1958 0
-929 -1087 0
-933 -1089 0
-935 -1092 0
-929 -1093 0
-934 -1095 0
-935 -1098 0
-933 -1124 0
-934 -1125 0
-935 -1128 0
-935 -1134 0
-931 -1161 0
-933 -1162 0
-935 -1166 0
-929 -1261 0
-933 -1262 0
-934 -1263 0
-935 -1266 0
-929 -1267 0
-933 -1268 0
-935 -1272 0
-935 -1313 0
-933 -1315 0
-934 -1316 0
-935 -1319 0
-933 -1397 0
-934 -1398 0
-935 -1403 0
-932 -1431 0
-934 -1432 0
-935 -1436 0
-929 -1437 0
-934 -1438 0
-935 -1442 0
-929 -1443 0
-933 -1444 0
-934 -1445 0
-935 -1448 0
-933 -1450 0
-934 -1451 0
-935 -1456 0
-935 -1462 0
-931 -1479 0
-933 -1480 0
-935 -1484 0
-931 -1486 0
-934 -1487 0
-935 -1491 0
-930 -1532 0
-933 -1534 0
-935 -1538 0
-930 -1539 0
-933 -1541 0
-934 -1542 0
-935 -1545 0
-929 -1546 0
-933 -1548 0
-935 -1551 0
-931 -1581 0
-933 -1582 0
-934 -1583 0
-935 -1586 0
-931 -1587 0
-933 -1588 0
-935 -1592 0
-932 -1594 0
-933 -1595 0
-935 -1599 0
-932 -1601 0
-934 -1602 0
-935 -1606 0
-930 -1607 0
-933 -1609 0
-934 -1610 0
-935 -1613 0
-930 -1614 0
-934 -1616 0
-935 -1620 0
-929 -1621 0
-934 -1623 0
-935 -1626 0
-931 -1646 0
-932 -1647 0
-933 -1648 0
-934 -1649 0
-935 -1654 0
-930 -1655 0
-931 -1656 0
-933 -1657 0
-934 -1658 0
-935 -1660 0
-929 -1661 0
-931 -1662 0
-933 -1663 0
-934 -1664 0
-935 -1667 0
-929 -1668 0
-931 -1669 0
-934 -1670 0
-935 -1674 0
-931 -1675 0
-933 -1676 0
-935 -1680 0
-931 -1681 0
-934 -1682 0
-935 -1686 0
-930 -1716 0
-932 -1717 0
-933 -1718 0
-934 -1719 0
-935 -1721 0
-929 -1722 0
-932 -1723 0
-933 -1724 0
-935 -1728 0
-929 -1729 0
-932 -1730 0
-933 -1731 0
-934 -1732 0
-935 -1735 0
-929 -1736 0
-930 -1737 0
-933 -1738 0
-934 -1739 0
-935 -1742 0
-929 -1743 0
-930 -1744 0
-933 -1745 0
-934 -1746 0
-935 -1749 0
-929 -1750 0
-933 -1751 0
-934 -1752 0
-935 -1755 0
-932 -1756 0
-933 -1757 0
-934 -1758 0
-935 -1761 0
-932 -1762 0
-933 -1763 0
-935 -1767 0
-930 -1768 0
-933 -1769 0
-935 -1773 0
-930 -1774 0
-933 -1775 0
-934 -1776 0
-935 -1779 0
-931 -1788 0
-934 -1789 0
-935 -1793 0
-931 -1794 0
-933 -1795 0
-934 -1796 0
-935 -1799 0
-932 -1800 0
-933 -1801 0
-935 -1805 0
-932 -1806 0
-934 -1807 0
-935 -1811 0
-930 -1812 0
-933 -1813 0
-934 -1814 0
-935 -1817 0
-930 -1818 0
-934 -1819 0
-935 -1823 0
-932 -1824 0
-934 -1825 0
-935 -1829 0
-932 -1830 0
-933 -1831 0
-934 -1832 0
-935 -1835 0
-930 -1925 0
-933 -1926 0
-934 -1927 0
-935 -1930 0
-929 -1931 0
-933 -1932 0
-935 -1936 0
-929 -1937 0
-934 -1938 0
-935 -1942 0
-933 -1943 0
-934 -1944 0
-935 -1949 0
-933 -1952 0
-934 -1953 0
-935 -1958 0
-936 -1050 0
-938 -1051 0
-939 -1053 0
-942 -1054 0
-944 -1055 0
-936 -1062 0
-937 -1063 0
-938 -1064 0
-939 -1065 0
-940 -1066 0
-942 -1068 0
-943 -1069 0
-944 -1070 0
-936 -1071 0
-938 -1072 0
-939 -1073 0
-941 -1074 0
-942 -1076 0
-944 -1077 0
-936 -1078 0
-937 -1079 0
-939 -1082 0
-941 -1083 0
-942 -1085 0
-944 -1086 0
-936 -1117 0
-939 -1119 0
-940 -1120 0
-942 -1121 0
-944 -1122 0
-938 -1129 0
-941 -1130 0
-942 -1132 0
-943 -1133 0
-944 -1134 0
-940 -1137 0
-942 -1139 0
-944 -1140 0
-937 -1141 0
-942 -1144 0
-943 -1145 0
-944 -1146 0
-936 -1147 0
-940 -1149 0
-941 -1150 0
-942 -1152 0
-944 -1153 0
-936 -1186 0
-937 -1187 0
-939 -1189 0
-942 -1190 0
-943 -1191 0
-944 -1192 0
-936 -1240 0
-940 -1242 0
-941 -1243 0
-942 -1244 0
-943 -1245 0
-944 -1246 0
-936 -1254 0
-937 -1255 0
-941 -1256 0
-942 -1258 0
-943 -1259 0
-944 -1260 0
-938 -1280 0
-939 -1282 0
-941 -1283 0
-942 -1284 0
-943 -1285 0
-944 -1286 0
-937 -1294 0
-938 -1295 0
-939 -1296 0
-940 -1297 0
-941 -1298 0
-944 -1300 0
-937 -1301 0
-939 -1304 0
-943 -1306 0
-944 -1307 0
-936 -1342 0
-939 -1344 0
-940 -1345 0
-941 -1346 0
-943 -1347 0
-944 -1348 0
-939 -1406 0
-942 -1408 0
-943 -1409 0
-944 -1410 0
-937 -1411 0
-939 -1413 0
-940 -1414 0
-944 -1416 0
-936 -1417 0
-939 -1419 0
-941 -1420 0
-943 -1422 0
-944 -1423 0
-936 -1443 0
-939 -1444 0
-940 -1445 0
-941 -1446 0
-944 -1448 0
-938 -1457 0
-941 -1458 0
-942 -1460 0
-943 -1461 0
-944 -1462 0
-937 -1463 0
-938 -1464 0
-941 -1466 0
-943 -1467 0
-944 -1468 0
-938 -1485 0
-940 -1487 0
-942 -1489 0
-943 -1490 0
-944 -1491 0
-937 -1492 0
-940 -1494 0
-941 -1495 0
-943 -1497 0
-944 -1498 0
-937 -1508 0
-938 -1509 0
-942 -1512 0
-944 -1513 0
-937 -1520 0
-938 -1521 0
-940 -1522 0
-943 -1524 0
-944 -1525 0
-937 -1526 0
-941 -1529 0
-944 -1531 0
-936 -1575 0
-937 -1576 0
-940 -1578 0
-944 -1580 0
-939 -1588 0
-941 -1589 0
-942 -1591 0
-944 -1592 0
-938 -1593 0
-939 -1595 0
-941 -1596 0
-942 -1597 0
-943 -1598 0
-944 -1599 0
-937 -1607 0
-938 -1608 0
-939 -1609 0
-940 -1610 0
-941 -1611 0
-944 -1613 0
-938 -1640 0
-939 -1641 0
-940 -1642 0
-942 -1644 0
-944 -1645 0
-939 -1648 0
-940 -1649 0
-941 -1650 0
-942 -1652 0
-943 -1653 0
-944 -1654 0
-937 -1655 0
-939 -1657 0
-940 -1658 0
-941 -1659 0
-944 -1660 0
-936 -1661 0
-939 -1663 0
-940 -1664 0
-941 -1665 0
-943 -1666 0
-944 -1667 0
-937 -1687 0
-939 -1689 0
-941 -1690 0
-942 -1692 0
-944 -1693 0
-937 -1694 0
-939 -1696 0
-940 -1697 0
-941 -1698 0
-943 -1699 0
-944 -1700 0
-936 -1701 0
-937 -1702 0
-939 -1704 0
-941 -1705 0
-944 -1706 0
-936 -1729 0
-939 -1731 0
-940 -1732 0
-942 -1734 0
-944 -1735 0
-936 -1743 0
-937 -1744 0
-939 -1745 0
-940 -1746 0
-943 -1748 0
-944 -1749 0
-936 -1750 0
-939 -1751 0
-940 -1752 0
-941 -1753 0
-944 -1755 0
-939 -1757 0
-940 -1758 0
-941 -1759 0
-942 -1760 0
-944 -1761 0
-937 -1768 0
-939 -1769 0
-941 -1770 0
-943 -1772 0
-944 -1773 0
-939 -1781 0
-940 -1782 0
-941 -1783 0
-942 -1785 0
-943 -1786 0
-944 -1787 0
-940 -1789 0
-941 -1790 0
-942 -1791 0
-943 -1792 0
-944 -1793 0
-940 -1807 0
-941 -1808 0
-943 -1810 0
-944 -1811 0
-937 -1818 0
-940 -1819 0
-941 -1820 0
-942 -1822 0
-944 -1823 0
-939 -1836 0
-940 -1837 0
-941 -1838 0
-942 -1840 0
-943 -1841 0
-944 -1842 0
-937 -1851 0
-938 -1852 0
-939 -1853 0
-942 -1855 0
-943 -1856 0
-944 -1857 0
-937 -1858 0
-939 -1860 0
-941 -1861 0
-942 -1862 0
-943 -1863 0
-944 -1864 0
-937 -1899 0
-941 -1901 0
-942 -1902 0
-943 -1903 0
-944 -1904 0
-937 -1905 0
-940 -1906 0
-941 -1907 0
-942 -1909 0
-944 -1910 0
-936 -1911 0
-937 -1912 0
-941 -1913 0
-942 -1915 0
-943 -1916 0
-944 -1917 0
-936 -1937 0
-940 -1938 0
-942 -1940 0
-943 -1941 0
-944 -1942 0
-939 -1943 0
-940 -1944 0
-941 -1945 0
-942 -1947 0
-943 -1948 0
-944 -1949 0
-939 -1952 0
-940 -1953 0
-941 -1954 0
-942 -1956 0
-943 -1957 0
-944 -1958 0
-945 -1041 0
-947 -1042 0
-948 -1045 0
-949 -1046 0
-950 -1049 0
-945 -1056 0
-946 -1057 0
-947 -1058 0
-948 -1059 0
-949 -1060 0
-950 -1061 0
-945 -1071 0
-947 -1072 0
-948 -1074 0
-949 -1075 0
-950 -1077 0
-945 -1078 0
-946 -1079 0
-948 -1083 0
-949 -1084 0
-950 -1086 0
-945 -1111 0
-948 -1113 0
-949 -1114 0
-950 -1116 0
-947 -1123 0
-949 -1126 0
-950 -1128 0
-949 -1138 0
-950 -1140 0
-946 -1141 0
-949 -1143 0
-950 -1146 0
-945 -1154 0
-949 -1157 0
-950 -1160 0
-945 -1179 0
-946 -1180 0
-948 -1183 0
-949 -1184 0
-950 -1185 0
-945 -1233 0
-949 -1237 0
-950 -1239 0
-945 -1247 0
-946 -1248 0
-949 -1251 0
-950 -1253 0
-947 -1273 0
-949 -1277 0
-950 -1279 0
-946 -1287 0
-947 -1288 0
-949 -1290 0
-950 -1293 0
-946 -1301 0
-949 -1305 0
-950 -1307 0
-945 -1335 0
-949 -1338 0
-950 -1341 0
-949 -1407 0
-950 -1410 0
-946 -1411 0
-949 -1415 0
-950 -1416 0
-945 -1424 0
-949 -1428 0
-950 -1430 0
-945 -1437 0
-949 -1439 0
-950 -1442 0
-948 -1452 0
-949 -1453 0
-950 -1456 0
-947 -1457 0
-948 -1458 0
-949 -1459 0
-950 -1462 0
-946 -1469 0
-947 -1470 0
-948 -1474 0
-949 -1475 0
-950 -1477 0
-947 -1478 0
-948 -1481 0
-949 -1482 0
-950 -1484 0
-946 -1492 0
-948 -1495 0
-949 -1496 0
-950 -1498 0
-946 -1499 0
-947 -1500 0
-948 -1504 0
-949 -1505 0
-950 -1507 0
-946 -1514 0
-947 -1515 0
-948 -1517 0
-950 -1519 0
-946 -1526 0
-948 -1529 0
-949 -1530 0
-950 -1531 0
-945 -1566 0
-946 -1567 0
-948 -1570 0
-949 -1571 0
-950 -1574 0
-949 -1584 0
-950 -1586 0
-947 -1600 0
-948 -1603 0
-949 -1604 0
-950 -1606 0
-946 -1614 0
-947 -1615 0
-948 -1617 0
-950 -1620 0
-947 -1634 0
-948 -1637 0
-950 -1639 0
-948 -1650 0
-949 -1651 0
-950 -1654 0
-946 -1655 0
-948 -1659 0
-950 -1660 0
-945 -1668 0
-948 -1671 0
-949 -1672 0
-950 -1674 0
-946 -1687 0
-948 -1690 0
-949 -1691 0
-950 -1693 0
-946 -1694 0
-948 -1698 0
-950 -1700 0
-945 -1707 0
-946 -1708 0
-948 -1711 0
-949 -1712 0
-950 -1715 0
-945 -1722 0
-948 -1725 0
-949 -1726 0
-950 -1728 0
-945 -1736 0
-946 -1737 0
-948 -1740 0
-950 -1742 0
-945 -1750 0
-948 -1753 0
-949 -1754 0
-950 -1755 0
-949 -1764 0
-950 -1767 0
-946 -1774 0
-950 -1779 0
-949 -1797 0
-950 -1799 0
-949 -1802 0
-950 -1805 0
-946 -1812 0
-950 -1817 0
-946 -1844 0
-947 -1845 0
-948 -1847 0
-950 -1850 0
-946 -1858 0
-948 -1861 0
-950 -1864 0
-946 -1899 0
-948 -1901 0
-950 -1904 0
-946 -1905 0
-948 -1907 0
-949 -1908 0
-950 -1910 0
-945 -1918 0
-946 -1919 0
-948 -1922 0
-950 -1924 0
-945 -1931 0
-948 -1933 0
-950 -1936 0
-953 -1010 0
-954 -1011 0
-955 -1012 0
-956 -1013 0
-957 -1014 0
-952 -1036 0
-955 -1038 0
-957 -1040 0
-951 -1056 0
-952 -1058 0
-954 -1059 0
-955 -1060 0
-957 -1061 0
-951 -1062 0
-952 -1064 0
-953 -1066 0
-955 -1067 0
-956 -1069 0
-957 -1070 0
-951 -1078 0
-954 -1083 0
-955 -1084 0
-957 -1086 0
-951 -1105 0
-953 -1108 0
-955 -1109 0
-957 -1110 0
-952 -1123 0
-953 -1125 0
-955 -1126 0
-957 -1128 0
-952 -1129 0
-954 -1130 0
-955 -1131 0
-956 -1133 0
-957 -1134 0
-953 -1137 0
-955 -1138 0
-957 -1140 0
-951 -1147 0
-953 -1149 0
-954 -1150 0
-955 -1151 0
-957 -1153 0
-951 -1154 0
-955 -1157 0
-956 -1159 0
-957 -1160 0
-954 -1163 0
-955 -1164 0
-957 -1166 0
-951 -1173 0
-955 -1176 0
-956 -1177 0
-957 -1178 0
-953 -1227 0
-954 -1228 0
-955 -1229 0
-956 -1231 0
-957 -1232 0
-951 -1247 0
-953 -1250 0
-955 -1251 0
-956 -1252 0
-957 -1253 0
-951 -1254 0
-954 -1256 0
-955 -1257 0
-956 -1259 0
-957 -1260 0
-952 -1288 0
-955 -1290 0
-956 -1292 0
-957 -1293 0
-952 -1295 0
-953 -1297 0
-954 -1298 0
-955 -1299 0
-957 -1300 0
-955 -1305 0
-956 -1306 0
-957 -1307 0
-953 -1329 0
-954 -1330 0
-955 -1331 0
-956 -1333 0
-957 -1334 0
-954 -1359 0
-955 -1360 0
-957 -1362 0
-955 -1407 0
-956 -1409 0
-957 -1410 0
-951 -1417 0
-954 -1420 0
-955 -1421 0
-956 -1422 0
-957 -1423 0
-951 -1424 0
-953 -1427 0
-955 -1428 0
-957 -1430 0
-953 -1432 0
-954 -1433 0
-955 -1434 0
-956 -1435 0
-957 -1436 0
-951 -1437 0
-953 -1438 0
-955 -1439 0
-956 -1441 0
-957 -1442 0
-951 -1443 0
-953 -1445 0
-954 -1446 0
-955 -1447 0
-957 -1448 0
-952 -1464 0
-954 -1466 0
-956 -1467 0
-957 -1468 0
-952 -1470 0
-953 -1473 0
-954 -1474 0
-955 -1475 0
-957 -1477 0
-953 -1494 0
-954 -1495 0
-955 -1496 0
-956 -1497 0
-957 -1498 0
-952 -1515 0
-954 -1517 0
-957 -1519 0
-952 -1521 0
-953 -1522 0
-955 -1523 0
-956 -1524 0
-957 -1525 0
-954 -1529 0
-955 -1530 0
-957 -1531 0
-953 -1562 0
-955 -1563 0
-957 -1565 0
-952 -1593 0
-954 -1596 0
-956 -1598 0
-957 -1599 0
-952 -1600 0
-953 -1602 0
-954 -1603 0
-955 -1604 0
-957 -1606 0
-951 -1621 0
-952 -1622 0
-953 -1623 0
-954 -1624 0
-957 -1626 0
-952 -1634 0
-953 -1636 0
-954 -1637 0
-956 -1638 0
-957 -1639 0
-952 -1640 0
-953 -1642 0
-955 -1643 0
-957 -1645 0
-953 -1649 0
-954 -1650 0
-955 -1651 0
-956 -1653 0
-957 -1654 0
-951 -1661 0
-953 -1664 0
-954 -1665 0
-956 -1666 0
-957 -1667 0
-951 -1668 0
-953 -1670 0
-954 -1671 0
-955 -1672 0
-957 -1674 0
-954 -1690 0
-955 -1691 0
-957 -1693 0
-951 -1701 0
-954 -1705 0
-957 -1706 0
-951 -1707 0
-953 -1710 0
-954 -1711 0
-955 -1712 0
-956 -1714 0
-957 -1715 0
-953 -1719 0
-955 -1720 0
-957 -1721 0
-951 -1736 0
-953 -1739 0
-954 -1740 0
-957 -1742 0
-951 -1743 0
-953 -1746 0
-955 -1747 0
-956 -1748 0
-957 -1749 0
-953 -1758 0
-954 -1759 0
-957 -1761 0
-955 -1764 0
-956 -1766 0
-957 -1767 0
-953 -1782 0
-954 -1783 0
-955 -1784 0
-956 -1786 0
-957 -1787 0
-953 -1789 0
-954 -1790 0
-956 -1792 0
-957 -1793 0
-953 -1796 0
-955 -1797 0
-956 -1798 0
-957 -1799 0
-953 -1814 0
-956 -1816 0
-957 -1817 0
-953 -1819 0
-954 -1820 0
-955 -1821 0
-957 -1823 0
-954 -1861 0
-956 -1863 0
-957 -1864 0
-954 -1901 0
-956 -1903 0
-957 -1904 0
-951 -1911 0
-954 -1913 0
-955 -1914 0
-956 -1916 0
-957 -1917 0
-951 -1918 0
-953 -1921 0
-954 -1922 0
-957 -1924 0
-953 -1927 0
-956 -1929 0
-957 -1930 0
-953 -1944 0
-954 -1945 0
-955 -1946 0
-956 -1948 0
-957 -1949 0
-958 -1056 0
-959 -1057 0
-963 -1059 0
-964 -1060 0
-966 -1061 0
-958 -1062 0
-959 -1063 0
-962 -1066 0
-964 -1067 0
-965 -1069 0
-966 -1070 0
-958 -1071 0
-963 -1074 0
-964 -1075 0
-966 -1077 0
-962 -1125 0
-964 -1126 0
-966 -1128 0
-963 -1130 0
-964 -1131 0
-965 -1133 0
-966 -1134 0
-959 -1141 0
-960 -1142 0
-964 -1143 0
-965 -1145 0
-966 -1146 0
-958 -1147 0
-960 -1148 0
-962 -1149 0
-963 -1150 0
-964 -1151 0
-966 -1153 0
-958 -1154 0
-960 -1155 0
-964 -1157 0
-965 -1159 0
-966 -1160 0
-958 -1247 0
-959 -1248 0
-962 -1250 0
-964 -1251 0
-965 -1252 0
-966 -1253 0
-958 -1254 0
-959 -1255 0
-963 -1256 0
-964 -1257 0
-965 -1259 0
-966 -1260 0
-959 -1287 0
-964 -1290 0
-965 -1292 0
-966 -1293 0
-959 -1294 0
-962 -1297 0
-963 -1298 0
-964 -1299 0
-966 -1300 0
-959 -1411 0
-961 -1412 0
-962 -1414 0
-964 -1415 0
-966 -1416 0
-958 -1417 0
-961 -1418 0
-963 -1420 0
-964 -1421 0
-965 -1422 0
-966 -1423 0
-958 -1424 0
-961 -1425 0
-962 -1427 0
-964 -1428 0
-966 -1430 0
-958 -1437 0
-962 -1438 0
-964 -1439 0
-965 -1441 0
-966 -1442 0
-958 -1443 0
-962 -1445 0
-963 -1446 0
-964 -1447 0
-966 -1448 0
-963 -1458 0
-964 -1459 0
-965 -1461 0
-966 -1462 0
-959 -1463 0
-960 -1465 0
-963 -1466 0
-965 -1467 0
-966 -1468 0
-959 -1469 0
-960 -1471 0
-962 -1473 0
-963 -1474 0
-964 -1475 0
-966 -1477 0
-959 -1514 0
-963 -1517 0
-966 -1519 0
-959 -1520 0
-962 -1522 0
-964 -1523 0
-965 -1524 0
-966 -1525 0
-961 -1594 0
-963 -1596 0
-965 -1598 0
-966 -1599 0
-961 -1601 0
-962 -1602 0
-963 -1603 0
-964 -1604 0
-966 -1606 0
-959 -1627 0
-960 -1628 0
-961 -1629 0
-962 -1630 0
-963 -1631 0
-966 -1633 0
-962 -1636 0
-963 -1637 0
-965 -1638 0
-966 -1639 0
-962 -1642 0
-964 -1643 0
-966 -1645 0
-959 -1655 0
-960 -1656 0
-962 -1658 0
-963 -1659 0
-966 -1660 0
-958 -1661 0
-960 -1662 0
-962 -1664 0
-963 -1665 0
-965 -1666 0
-966 -1667 0
-958 -1668 0
-960 -1669 0
-962 -1670 0
-963 -1671 0
-964 -1672 0
-966 -1674 0
-959 -1694 0
-961 -1695 0
-962 -1697 0
-963 -1698 0
-965 -1699 0
-966 -1700 0
-958 -1701 0
-959 -1702 0
-961 -1703 0
-963 -1705 0
-966 -1706 0
-958 -1707 0
-959 -1708 0
-961 -1709 0
-962 -1710 0
-963 -1711 0
-964 -1712 0
-965 -1714 0
-966 -1715 0
-958 -1736 0
-959 -1737 0
-962 -1739 0
-963 -1740 0
-966 -1742 0
-958 -1743 0
-959 -1744 0
-962 -1746 0
-964 -1747 0
-965 -1748 0
-966 -1749 0
-958 -1750 0
-962 -1752 0
-963 -1753 0
-964 -1754 0
-966 -1755 0
-961 -1756 0
-962 -1758 0
-963 -1759 0
-966 -1761 0
-961 -1762 0
-964 -1764 0
-965 -1766 0
-966 -1767 0
-962 -1782 0
-963 -1783 0
-964 -1784 0
-965 -1786 0
-966 -1787 0
-960 -1788 0
-962 -1789 0
-963 -1790 0
-965 -1792 0
-966 -1793 0
-960 -1794 0
-962 -1796 0
-964 -1797 0
-965 -1798 0
-966 -1799 0
-959 -1812 0
-962 -1814 0
-965 -1816 0
-966 -1817 0
-959 -1818 0
-962 -1819 0
-963 -1820 0
-964 -1821 0
-966 -1823 0
-959 -1905 0
-962 -1906 0
-963 -1907 0
-964 -1908 0
-966 -1910 0
-958 -1911 0
-959 -1912 0
-963 -1913 0
-964 -1914 0
-965 -1916 0
-966 -1917 0
-958 -1918 0
-959 -1919 0
-962 -1921 0
-963 -1922 0
-966 -1924 0
-962 -1944 0
-963 -1945 0
-964 -1946 0
-965 -1948 0
-966 -1949 0
-967 -1041 0
-970 -1045 0
-971 -1047 0
-972 -1049 0
-967 -1050 0
-971 -1054 0
-972 -1055 0
-967 -1071 0
-970 -1074 0
-971 -1076 0
-972 -1077 0
-971 -1127 0
-972 -1128 0
-970 -1130 0
-971 -1132 0
-972 -1134 0
-969 -1135 0
-971 -1139 0
-972 -1140 0
-967 -1147 0
-969 -1148 0
-970 -1150 0
-971 -1152 0
-972 -1153 0
-967 -1154 0
-969 -1155 0
-971 -1158 0
-972 -1160 0
-967 -1233 0
-971 -1238 0
-972 -1239 0
-967 -1240 0
-970 -1243 0
-971 -1244 0
-972 -1246 0
-972 -1279 0
-970 -1283 0
-971 -1284 0
-972 -1286 0
-971 -1408 0
-972 -1410 0
-967 -1417 0
-970 -1420 0
-972 -1423 0
-967 -1424 0
-971 -1429 0
-972 -1430 0
-970 -1452 0
-971 -1454 0
-972 -1456 0
-968 -1463 0
-969 -1465 0
-970 -1466 0
-972 -1468 0
-968 -1469 0
-969 -1471 0
-970 -1474 0
-971 -1476 0
-972 -1477 0
-969 -1479 0
-970 -1481 0
-972 -1484 0
-969 -1486 0
-971 -1489 0
-972 -1491 0
-968 -1499 0
-970 -1504 0
-972 -1507 0
-968 -1508 0
-971 -1512 0
-972 -1513 0
-967 -1546 0
-972 -1551 0
-969 -1581 0
-972 -1586 0
-969 -1587 0
-970 -1589 0
-971 -1591 0
-972 -1592 0
-968 -1607 0
-970 -1611 0
-972 -1613 0
-968 -1614 0
-970 -1617 0
-971 -1618 0
-972 -1620 0
-968 -1627 0
-969 -1628 0
-970 -1631 0
-971 -1632 0
-972 -1633 0
-970 -1637 0
-972 -1639 0
-971 -1644 0
-972 -1645 0
-969 -1646 0
-970 -1650 0
-971 -1652 0
-972 -1654 0
-967 -1661 0
-969 -1662 0
-970 -1665 0
-972 -1667 0
-967 -1668 0
-969 -1669 0
-970 -1671 0
-971 -1673 0
-972 -1674 0
-968 -1687 0
-970 -1690 0
-971 -1692 0
-972 -1693 0
-967 -1701 0
-968 -1702 0
-970 -1705 0
-972 -1706 0
-967 -1707 0
-968 -1708 0
-970 -1711 0
-971 -1713 0
-972 -1715 0
-967 -1722 0
-970 -1725 0
-972 -1728 0
-967 -1729 0
-971 -1734 0
-972 -1735 0
-967 -1750 0
-970 -1753 0
-972 -1755 0
-968 -1768 0
-970 -1770 0
-972 -1773 0
-968 -1774 0
-971 -1777 0
-972 -1779 0
-970 -1783 0
-971 -1785 0
-972 -1787 0
-969 -1788 0
-970 -1790 0
-971 -1791 0
-972 -1793 0
-969 -1794 0
-972 -1799 0
-971 -1803 0
-972 -1805 0
-970 -1808 0
-972 -1811 0
-970 -1838 0
-971 -1840 0
-972 -1842 0
-968 -1844 0
-970 -1847 0
-971 -1848 0
-972 -1850 0
-968 -1851 0
-971 -1855 0
-972 -1857 0
-968 -1899 0
-970 -1901 0
-971 -1902 0
-972 -1904 0
-967 -1911 0
-968 -1912 0
-970 -1913 0
-971 -1915 0
-972 -1917 0
-967 -1918 0
-968 -1919 0
-970 -1922 0
-971 -1923 0
-972 -1924 0
-967 -1931 0
-970 -1933 0
-971 -1934 0
-972 -1936 0
-967 -1937 0
-971 -1940 0
-972 -1942 0
-970 -1954 0
-971 -1956 0
-972 -1958 0
-974 -994 0
-976 -996 0
-977 -998 0
-978 -999 0
-979 -1000 0
-974 -1035 0
-977 -1039 0
-979 -1040 0
-973 -1050 0
-977 -1054 0
-979 -1055 0
-973 -1062 0
-974 -1063 0
-976 -1066 0
-977 -1068 0
-978 -1069 0
-979 -1070 0
-973 -1093 0
-976 -1095 0
-977 -1097 0
-979 -1098 0
-976 -1125 0
-977 -1127 0
-979 -1128 0
-975 -1135 0
-976 -1137 0
-977 -1139 0
-979 -1140 0
-974 -1141 0
-975 -1142 0
-977 -1144 0
-978 -1145 0
-979 -1146 0
-973 -1154 0
-975 -1155 0
-977 -1158 0
-978 -1159 0
-979 -1160 0
-975 -1161 0
-977 -1165 0
-979 -1166 0
-974 -1224 0
-976 -1227 0
-977 -1230 0
-978 -1231 0
-979 -1232 0
-973 -1240 0
-976 -1242 0
-977 -1244 0
-978 -1245 0
-979 -1246 0
-973 -1254 0
-974 -1255 0
-977 -1258 0
-978 -1259 0
-979 -1260 0
-973 -1267 0
-977 -1270 0
-978 -1271 0
-979 -1272 0
-977 -1284 0
-978 -1285 0
-979 -1286 0
-974 -1294 0
-976 -1297 0
-979 -1300 0
-976 -1316 0
-978 -1318 0
-979 -1319 0
-977 -1408 0
-978 -1409 0
-979 -1410 0
-974 -1411 0
-976 -1414 0
-979 -1416 0
-973 -1424 0
-976 -1427 0
-977 -1429 0
-979 -1430 0
-976 -1432 0
-978 -1435 0
-979 -1436 0
-973 -1443 0
-976 -1445 0
-979 -1448 0
-977 -1460 0
-978 -1461 0
-979 -1462 0
-974 -1469 0
-975 -1471 0
-976 -1473 0
-977 -1476 0
-979 -1477 0
-975 -1486 0
-976 -1487 0
-977 -1489 0
-978 -1490 0
-979 -1491 0
-974 -1508 0
-977 -1512 0
-979 -1513 0
-974 -1520 0
-976 -1522 0
-978 -1524 0
-979 -1525 0
-974 -1539 0
-976 -1542 0
-979 -1545 0
-975 -1587 0
-977 -1591 0
-979 -1592 0
-977 -1597 0
-978 -1598 0
-979 -1599 0
-974 -1607 0
-976 -1610 0
-979 -1613 0
-973 -1621 0
-976 -1623 0
-977 -1625 0
-979 -1626 0
-974 -1627 0
-975 -1628 0
-976 -1630 0
-977 -1632 0
-979 -1633 0
-976 -1636 0
-978 -1638 0
-979 -1639 0
-975 -1646 0
-976 -1649 0
-977 -1652 0
-978 -1653 0
-979 -1654 0
-974 -1655 0
-975 -1656 0
-976 -1658 0
-979 -1660 0
-973 -1668 0
-975 -1669 0
-976 -1670 0
-977 -1673 0
-979 -1674 0
-975 -1675 0
-977 -1679 0
-979 -1680 0
-974 -1687 0
-977 -1692 0
-979 -1693 0
-974 -1694 0
-976 -1697 0
-978 -1699 0
-979 -1700 0
-973 -1707 0
-974 -1708 0
-976 -1710 0
-977 -1713 0
-978 -1714 0
-979 -1715 0
-974 -1716 0
-976 -1719 0
-979 -1721 0
-973 -1729 0
-976 -1732 0
-977 -1734 0
-979 -1735 0
-973 -1743 0
-974 -1744 0
-976 -1746 0
-978 -1748 0
-979 -1749 0
-976 -1758 0
-977 -1760 0
-979 -1761 0
-974 -1768 0
-978 -1772 0
-979 -1773 0
-975 -1794 0
-976 -1796 0
-978 -1798 0
-979 -1799 0
-976 -1807 0
-978 -1810 0
-979 -1811 0
-974 -1818 0
-976 -1819 0
-977 -1822 0
-979 -1823 0
-976 -1825 0
-978 -1828 0
-979 -1829 0
-976 -1837 0
-977 -1840 0
-978 -1841 0
-979 -1842 0
-974 -1851 0
-977 -1855 0
-978 -1856 0
-979 -1857 0
-974 -1899 0
-977 -1902 0
-978 -1903 0
-979 -1904 0
-974 -1905 0
-976 -1906 0
-977 -1909 0
-979 -1910 0
-973 -1918 0
-974 -1919 0
-976 -1921 0
-977 -1923 0
-979 -1924 0
-974 -1925 0
-976 -1927 0
-977 -1928 0
-978 -1929 0
-979 -1930 0
-973 -1937 0
-976 -1938 0
-977 -1940 0
-978 -1941 0
-979 -1942 0
-976 -1944 0
-977 -1947 0
-978 -1948 0
-979 -1949 0
-976 -1953 0
-977 -1956 0
-978 -1957 0
-979 -1958 0
-981 -987 0
-983 -989 0
-984 -991 0
-985 -992 0
-986 -993 0
-981 -1035 0
-985 -1038 0
-986 -1040 0
-980 -1041 0
-984 -1045 0
-985 -1046 0
-986 -1049 0
-980 -1056 0
-981 -1057 0
-984 -1059 0
-985 -1060 0
-986 -1061 0
-980 -1087 0
-983 -1089 0
-985 -1090 0
-986 -1092 0
-984 -1130 0
-985 -1131 0
-986 -1134 0
-982 -1135 0
-985 -1138 0
-986 -1140 0
-981 -1141 0
-982 -1142 0
-985 -1143 0
-986 -1146 0
-980 -1147 0
-982 -1148 0
-984 -1150 0
-985 -1151 0
-986 -1153 0
-982 -1161 0
-983 -1162 0
-984 -1163 0
-985 -1164 0
-986 -1166 0
-981 -1224 0
-983 -1226 0
-984 -1228 0
-985 -1229 0
-986 -1232 0
-980 -1233 0
-983 -1235 0
-985 -1237 0
-986 -1239 0
-980 -1247 0
-981 -1248 0
-983 -1249 0
-985 -1251 0
-986 -1253 0
-980 -1261 0
-983 -1262 0
-984 -1264 0
-985 -1265 0
-986 -1266 0
-983 -1275 0
-985 -1277 0
-986 -1279 0
-981 -1287 0
-983 -1289 0
-985 -1290 0
-986 -1293 0
-984 -1309 0
-985 -1310 0
-986 -1313 0
-983 -1397 0
-984 -1399 0
-985 -1400 0
-986 -1403 0
-983 -1406 0
-985 -1407 0
-986 -1410 0
-981 -1411 0
-983 -1413 0
-985 -1415 0
-986 -1416 0
-980 -1417 0
-983 -1419 0
-984 -1420 0
-985 -1421 0
-986 -1423 0
-984 -1433 0
-985 -1434 0
-986 -1436 0
-980 -1437 0
-985 -1439 0
-986 -1442 0
-983 -1450 0
-984 -1452 0
-985 -1453 0
-986 -1456 0
-984 -1458 0
-985 -1459 0
-986 -1462 0
-981 -1463 0
-982 -1465 0
-984 -1466 0
-986 -1468 0
-982 -1479 0
-983 -1480 0
-984 -1481 0
-985 -1482 0
-986 -1484 0
-981 -1499 0
-983 -1502 0
-984 -1504 0
-985 -1505 0
-986 -1507 0
-981 -1514 0
-983 -1516 0
-984 -1517 0
-986 -1519 0
-981 -1532 0
-983 -1534 0
-985 -1535 0
-986 -1538 0
-982 -1581 0
-983 -1582 0
-985 -1584 0
-986 -1586 0
-984 -1603 0
-985 -1604 0
-986 -1606 0
-981 -1614 0
-984 -1617 0
-986 -1620 0
-980 -1621 0
-984 -1624 0
-986 -1626 0
-981 -1627 0
-982 -1628 0
-984 -1631 0
-986 -1633 0
-983 -1641 0
-985 -1643 0
-986 -1645 0
-982 -1646 0
-983 -1648 0
-984 -1650 0
-985 -1651 0
-986 -1654 0
-981 -1655 0
-982 -1656 0
-983 -1657 0
-984 -1659 0
-986 -1660 0
-980 -1661 0
-982 -1662 0
-983 -1663 0
-984 -1665 0
-986 -1667 0
-982 -1681 0
-984 -1683 0
-986 -1686 0
-981 -1687 0
-983 -1689 0
-984 -1690 0
-985 -1691 0
-986 -1693 0
-981 -1694 0
-983 -1696 0
-984 -1698 0
-986 -1700 0
-980 -1701 0
-981 -1702 0
-983 -1704 0
-984 -1705 0
-986 -1706 0
-981 -1716 0
-983 -1718 0
-985 -1720 0
-986 -1721 0
-980 -1722 0
-983 -1724 0
-984 -1725 0
-985 -1726 0
-986 -1728 0
-980 -1736 0
-981 -1737 0
-983 -1738 0
-984 -1740 0
-986 -1742 0
-983 -1763 0
-985 -1764 0
-986 -1767 0
-981 -1774 0
-983 -1775 0
-986 -1779 0
-983 -1781 0
-984 -1783 0
-985 -1784 0
-986 -1787 0
-982 -1788 0
-984 -1790 0
-986 -1793 0
-983 -1801 0
-985 -1802 0
-986 -1805 0
-981 -1812 0
-983 -1813 0
-986 -1817 0
-983 -1831 0
-984 -1833 0
-986 -1835 0
-981 -1844 0
-984 -1847 0
-986 -1850 0
-981 -1899 0
-984 -1901 0
-986 -1904 0
-981 -1905 0
-984 -1907 0
-985 -1908 0
-986 -1910 0
-980 -1911 0
-981 -1912 0
-984 -1913 0
-985 -1914 0
-986 -1917 0
-981 -1925 0
-983 -1926 0
-986 -1930 0
-980 -1931 0
-983 -1932 0
-984 -1933 0
-986 -1936 0
-988 -1051 0
-989 -1053 0
-993 -1055 0
-987 -1063 0
-988 -1064 0
-989 -1065 0
-990 -1066 0
-992 -1067 0
-993 -1070 0
-988 -1072 0
-989 -1073 0
-991 -1074 0
-992 -1075 0
-993 -1077 0
-987 -1079 0
-989 -1082 0
-991 -1083 0
-992 -1084 0
-993 -1086 0
-988 -1094 0
-990 -1095 0
-991 -1096 0
-993 -1098 0
-993 -1104 0
-987 -1106 0
-990 -1108 0
-992 -1109 0
-993 -1110 0
-991 -1113 0
-992 -1114 0
-993 -1116 0
-989 -1156 0
-992 -1157 0
-993 -1160 0
-987 -1187 0
-989 -1189 0
-993 -1192 0
-991 -1207 0
-992 -1208 0
-993 -1210 0
-987 -1218 0
-990 -1219 0
-991 -1220 0
-993 -1222 0
-988 -1280 0
-989 -1282 0
-991 -1283 0
-993 -1286 0
-987 -1294 0
-988 -1295 0
-989 -1296 0
-990 -1297 0
-991 -1298 0
-992 -1299 0
-993 -1300 0
-987 -1301 0
-989 -1304 0
-992 -1305 0
-993 -1307 0
-988 -1314 0
-989 -1315 0
-990 -1316 0
-991 -1317 0
-993 -1319 0
-989 -1322 0
-991 -1323 0
-993 -1325 0
-987 -1326 0
-989 -1328 0
-990 -1329 0
-991 -1330 0
-992 -1331 0
-993 -1334 0
-989 -1337 0
-992 -1338 0
-993 -1341 0
-989 -1378 0
-991 -1379 0
-992 -1380 0
-993 -1382 0
-987 -1391 0
-989 -1392 0
-990 -1393 0
-991 -1394 0
-993 -1396 0
-989 -1406 0
-992 -1407 0
-993 -1410 0
-987 -1411 0
-989 -1413 0
-990 -1414 0
-992 -1415 0
-993 -1416 0
-989 -1419 0
-991 -1420 0
-992 -1421 0
-993 -1423 0
-990 -1432 0
-991 -1433 0
-992 -1434 0
-993 -1436 0
-990 -1438 0
-992 -1439 0
-993 -1442 0
-989 -1450 0
-990 -1451 0
-991 -1452 0
-992 -1453 0
-993 -1456 0
-988 -1457 0
-991 -1458 0
-992 -1459 0
-993 -1462 0
-987 -1463 0
-988 -1464 0
-991 -1466 0
-993 -1468 0
-988 -1478 0
-989 -1480 0
-991 -1481 0
-992 -1482 0
-993 -1484 0
-987 -1508 0
-988 -1509 0
-992 -1511 0
-993 -1513 0
-987 -1520 0
-988 -1521 0
-990 -1522 0
-992 -1523 0
-993 -1525 0
-987 -1526 0
-991 -1529 0
-992 -1530 0
-993 -1531 0
-987 -1539 0
-988 -1540 0
-989 -1541 0
-990 -1542 0
-991 -1543 0
-992 -1544 0
-993 -1545 0
-988 -1547 0
-989 -1548 0
-992 -1549 0
-993 -1551 0
-987 -1552 0
-989 -1555 0
-992 -1556 0
-993 -1558 0
-987 -1559 0
-989 -1561 0
-990 -1562 0
-992 -1563 0
-993 -1565 0
-987 -1567 0
-989 -1569 0
-991 -1570 0
-992 -1571 0
-993 -1574 0
-989 -1588 0
-991 -1589 0
-992 -1590 0
-993 -1592 0
-988 -1593 0
-989 -1595 0
-991 -1596 0
-993 -1599 0
-987 -1607 0
-988 -1608 0
-989 -1609 0
-990 -1610 0
-991 -1611 0
-992 -1612 0
-993 -1613 0
-988 -1634 0
-989 -1635 0
-990 -1636 0
-991 -1637 0
-993 -1639 0
-989 -1676 0
-991 -1677 0
-992 -1678 0
-993 -1680 0
-987 -1687 0
-989 -1689 0
-991 -1690 0
-992 -1691 0
-993 -1693 0
-987 -1694 0
-989 -1696 0
-990 -1697 0
-991 -1698 0
-993 -1700 0
-987 -1702 0
-989 -1704 0
-991 -1705 0
-993 -1706 0
-987 -1716 0
-989 -1718 0
-990 -1719 0
-992 -1720 0
-993 -1721 0
-989 -1724 0
-991 -1725 0
-992 -1726 0
-993 -1728 0
-987 -1737 0
-989 -1738 0
-990 -1739 0
-991 -1740 0
-993 -1742 0
-989 -1763 0
-992 -1764 0
-993 -1767 0
-987 -1774 0
-989 -1775 0
-990 -1776 0
-993 -1779 0
-989 -1781 0
-990 -1782 0
-991 -1783 0
-992 -1784 0
-993 -1787 0
-989 -1801 0
-992 -1802 0
-993 -1805 0
-987 -1812 0
-989 -1813 0
-990 -1814 0
-993 -1817 0
-987 -1851 0
-988 -1852 0
-989 -1853 0
-992 -1854 0
-993 -1857 0
-987 -1858 0
-989 -1860 0
-991 -1861 0
-993 -1864 0
-987 -1865 0
-992 -1867 0
-993 -1870 0
-987 -1893 0
-991 -1894 0
-992 -1895 0
-993 -1898 0
-987 -1899 0
-991 -1901 0
-993 -1904 0
-987 -1905 0
-990 -1906 0
-991 -1907 0
-992 -1908 0
-993 -1910 0
-987 -1912 0
-991 -1913 0
-992 -1914 0
-993 -1917 0
-987 -1925 0
-989 -1926 0
-990 -1927 0
-993 -1930 0
-989 -1932 0
-991 -1933 0
-993 -1936 0
-995 -1042 0
-996 -1044 0
-997 -1045 0
-998 -1047 0
-999 -1048 0
-1000 -1049 0
-994 -1057 0
-995 -1058 0
-997 -1059 0
-1000 -1061 0
-995 -1072 0
-997 -1074 0
-998 -1076 0
-1000 -1077 0
-994 -1079 0
-997 -1083 0
-998 -1085 0
-1000 -1086 0
-995 -1088 0
-999 -1091 0
-1000 -1092 0
-998 -1102 0
-999 -1103 0
-1000 -1104 0
-994 -1106 0
-996 -1108 0
-1000 -1110 0
-996 -1120 0
-998 -1121 0
-1000 -1122 0
-996 -1149 0
-997 -1150 0
-998 -1152 0
-1000 -1153 0
-994 -1180 0
-996 -1182 0
-997 -1183 0
-1000 -1185 0
-996 -1202 0
-999 -1203 0
-1000 -1204 0
-994 -1212 0
-998 -1215 0
-1000 -1216 0
-995 -1273 0
-996 -1276 0
-999 -1278 0
-1000 -1279 0
-994 -1287 0
-995 -1288 0
-998 -1291 0
-999 -1292 0
-1000 -1293 0
-994 -1301 0
-999 -1306 0
-1000 -1307 0
-995 -1308 0
-997 -1309 0
-998 -1311 0
-999 -1312 0
-1000 -1313 0
-997 -1323 0
-999 -1324 0
-1000 -1325 0
-994 -1326 0
-996 -1329 0
-997 -1330 0
-998 -1332 0
-999 -1333 0
-1000 -1334 0
-996 -1345 0
-997 -1346 0
-999 -1347 0
-1000 -1348 0
-996 -1371 0
-997 -1372 0
-998 -1373 0
-999 -1374 0
-1000 -1375 0
-994 -1384 0
-997 -1385 0
-998 -1387 0
-999 -1388 0
-1000 -1389 0
-998 -1408 0
-999 -1409 0
-1000 -1410 0
-994 -1411 0
-996 -1414 0
-1000 -1416 0
-996 -1427 0
-998 -1429 0
-1000 -1430 0
-996 -1432 0
-997 -1433 0
-999 -1435 0
-1000 -1436 0
-996 -1445 0
-997 -1446 0
-1000 -1448 0
-995 -1457 0
-997 -1458 0
-998 -1460 0
-999 -1461 0
-1000 -1462 0
-994 -1469 0
-995 -1470 0
-996 -1473 0
-997 -1474 0
-998 -1476 0
-1000 -1477 0
-995 -1485 0
-996 -1487 0
-998 -1489 0
-999 -1490 0
-1000 -1491 0
-994 -1499 0
-995 -1500 0
-996 -1503 0
-997 -1504 0
-999 -1506 0
-1000 -1507 0
-994 -1514 0
-995 -1515 0
-997 -1517 0
-998 -1518 0
-1000 -1519 0
-994 -1526 0
-997 -1529 0
-1000 -1531 0
-994 -1532 0
-995 -1533 0
-998 -1536 0
-999 -1537 0
-1000 -1538 0
-995 -1547 0
-999 -1550 0
-1000 -1551 0
-994 -1552 0
-999 -1557 0
-1000 -1558 0
-994 -1559 0
-996 -1562 0
-998 -1564 0
-1000 -1565 0
-994 -1576 0
-996 -1578 0
-1000 -1580 0
-996 -1583 0
-999 -1585 0
-1000 -1586 0
-995 -1600 0
-996 -1602 0
-997 -1603 0
-998 -1605 0
-1000 -1606 0
-994 -1614 0
-995 -1615 0
-996 -1616 0
-997 -1617 0
-998 -1618 0
-999 -1619 0
-1000 -1620 0
-995 -1640 0
-996 -1642 0
-998 -1644 0
-1000 -1645 0
-996 -1682 0
-997 -1683 0
-998 -1684 0
-999 -1685 0
-1000 -1686 0
-994 -1687 0
-997 -1690 0
-998 -1692 0
-1000 -1693 0
-994 -1694 0
-996 -1697 0
-997 -1698 0
-999 -1699 0
-1000 -1700 0
-994 -1708 0
-996 -1710 0
-997 -1711 0
-998 -1713 0
-999 -1714 0
-1000 -1715 0
-994 -1716 0
-996 -1719 0
-1000 -1721 0
-996 -1732 0
-998 -1734 0
-1000 -1735 0
-994 -1744 0
-996 -1746 0
-999 -1748 0
-1000 -1749 0
-996 -1758 0
-997 -1759 0
-998 -1760 0
-1000 -1761 0
-994 -1768 0
-997 -1770 0
-999 -1772 0
-1000 -1773 0
-996 -1807 0
-997 -1808 0
-999 -1810 0
-1000 -1811 0
-994 -1818 0
-996 -1819 0
-997 -1820 0
-998 -1822 0
-1000 -1823 0
-994 -1844 0
-995 -1845 0
-996 -1846 0
-997 -1847 0
-998 -1848 0
-999 -1849 0
-1000 -1850 0
-994 -1858 0
-997 -1861 0
-998 -1862 0
-999 -1863 0
-1000 -1864 0
-994 -1865 0
-998 -1868 0
-999 -1869 0
-1000 -1870 0
-994 -1886 0
-996 -1888 0
-999 -1890 0
-1000 -1891 0
-994 -1899 0
-997 -1901 0
-998 -1902 0
-999 -1903 0
-1000 -1904 0
-994 -1905 0
-996 -1906 0
-997 -1907 0
-998 -1909 0
-1000 -1910 0
-994 -1919 0
-996 -1921 0
-997 -1922 0
-998 -1923 0
-1000 -1924 0
-994 -1925 0
-996 -1927 0
-998 -1928 0
-999 -1929 0
-1000 -1930 0
-996 -1938 0
-998 -1940 0
-999 -1941 0
-1000 -1942 0
-996 -1944 0
-997 -1945 0
-998 -1947 0
-999 -1948 0
-1000 -1949 0
-996 -1953 0
-997 -1954 0
-998 -1956 0
-999 -1957 0
-1000 -1958 0
-1001 -1057 0
-1005 -1059 0
-1007 -1061 0
-1001 -1063 0
-1004 -1066 0
-1006 -1068 0
-1007 -1070 0
-1005 -1074 0
-1006 -1076 0
-1007 -1077 0
-1007 -1092 0
-1004 -1095 0
-1005 -1096 0
-1006 -1097 0
-1007 -1098 0
-1001 -1106 0
-1002 -1107 0
-1004 -1108 0
-1007 -1110 0
-1002 -1112 0
-1005 -1113 0
-1007 -1116 0
-1002 -1118 0
-1004 -1120 0
-1006 -1121 0
-1007 -1122 0
-1001 -1212 0
-1006 -1215 0
-1007 -1216 0
-1001 -1218 0
-1004 -1219 0
-1005 -1220 0
-1007 -1222 0
-1001 -1287 0
-1006 -1291 0
-1007 -1293 0
-1001 -1294 0
-1004 -1297 0
-1005 -1298 0
-1007 -1300 0
-1005 -1309 0
-1006 -1311 0
-1007 -1313 0
-1004 -1316 0
-1005 -1317 0
-1007 -1319 0
-1001 -1326 0
-1002 -1327 0
-1004 -1329 0
-1005 -1330 0
-1006 -1332 0
-1007 -1334 0
-1002 -1336 0
-1006 -1339 0
-1007 -1341 0
-1002 -1343 0
-1004 -1345 0
-1005 -1346 0
-1007 -1348 0
-1001 -1384 0
-1005 -1385 0
-1006 -1387 0
-1007 -1389 0
-1001 -1391 0
-1004 -1393 0
-1005 -1394 0
-1006 -1395 0
-1007 -1396 0
-1001 -1411 0
-1003 -1412 0
-1004 -1414 0
-1007 -1416 0
-1003 -1418 0
-1005 -1420 0
-1007 -1423 0
-1003 -1425 0
-1004 -1427 0
-1006 -1429 0
-1007 -1430 0
-1003 -1431 0
-1004 -1432 0
-1005 -1433 0
-1007 -1436 0
-1004 -1451 0
-1005 -1452 0
-1006 -1454 0
-1007 -1456 0
-1005 -1458 0
-1006 -1460 0
-1007 -1462 0
-1001 -1463 0
-1002 -1465 0
-1005 -1466 0
-1007 -1468 0
-1001 -1469 0
-1002 -1471 0
-1004 -1473 0
-1005 -1474 0
-1006 -1476 0
-1007 -1477 0
-1002 -1479 0
-1005 -1481 0
-1007 -1484 0
-1002 -1486 0
-1004 -1487 0
-1006 -1489 0
-1007 -1491 0
-1001 -1492 0
-1002 -1493 0
-1004 -1494 0
-1005 -1495 0
-1007 -1498 0
-1001 -1514 0
-1005 -1517 0
-1006 -1518 0
-1007 -1519 0
-1001 -1520 0
-1004 -1522 0
-1007 -1525 0
-1001 -1532 0
-1006 -1536 0
-1007 -1538 0
-1001 -1539 0
-1004 -1542 0
-1005 -1543 0
-1007 -1545 0
-1007 -1551 0
-1001 -1559 0
-1002 -1560 0
-1004 -1562 0
-1006 -1564 0
-1007 -1565 0
-1001 -1567 0
-1002 -1568 0
-1005 -1570 0
-1006 -1572 0
-1007 -1574 0
-1001 -1576 0
-1002 -1577 0
-1004 -1578 0
-1007 -1580 0
-1003 -1594 0
-1005 -1596 0
-1006 -1597 0
-1007 -1599 0
-1003 -1601 0
-1004 -1602 0
-1005 -1603 0
-1006 -1605 0
-1007 -1606 0
-1001 -1627 0
-1002 -1628 0
-1003 -1629 0
-1004 -1630 0
-1005 -1631 0
-1006 -1632 0
-1007 -1633 0
-1002 -1646 0
-1003 -1647 0
-1004 -1649 0
-1005 -1650 0
-1006 -1652 0
-1007 -1654 0
-1002 -1675 0
-1005 -1677 0
-1006 -1679 0
-1007 -1680 0
-1002 -1681 0
-1004 -1682 0
-1005 -1683 0
-1006 -1684 0
-1007 -1686 0
-1001 -1694 0
-1003 -1695 0
-1004 -1697 0
-1005 -1698 0
-1007 -1700 0
-1001 -1702 0
-1003 -1703 0
-1005 -1705 0
-1007 -1706 0
-1001 -1708 0
-1003 -1709 0
-1004 -1710 0
-1005 -1711 0
-1006 -1713 0
-1007 -1715 0
-1001 -1716 0
-1003 -1717 0
-1004 -1719 0
-1007 -1721 0
-1003 -1723 0
-1005 -1725 0
-1007 -1728 0
-1003 -1730 0
-1004 -1732 0
-1006 -1734 0
-1007 -1735 0
-1001 -1768 0
-1005 -1770 0
-1007 -1773 0
-1001 -1774 0
-1004 -1776 0
-1006 -1777 0
-1007 -1779 0
-1004 -1782 0
-1005 -1783 0
-1006 -1785 0
-1007 -1787 0
-1003 -1800 0
-1006 -1803 0
-1007 -1805 0
-1003 -1806 0
-1004 -1807 0
-1005 -1808 0
-1007 -1811 0
-1001 -1905 0
-1004 -1906 0
-1005 -1907 0
-1006 -1909 0
-1007 -1910 0
-1001 -1912 0
-1005 -1913 0
-1006 -1915 0
-1007 -1917 0
-1001 -1919 0
-1004 -1921 0
-1005 -1922 0
-1006 -1923 0
-1007 -1924 0
-1001 -1925 0
-1004 -1927 0
-1006 -1928 0
-1007 -1930 0
-1005 -1933 0
-1006 -1934 0
-1007 -1936 0
-1004 -1938 0
-1006 -1940 0
-1007 -1942 0
-1004 -1953 0
-1005 -1954 0
-1006 -1956 0
-1007 -1958 0
-1010 -1044 0
-1011 -1045 0
-1012 -1046 0
-1013 -1048 0
-1014 -1049 0
-1014 -1055 0
-1011 -1074 0
-1012 -1075 0
-1014 -1077 0
-1012 -1090 0
-1013 -1091 0
-1014 -1092 0
-1010 -1095 0
-1011 -1096 0
-1014 -1098 0
-1009 -1100 0
-1013 -1103 0
-1014 -1104 0
-1009 -1112 0
-1011 -1113 0
-1012 -1114 0
-1013 -1115 0
-1014 -1116 0
-1009 -1118 0
-1010 -1120 0
-1014 -1122 0
-1010 -1202 0
-1013 -1203 0
-1014 -1204 0
-1011 -1207 0
-1012 -1208 0
-1014 -1210 0
-1010 -1276 0
-1012 -1277 0
-1013 -1278 0
-1014 -1279 0
-1011 -1283 0
-1013 -1285 0
-1014 -1286 0
-1011 -1309 0
-1012 -1310 0
-1013 -1312 0
-1014 -1313 0
-1010 -1316 0
-1011 -1317 0
-1013 -1318 0
-1014 -1319 0
-1009 -1320 0
-1011 -1323 0
-1013 -1324 0
-1014 -1325 0
-1009 -1336 0
-1012 -1338 0
-1013 -1340 0
-1014 -1341 0
-1009 -1343 0
-1010 -1345 0
-1011 -1346 0
-1013 -1347 0
-1014 -1348 0
-1010 -1371 0
-1011 -1372 0
-1013 -1374 0
-1014 -1375 0
-1011 -1379 0
-1012 -1380 0
-1013 -1381 0
-1014 -1382 0
-1012 -1407 0
-1013 -1409 0
-1014 -1410 0
-1011 -1420 0
-1012 -1421 0
-1013 -1422 0
-1014 -1423 0
-1010 -1427 0
-1012 -1428 0
-1014 -1430 0
-1010 -1432 0
-1011 -1433 0
-1012 -1434 0
-1013 -1435 0
-1014 -1436 0
-1010 -1438 0
-1012 -1439 0
-1013 -1441 0
-1014 -1442 0
-1010 -1445 0
-1011 -1446 0
-1012 -1447 0
-1014 -1448 0
-1008 -1463 0
-1009 -1465 0
-1011 -1466 0
-1013 -1467 0
-1014 -1468 0
-1008 -1469 0
-1009 -1471 0
-1010 -1473 0
-1011 -1474 0
-1012 -1475 0
-1014 -1477 0
-1008 -1492 0
-1009 -1493 0
-1010 -1494 0
-1011 -1495 0
-1012 -1496 0
-1013 -1497 0
-1014 -1498 0
-1008 -1499 0
-1010 -1503 0
-1011 -1504 0
-1012 -1505 0
-1013 -1506 0
-1014 -1507 0
-1008 -1508 0
-1012 -1511 0
-1014 -1513 0
-1008 -1532 0
-1012 -1535 0
-1013 -1537 0
-1014 -1538 0
-1008 -1539 0
-1010 -1542 0
-1011 -1543 0
-1012 -1544 0
-1014 -1545 0
-1008 -1552 0
-1009 -1553 0
-1012 -1556 0
-1013 -1557 0
-1014 -1558 0
-1008 -1567 0
-1009 -1568 0
-1011 -1570 0
-1012 -1571 0
-1013 -1573 0
-1014 -1574 0
-1008 -1576 0
-1009 -1577 0
-1010 -1578 0
-1012 -1579 0
-1014 -1580 0
-1009 -1581 0
-1010 -1583 0
-1012 -1584 0
-1013 -1585 0
-1014 -1586 0
-1009 -1587 0
-1011 -1589 0
-1012 -1590 0
-1014 -1592 0
-1008 -1607 0
-1010 -1610 0
-1011 -1611 0
-1012 -1612 0
-1014 -1613 0
-1008 -1614 0
-1010 -1616 0
-1011 -1617 0
-1013 -1619 0
-1014 -1620 0
-1008 -1627 0
-1009 -1628 0
-1010 -1630 0
-1011 -1631 0
-1014 -1633 0
-1008 -1655 0
-1009 -1656 0
-1010 -1658 0
-1011 -1659 0
-1014 -1660 0
-1009 -1675 0
-1011 -1677 0
-1012 -1678 0
-1014 -1680 0
-1009 -1681 0
-1010 -1682 0
-1011 -1683 0
-1013 -1685 0
-1014 -1686 0
-1008 -1687 0
-1011 -1690 0
-1012 -1691 0
-1014 -1693 0
-1008 -1702 0
-1011 -1705 0
-1014 -1706 0
-1008 -1708 0
-1010 -1710 0
-1011 -1711 0
-1012 -1712 0
-1013 -1714 0
-1014 -1715 0
-1008 -1716 0
-1010 -1719 0
-1012 -1720 0
-1014 -1721 0
-1008 -1737 0
-1010 -1739 0
-1011 -1740 0
-1014 -1742 0
-1008 -1744 0
-1010 -1746 0
-1012 -1747 0
-1013 -1748 0
-1014 -1749 0
-1010 -1758 0
-1011 -1759 0
-1014 -1761 0
-1012 -1764 0
-1013 -1766 0
-1014 -1767 0
-1010 -1782 0
-1011 -1783 0
-1012 -1784 0
-1013 -1786 0
-1014 -1787 0
-1008 -1812 0
-1010 -1814 0
-1013 -1816 0
-1014 -1817 0
-1008 -1818 0
-1010 -1819 0
-1011 -1820 0
-1012 -1821 0
-1014 -1823 0
-1008 -1844 0
-1010 -1846 0
-1011 -1847 0
-1013 -1849 0
-1014 -1850 0
-1008 -1851 0
-1012 -1854 0
-1013 -1856 0
-1014 -1857 0
-1008 -1865 0
-1009 -1866 0
-1012 -1867 0
-1013 -1869 0
-1014 -1870 0
-1008 -1886 0
-1010 -1888 0
-1012 -1889 0
-1013 -1890 0
-1014 -1891 0
-1008 -1893 0
-1011 -1894 0
-1012 -1895 0
-1013 -1897 0
-1014 -1898 0
-1008 -1899 0
-1011 -1901 0
-1013 -1903 0
-1014 -1904 0
-1008 -1912 0
-1011 -1913 0
-1012 -1914 0
-1013 -1916 0
-1014 -1917 0
-1008 -1919 0
-1010 -1921 0
-1011 -1922 0
-1014 -1924 0
-1008 -1925 0
-1010 -1927 0
-1013 -1929 0
-1014 -1930 0
-1010 -1944 0
-1011 -1945 0
-1012 -1946 0
-1013 -1948 0
-1014 -1949 0
-1018 -1044 0
-1019 -1045 0
-1020 -1049 0
-1017 -1053 0
-1020 -1055 0
-1015 -1057 0
-1019 -1059 0
-1020 -1061 0
-1015 -1063 0
-1017 -1065 0
-1018 -1066 0
-1020 -1070 0
-1015 -1079 0
-1016 -1080 0
-1017 -1082 0
-1019 -1083 0
-1020 -1086 0
-1016 -1112 0
-1019 -1113 0
-1020 -1116 0
-1016 -1118 0
-1017 -1119 0
-1018 -1120 0
-1020 -1122 0
-1016 -1148 0
-1018 -1149 0
-1019 -1150 0
-1020 -1153 0
-1016 -1155 0
-1017 -1156 0
-1020 -1160 0
-1015 -1180 0
-1018 -1182 0
-1019 -1183 0
-1020 -1185 0
-1015 -1187 0
-1017 -1189 0
-1020 -1192 0
-1017 -1275 0
-1018 -1276 0
-1020 -1279 0
-1017 -1282 0
-1019 -1283 0
-1020 -1286 0
-1015 -1287 0
-1017 -1289 0
-1020 -1293 0
-1015 -1294 0
-1017 -1296 0
-1018 -1297 0
-1019 -1298 0
-1020 -1300 0
-1015 -1301 0
-1016 -1302 0
-1017 -1304 0
-1020 -1307 0
-1016 -1336 0
-1017 -1337 0
-1020 -1341 0
-1016 -1343 0
-1017 -1344 0
-1018 -1345 0
-1019 -1346 0
-1020 -1348 0
-1017 -1406 0
-1020 -1410 0
-1015 -1411 0
-1017 -1413 0
-1018 -1414 0
-1020 -1416 0
-1018 -1438 0
-1020 -1442 0
-1017 -1444 0
-1018 -1445 0
-1019 -1446 0
-1020 -1448 0
-1017 -1450 0
-1018 -1451 0
-1019 -1452 0
-1020 -1456 0
-1016 -1479 0
-1017 -1480 0
-1019 -1481 0
-1020 -1484 0
-1016 -1486 0
-1018 -1487 0
-1020 -1491 0
-1015 -1492 0
-1016 -1493 0
-1018 -1494 0
-1019 -1495 0
-1020 -1498 0
-1015 -1499 0
-1017 -1502 0
-1018 -1503 0
-1019 -1504 0
-1020 -1507 0
-1015 -1508 0
-1020 -1513 0
-1015 -1514 0
-1017 -1516 0
-1019 -1517 0
-1020 -1519 0
-1015 -1520 0
-1018 -1522 0
-1020 -1525 0
-1015 -1526 0
-1016 -1527 0
-1019 -1529 0
-1020 -1531 0
-1017 -1548 0
-1020 -1551 0
-1015 -1567 0
-1016 -1568 0
-1017 -1569 0
-1019 -1570 0
-1020 -1574 0
-1015 -1576 0
-1016 -1577 0
-1018 -1578 0
-1020 -1580 0
-1017 -1635 0
-1018 -1636 0
-1019 -1637 0
-1020 -1639 0
-1017 -1641 0
-1018 -1642 0
-1020 -1645 0
-1016 -1646 0
-1017 -1648 0
-1018 -1649 0
-1019 -1650 0
-1020 -1654 0
-1015 -1655 0
-1016 -1656 0
-1017 -1657 0
-1018 -1658 0
-1019 -1659 0
-1020 -1660 0
-1015 -1687 0
-1017 -1689 0
-1019 -1690 0
-1020 -1693 0
-1015 -1694 0
-1017 -1696 0
-1018 -1697 0
-1019 -1698 0
-1020 -1700 0
-1017 -1724 0
-1019 -1725 0
-1020 -1728 0
-1017 -1731 0
-1018 -1732 0
-1020 -1735 0
-1015 -1737 0
-1017 -1738 0
-1018 -1739 0
-1019 -1740 0
-1020 -1742 0
-1015 -1744 0
-1017 -1745 0
-1018 -1746 0
-1020 -1749 0
-1017 -1757 0
-1018 -1758 0
-1019 -1759 0
-1020 -1761 0
-1017 -1763 0
-1020 -1767 0
-1015 -1768 0
-1017 -1769 0
-1019 -1770 0
-1020 -1773 0
-1015 -1774 0
-1017 -1775 0
-1018 -1776 0
-1020 -1779 0
-1017 -1801 0
-1020 -1805 0
-1018 -1807 0
-1019 -1808 0
-1020 -1811 0
-1015 -1812 0
-1017 -1813 0
-1018 -1814 0
-1020 -1817 0
-1015 -1818 0
-1018 -1819 0
-1019 -1820 0
-1020 -1823 0
-1015 -1844 0
-1018 -1846 0
-1019 -1847 0
-1020 -1850 0
-1015 -1851 0
-1017 -1853 0
-1020 -1857 0
-1015 -1858 0
-1016 -1859 0
-1017 -1860 0
-1019 -1861 0
-1020 -1864 0
-1015 -1899 0
-1019 -1901 0
-1020 -1904 0
-1015 -1905 0
-1018 -1906 0
-1019 -1907 0
-1020 -1910 0
-1017 -1932 0
-1019 -1933 0
-1020 -1936 0
-1018 -1938 0
-1020 -1942 0
-1017 -1943 0
-1018 -1944 0
-1019 -1945 0
-1020 -1949 0
-1017 -1952 0
-1018 -1953 0
-1019 -1954 0
-1020 -1958 0
-1027 -1040 0
-1021 -1050 0
-1023 -1053 0
-1027 -1055 0
-1021 -1056 0
-1025 -1059 0
-1027 -1061 0
-1021 -1071 0
-1023 -1073 0
-1025 -1074 0
-1027 -1077 0
-1021 -1078 0
-1022 -1080 0
-1023 -1082 0
-1025 -1083 0
-1027 -1086 0
-1021 -1093 0
-1024 -1095 0
-1025 -1096 0
-1027 -1098 0
-1021 -1105 0
-1022 -1107 0
-1024 -1108 0
-1027 -1110 0
-1021 -1117 0
-1022 -1118 0
-1023 -1119 0
-1024 -1120 0
-1027 -1122 0
-1025 -1130 0
-1026 -1133 0
-1027 -1134 0
-1022 -1142 0
-1026 -1145 0
-1027 -1146 0
-1021 -1154 0
-1022 -1155 0
-1023 -1156 0
-1026 -1159 0
-1027 -1160 0
-1021 -1173 0
-1026 -1177 0
-1027 -1178 0
-1021 -1186 0
-1023 -1189 0
-1026 -1191 0
-1027 -1192 0
-1021 -1217 0
-1024 -1219 0
-1025 -1220 0
-1026 -1221 0
-1027 -1222 0
-1021 -1254 0
-1025 -1256 0
-1026 -1259 0
-1027 -1260 0
-1023 -1282 0
-1025 -1283 0
-1026 -1285 0
-1027 -1286 0
-1023 -1289 0
-1026 -1292 0
-1027 -1293 0
-1022 -1302 0
-1023 -1304 0
-1026 -1306 0
-1027 -1307 0
-1023 -1315 0
-1024 -1316 0
-1025 -1317 0
-1026 -1318 0
-1027 -1319 0
-1022 -1327 0
-1023 -1328 0
-1024 -1329 0
-1025 -1330 0
-1026 -1333 0
-1027 -1334 0
-1021 -1342 0
-1022 -1343 0
-1023 -1344 0
-1024 -1345 0
-1025 -1346 0
-1026 -1347 0
-1027 -1348 0
-1023 -1358 0
-1025 -1359 0
-1027 -1362 0
-1021 -1390 0
-1023 -1392 0
-1024 -1393 0
-1025 -1394 0
-1027 -1396 0
-1023 -1406 0
-1026 -1409 0
-1027 -1410 0
-1021 -1417 0
-1023 -1419 0
-1025 -1420 0
-1026 -1422 0
-1027 -1423 0
-1024 -1432 0
-1025 -1433 0
-1026 -1435 0
-1027 -1436 0
-1021 -1437 0
-1024 -1438 0
-1026 -1441 0
-1027 -1442 0
-1025 -1458 0
-1026 -1461 0
-1027 -1462 0
-1022 -1465 0
-1025 -1466 0
-1026 -1467 0
-1027 -1468 0
-1022 -1486 0
-1024 -1487 0
-1026 -1490 0
-1027 -1491 0
-1022 -1493 0
-1024 -1494 0
-1025 -1495 0
-1026 -1497 0
-1027 -1498 0
-1027 -1513 0
-1023 -1516 0
-1025 -1517 0
-1027 -1519 0
-1022 -1527 0
-1025 -1529 0
-1027 -1531 0
-1023 -1541 0
-1024 -1542 0
-1025 -1543 0
-1027 -1545 0
-1022 -1560 0
-1023 -1561 0
-1024 -1562 0
-1027 -1565 0
-1021 -1575 0
-1022 -1577 0
-1024 -1578 0
-1027 -1580 0
-1023 -1595 0
-1025 -1596 0
-1026 -1598 0
-1027 -1599 0
-1023 -1635 0
-1024 -1636 0
-1025 -1637 0
-1026 -1638 0
-1027 -1639 0
-1022 -1646 0
-1023 -1648 0
-1024 -1649 0
-1025 -1650 0
-1026 -1653 0
-1027 -1654 0
-1021 -1661 0
-1022 -1662 0
-1023 -1663 0
-1024 -1664 0
-1025 -1665 0
-1026 -1666 0
-1027 -1667 0
-1022 -1675 0
-1023 -1676 0
-1025 -1677 0
-1027 -1680 0
-1023 -1689 0
-1025 -1690 0
-1027 -1693 0
-1021 -1701 0
-1023 -1704 0
-1025 -1705 0
-1027 -1706 0
-1023 -1718 0
-1024 -1719 0
-1027 -1721 0
-1021 -1729 0
-1023 -1731 0
-1024 -1732 0
-1027 -1735 0
-1021 -1736 0
-1023 -1738 0
-1024 -1739 0
-1025 -1740 0
-1027 -1742 0
-1021 -1750 0
-1023 -1751 0
-1024 -1752 0
-1025 -1753 0
-1027 -1755 0
-1023 -1763 0
-1026 -1766 0
-1027 -1767 0
-1023 -1769 0
-1025 -1770 0
-1026 -1772 0
-1027 -1773 0
-1023 -1781 0
-1024 -1782 0
-1025 -1783 0
-1026 -1786 0
-1027 -1787 0
-1022 -1788 0
-1024 -1789 0
-1025 -1790 0
-1026 -1792 0
-1027 -1793 0
-1024 -1807 0
-1025 -1808 0
-1026 -1810 0
-1027 -1811 0
-1023 -1813 0
-1024 -1814 0
-1026 -1816 0
-1027 -1817 0
-1023 -1853 0
-1026 -1856 0
-1027 -1857 0
-1022 -1859 0
-1023 -1860 0
-1025 -1861 0
-1026 -1863 0
-1027 -1864 0
-1025 -1901 0
-1026 -1903 0
-1027 -1904 0
-1021 -1911 0
-1025 -1913 0
-1026 -1916 0
-1027 -1917 0
-1023 -1926 0
-1024 -1927 0
-1026 -1929 0
-1027 -1930 0
-1021 -1937 0
-1024 -1938 0
-1026 -1941 0
-1027 -1942 0
-1023 -1952 0
-1024 -1953 0
-1025 -1954 0
-1026 -1957 0
-1027 -1958 0
-1032 -1038 0
-1033 -1039 0
-1034 -1040 0
-1028 -1041 0
-1030 -1044 0
-1031 -1045 0
-1032 -1046 0
-1033 -1047 0
-1034 -1049 0
-1028 -1062 0
-1030 -1066 0
-1032 -1067 0
-1033 -1068 0
-1034 -1070 0
-1028 -1071 0
-1031 -1074 0
-1032 -1075 0
-1033 -1076 0
-1034 -1077 0
-1028 -1078 0
-1029 -1080 0
-1031 -1083 0
-1032 -1084 0
-1033 -1085 0
-1034 -1086 0
-1028 -1087 0
-1032 -1090 0
-1034 -1092 0
-1028 -1105 0
-1029 -1107 0
-1030 -1108 0
-1032 -1109 0
-1034 -1110 0
-1028 -1111 0
-1029 -1112 0
-1031 -1113 0
-1032 -1114 0
-1034 -1116 0
-1030 -1125 0
-1032 -1126 0
-1033 -1127 0
-1034 -1128 0
-1029 -1142 0
-1032 -1143 0
-1033 -1144 0
-1034 -1146 0
-1028 -1147 0
-1029 -1148 0
-1030 -1149 0
-1031 -1150 0
-1032 -1151 0
-1033 -1152 0
-1034 -1153 0
-1028 -1173 0
-1032 -1176 0
-1034 -1178 0
-1028 -1179 0
-1030 -1182 0
-1031 -1183 0
-1032 -1184 0
-1034 -1185 0
-1028 -1211 0
-1032 -1214 0
-1033 -1215 0
-1034 -1216 0
-1028 -1247 0
-1030 -1250 0
-1032 -1251 0
-1034 -1253 0
-1030 -1276 0
-1032 -1277 0
-1034 -1279 0
-1030 -1297 0
-1031 -1298 0
-1032 -1299 0
-1034 -1300 0
-1029 -1302 0
-1032 -1305 0
-1034 -1307 0
-1031 -1309 0
-1032 -1310 0
-1033 -1311 0
-1034 -1313 0
-1029 -1327 0
-1030 -1329 0
-1031 -1330 0
-1032 -1331 0
-1033 -1332 0
-1034 -1334 0
-1028 -1335 0
-1029 -1336 0
-1032 -1338 0
-1033 -1339 0
-1034 -1341 0
-1031 -1359 0
-1032 -1360 0
-1033 -1361 0
-1034 -1362 0
-1028 -1383 0
-1031 -1385 0
-1032 -1386 0
-1033 -1387 0
-1034 -1389 0
-1032 -1407 0
-1033 -1408 0
-1034 -1410 0
-1028 -1424 0
-1030 -1427 0
-1032 -1428 0
-1033 -1429 0
-1034 -1430 0
-1030 -1432 0
-1031 -1433 0
-1032 -1434 0
-1034 -1436 0
-1028 -1443 0
-1030 -1445 0
-1031 -1446 0
-1032 -1447 0
-1034 -1448 0
-1030 -1451 0
-1031 -1452 0
-1032 -1453 0
-1033 -1454 0
-1034 -1456 0
-1031 -1458 0
-1032 -1459 0
-1033 -1460 0
-1034 -1462 0
-1029 -1471 0
-1030 -1473 0
-1031 -1474 0
-1032 -1475 0
-1033 -1476 0
-1034 -1477 0
-1029 -1479 0
-1031 -1481 0
-1032 -1482 0
-1034 -1484 0
-1029 -1493 0
-1030 -1494 0
-1031 -1495 0
-1032 -1496 0
-1034 -1498 0
-1030 -1503 0
-1031 -1504 0
-1032 -1505 0
-1034 -1507 0
-1030 -1522 0
-1032 -1523 0
-1034 -1525 0
-1029 -1527 0
-1031 -1529 0
-1032 -1530 0
-1034 -1531 0
-1032 -1535 0
-1033 -1536 0
-1034 -1538 0
-1029 -1560 0
-1030 -1562 0
-1032 -1563 0
-1033 -1564 0
-1034 -1565 0
-1028 -1566 0
-1029 -1568 0
-1031 -1570 0
-1032 -1571 0
-1033 -1572 0
-1034 -1574 0
-1030 -1602 0
-1031 -1603 0
-1032 -1604 0
-1033 -1605 0
-1034 -1606 0
-1030 -1642 0
-1032 -1643 0
-1033 -1644 0
-1034 -1645 0
-1029 -1646 0
-1030 -1649 0
-1031 -1650 0
-1032 -1651 0
-1033 -1652 0
-1034 -1654 0
-1028 -1668 0
-1029 -1669 0
-1030 -1670 0
-1031 -1671 0
-1032 -1672 0
-1033 -1673 0
-1034 -1674 0
-1029 -1681 0
-1030 -1682 0
-1031 -1683 0
-1033 -1684 0
-1034 -1686 0
-1031 -1690 0
-1032 -1691 0
-1033 -1692 0
-1034 -1693 0
-1028 -1707 0
-1030 -1710 0
-1031 -1711 0
-1032 -1712 0
-1033 -1713 0
-1034 -1715 0
-1030 -1719 0
-1032 -1720 0
-1034 -1721 0
-1028 -1722 0
-1031 -1725 0
-1032 -1726 0
-1034 -1728 0
-1028 -1743 0
-1030 -1746 0
-1032 -1747 0
-1034 -1749 0
-1028 -1750 0
-1030 -1752 0
-1031 -1753 0
-1032 -1754 0
-1034 -1755 0
-1030 -1758 0
-1031 -1759 0
-1033 -1760 0
-1034 -1761 0
-1030 -1776 0
-1033 -1777 0
-1034 -1779 0
-1029 -1794 0
-1030 -1796 0
-1032 -1797 0
-1034 -1799 0
-1032 -1802 0
-1033 -1803 0
-1034 -1805 0
-1030 -1819 0
-1031 -1820 0
-1032 -1821 0
-1033 -1822 0
-1034 -1823 0
-1030 -1846 0
-1031 -1847 0
-1033 -1848 0
-1034 -1850 0
-1029 -1859 0
-1031 -1861 0
-1033 -1862 0
-1034 -1864 0
-1031 -1901 0
-1033 -1902 0
-1034 -1904 0
-1028 -1918 0
-1030 -1921 0
-1031 -1922 0
-1033 -1923 0
-1034 -1924 0
-1030 -1927 0
-1033 -1928 0
-1034 -1930 0
-1028 -1931 0
-1031 -1933 0
-1033 -1934 0
-1034 -1936 0
-1030 -1944 0
-1031 -1945 0
-1032 -1946 0
-1033 -1947 0
-1034 -1949 0
-1038 -1338 0
-1039 -1339 0
-1040 -1341 0
-1040 -1348 0
-1037 -1370 0
-1039 -1373 0
-1040 -1375 0
-1037 -1377 0
-1038 -1380 0
-1040 -1382 0
-1035 -1384 0
-1038 -1386 0
-1039 -1387 0
-1040 -1389 0
-1035 -1391 0
-1039 -1395 0
-1040 -1396 0
-1038 -1400 0
-1039 -1401 0
-1040 -1403 0
-1036 -1457 0
-1038 -1459 0
-1039 -1460 0
-1040 -1462 0
-1035 -1463 0
-1036 -1464 0
-1040 -1468 0
-1035 -1469 0
-1036 -1470 0
-1038 -1475 0
-1039 -1476 0
-1040 -1477 0
-1036 -1478 0
-1038 -1482 0
-1040 -1484 0
-1036 -1485 0
-1038 -1488 0
-1039 -1489 0
-1040 -1491 0
-1035 -1492 0
-1038 -1496 0
-1040 -1498 0
-1035 -1499 0
-1036 -1500 0
-1037 -1501 0
-1038 -1505 0
-1040 -1507 0
-1035 -1508 0
-1036 -1509 0
-1037 -1510 0
-1038 -1511 0
-1039 -1512 0
-1040 -1513 0
-1035 -1514 0
-1036 -1515 0
-1039 -1518 0
-1040 -1519 0
-1035 -1520 0
-1036 -1521 0
-1038 -1523 0
-1040 -1525 0
-1035 -1526 0
-1037 -1528 0
-1038 -1530 0
-1040 -1531 0
-1035 -1532 0
-1036 -1533 0
-1038 -1535 0
-1039 -1536 0
-1040 -1538 0
-1035 -1539 0
-1036 -1540 0
-1038 -1544 0
-1040 -1545 0
-1035 -1552 0
-1037 -1554 0
-1038 -1556 0
-1040 -1558 0
-1035 -1559 0
-1038 -1563 0
-1039 -1564 0
-1040 -1565 0
-1036 -1622 0
-1039 -1625 0
-1040 -1626 0
-1040 -1667 0
-1038 -1672 0
-1039 -1673 0
-1040 -1674 0
-1038 -1678 0
-1039 -1679 0
-1040 -1680 0
-1039 -1684 0
-1040 -1686 0
-1035 -1702 0
-1037 -1703 0
-1040 -1706 0
-1035 -1708 0
-1037 -1709 0
-1038 -1712 0
-1039 -1713 0
-1040 -1715 0
-1037 -1723 0
-1038 -1726 0
-1040 -1728 0
-1037 -1730 0
-1038 -1733 0
-1039 -1734 0
-1040 -1735 0
-1035 -1737 0
-1039 -1741 0
-1040 -1742 0
-1035 -1744 0
-1038 -1747 0
-1040 -1749 0
-1037 -1756 0
-1039 -1760 0
-1040 -1761 0
-1037 -1762 0
-1038 -1764 0
-1039 -1765 0
-1040 -1767 0
-1035 -1768 0
-1038 -1771 0
-1040 -1773 0
-1035 -1774 0
-1039 -1777 0
-1040 -1779 0
-1038 -1784 0
-1039 -1785 0
-1040 -1787 0
-1037 -1824 0
-1038 -1827 0
-1040 -1829 0
-1037 -1830 0
-1039 -1834 0
-1040 -1835 0
-1038 -1839 0
-1039 -1840 0
-1040 -1842 0
-1035 -1886 0
-1038 -1889 0
-1040 -1891 0
-1035 -1893 0
-1038 -1895 0
-1039 -1896 0
-1040 -1898 0
-1038 -1955 0
-1039 -1956 0
-1040 -1958 0
-1041 -1217 0
-1044 -1219 0
-1045 -1220 0
-1048 -1221 0
-1049 -1222 0
-1041 -1254 0
-1045 -1256 0
-1046 -1257 0
-1047 -1258 0
-1048 -1259 0
-1049 -1260 0
-1041 -1267 0
-1045 -1269 0
-1047 -1270 0
-1048 -1271 0
-1049 -1272 0
-1042 -1295 0
-1044 -1297 0
-1045 -1298 0
-1046 -1299 0
-1049 -1300 0
-1042 -1314 0
-1044 -1316 0
-1045 -1317 0
-1048 -1318 0
-1049 -1319 0
-1044 -1329 0
-1045 -1330 0
-1046 -1331 0
-1047 -1332 0
-1048 -1333 0
-1049 -1334 0
-1041 -1342 0
-1044 -1345 0
-1045 -1346 0
-1048 -1347 0
-1049 -1348 0
-1043 -1357 0
-1045 -1359 0
-1046 -1360 0
-1047 -1361 0
-1049 -1362 0
-1043 -1364 0
-1045 -1365 0
-1047 -1366 0
-1048 -1367 0
-1049 -1368 0
-1041 -1376 0
-1043 -1377 0
-1045 -1379 0
-1046 -1380 0
-1048 -1381 0
-1049 -1382 0
-1041 -1383 0
-1045 -1385 0
-1046 -1386 0
-1047 -1387 0
-1048 -1388 0
-1049 -1389 0
-1044 -1398 0
-1045 -1399 0
-1046 -1400 0
-1047 -1401 0
-1048 -1402 0
-1049 -1403 0
-1041 -1443 0
-1044 -1445 0
-1045 -1446 0
-1046 -1447 0
-1049 -1448 0
-1044 -1451 0
-1045 -1452 0
-1046 -1453 0
-1047 -1454 0
-1048 -1455 0
-1049 -1456 0
-1042 -1470 0
-1044 -1473 0
-1045 -1474 0
-1046 -1475 0
-1047 -1476 0
-1049 -1477 0
-1042 -1485 0
-1044 -1487 0
-1046 -1488 0
-1047 -1489 0
-1048 -1490 0
-1049 -1491 0
-1044 -1494 0
-1045 -1495 0
-1046 -1496 0
-1048 -1497 0
-1049 -1498 0
-1042 -1509 0
-1043 -1510 0
-1046 -1511 0
-1047 -1512 0
-1049 -1513 0
-1042 -1515 0
-1045 -1517 0
-1047 -1518 0
-1049 -1519 0
-1043 -1528 0
-1045 -1529 0
-1046 -1530 0
-1049 -1531 0
-1042 -1533 0
-1046 -1535 0
-1047 -1536 0
-1048 -1537 0
-1049 -1538 0
-1041 -1546 0
-1042 -1547 0
-1046 -1549 0
-1048 -1550 0
-1049 -1551 0
-1043 -1554 0
-1046 -1556 0
-1048 -1557 0
-1049 -1558 0
-1041 -1566 0
-1045 -1570 0
-1046 -1571 0
-1047 -1572 0
-1048 -1573 0
-1049 -1574 0
-1044 -1583 0
-1046 -1584 0
-1048 -1585 0
-1049 -1586 0
-1042 -1615 0
-1044 -1616 0
-1045 -1617 0
-1047 -1618 0
-1048 -1619 0
-1049 -1620 0
-1042 -1640 0
-1044 -1642 0
-1046 -1643 0
-1047 -1644 0
-1049 -1645 0
-1044 -1658 0
-1045 -1659 0
-1049 -1660 0
-1041 -1668 0
-1044 -1670 0
-1045 -1671 0
-1046 -1672 0
-1047 -1673 0
-1049 -1674 0
-1044 -1682 0
-1045 -1683 0
-1047 -1684 0
-1048 -1685 0
-1049 -1686 0
-1043 -1695 0
-1044 -1697 0
-1045 -1698 0
-1048 -1699 0
-1049 -1700 0
-1041 -1707 0
-1043 -1709 0
-1044 -1710 0
-1045 -1711 0
-1046 -1712 0
-1047 -1713 0
-1048 -1714 0
-1049 -1715 0
-1043 -1717 0
-1044 -1719 0
-1046 -1720 0
-1049 -1721 0
-1041 -1729 0
-1043 -1730 0
-1044 -1732 0
-1046 -1733 0
-1047 -1734 0
-1049 -1735 0
-1041 -1736 0
-1044 -1739 0
-1045 -1740 0
-1047 -1741 0
-1049 -1742 0
-1041 -1750 0
-1044 -1752 0
-1045 -1753 0
-1046 -1754 0
-1049 -1755 0
-1043 -1762 0
-1046 -1764 0
-1047 -1765 0
-1048 -1766 0
-1049 -1767 0
-1045 -1770 0
-1046 -1771 0
-1048 -1772 0
-1049 -1773 0
-1044 -1789 0
-1045 -1790 0
-1047 -1791 0
-1048 -1792 0
-1049 -1793 0
-1043 -1800 0
-1046 -1802 0
-1047 -1803 0
-1048 -1804 0
-1049 -1805 0
-1043 -1830 0
-1044 -1832 0
-1045 -1833 0
-1047 -1834 0
-1049 -1835 0
-1044 -1837 0
-1045 -1838 0
-1046 -1839 0
-1047 -1840 0
-1048 -1841 0
-1049 -1842 0
-1045 -1881 0
-1046 -1882 0
-1048 -1883 0
-1049 -1884 0
-1041 -1892 0
-1045 -1894 0
-1046 -1895 0
-1047 -1896 0
-1048 -1897 0
-1049 -1898 0
-1044 -1953 0
-1045 -1954 0
-1046 -1955 0
-1047 -1956 0
-1048 -1957 0
-1049 -1958 0
-1050 -1211 0
-1053 -1213 0
-1054 -1215 0
-1055 -1216 0
-1050 -1247 0
-1053 -1249 0
-1055 -1253 0
-1050 -1261 0
-1053 -1262 0
-1055 -1266 0
-1051 -1288 0
-1053 -1289 0
-1054 -1291 0
-1055 -1293 0
-1051 -1308 0
-1054 -1311 0
-1055 -1313 0
-1053 -1328 0
-1054 -1332 0
-1055 -1334 0
-1050 -1335 0
-1053 -1337 0
-1054 -1339 0
-1055 -1341 0
-1052 -1357 0
-1053 -1358 0
-1054 -1361 0
-1055 -1362 0
-1052 -1364 0
-1054 -1366 0
-1055 -1368 0
-1050 -1369 0
-1052 -1370 0
-1054 -1373 0
-1055 -1375 0
-1050 -1390 0
-1053 -1392 0
-1054 -1395 0
-1055 -1396 0
-1050 -1437 0
-1054 -1440 0
-1055 -1442 0
-1051 -1464 0
-1055 -1468 0
-1051 -1478 0
-1053 -1480 0
-1055 -1484 0
-1055 -1498 0
-1051 -1500 0
-1052 -1501 0
-1053 -1502 0
-1055 -1507 0
-1051 -1521 0
-1055 -1525 0
-1052 -1528 0
-1055 -1531 0
-1051 -1540 0
-1053 -1541 0
-1055 -1545 0
-1050 -1546 0
-1051 -1547 0
-1053 -1548 0
-1055 -1551 0
-1052 -1554 0
-1053 -1555 0
-1055 -1558 0
-1050 -1575 0
-1055 -1580 0
-1053 -1588 0
-1054 -1591 0
-1055 -1592 0
-1051 -1608 0
-1053 -1609 0
-1055 -1613 0
-1051 -1634 0
-1053 -1635 0
-1055 -1639 0
-1053 -1657 0
-1055 -1660 0
-1050 -1661 0
-1053 -1663 0
-1055 -1667 0
-1053 -1676 0
-1054 -1679 0
-1055 -1680 0
-1052 -1695 0
-1053 -1696 0
-1055 -1700 0
-1050 -1701 0
-1052 -1703 0
-1053 -1704 0
-1055 -1706 0
-1052 -1717 0
-1053 -1718 0
-1055 -1721 0
-1050 -1722 0
-1052 -1723 0
-1053 -1724 0
-1055 -1728 0
-1050 -1743 0
-1053 -1745 0
-1055 -1749 0
-1050 -1750 0
-1053 -1751 0
-1055 -1755 0
-1052 -1756 0
-1053 -1757 0
-1054 -1760 0
-1055 -1761 0
-1053 -1775 0
-1054 -1777 0
-1055 -1779 0
-1053 -1781 0
-1054 -1785 0
-1055 -1787 0
-1053 -1795 0
-1055 -1799 0
-1052 -1806 0
-1055 -1811 0
-1052 -1824 0
-1055 -1829 0
-1053 -1880 0
-1055 -1884 0
-1050 -1885 0
-1053 -1887 0
-1055 -1891 0
-1056 -1205 0
-1059 -1207 0
-1060 -1208 0
-1061 -1210 0
-1056 -1240 0
-1059 -1243 0
-1061 -1246 0
-1056 -1267 0
-1059 -1269 0
-1061 -1272 0
-1058 -1280 0
-1059 -1283 0
-1061 -1286 0
-1058 -1314 0
-1059 -1317 0
-1061 -1319 0
-1059 -1323 0
-1061 -1325 0
-1056 -1342 0
-1059 -1346 0
-1061 -1348 0
-1057 -1349 0
-1059 -1353 0
-1061 -1355 0
-1057 -1363 0
-1059 -1365 0
-1061 -1368 0
-1056 -1369 0
-1059 -1372 0
-1061 -1375 0
-1056 -1390 0
-1057 -1391 0
-1059 -1394 0
-1061 -1396 0
-1059 -1399 0
-1060 -1400 0
-1061 -1403 0
-1058 -1457 0
-1059 -1458 0
-1060 -1459 0
-1061 -1462 0
-1057 -1469 0
-1058 -1470 0
-1059 -1474 0
-1060 -1475 0
-1061 -1477 0
-1058 -1478 0
-1059 -1481 0
-1060 -1482 0
-1061 -1484 0
-1057 -1492 0
-1059 -1495 0
-1060 -1496 0
-1061 -1498 0
-1057 -1499 0
-1058 -1500 0
-1059 -1504 0
-1060 -1505 0
-1061 -1507 0
-1057 -1520 0
-1058 -1521 0
-1060 -1523 0
-1061 -1525 0
-1057 -1526 0
-1059 -1529 0
-1060 -1530 0
-1061 -1531 0
-1057 -1532 0
-1058 -1533 0
-1060 -1535 0
-1061 -1538 0
-1057 -1559 0
-1060 -1563 0
-1061 -1565 0
-1056 -1566 0
-1057 -1567 0
-1059 -1570 0
-1060 -1571 0
-1061 -1574 0
-1058 -1600 0
-1059 -1603 0
-1060 -1604 0
-1061 -1606 0
-1058 -1640 0
-1060 -1643 0
-1061 -1645 0
-1059 -1650 0
-1060 -1651 0
-1061 -1654 0
-1056 -1668 0
-1059 -1671 0
-1060 -1672 0
-1061 -1674 0
-1059 -1683 0
-1061 -1686 0
-1057 -1687 0
-1059 -1690 0
-1060 -1691 0
-1061 -1693 0
-1056 -1707 0
-1057 -1708 0
-1059 -1711 0
-1060 -1712 0
-1061 -1715 0
-1057 -1716 0
-1060 -1720 0
-1061 -1721 0
-1056 -1722 0
-1059 -1725 0
-1060 -1726 0
-1061 -1728 0
-1056 -1743 0
-1057 -1744 0
-1060 -1747 0
-1061 -1749 0
-1056 -1750 0
-1059 -1753 0
-1060 -1754 0
-1061 -1755 0
-1059 -1759 0
-1061 -1761 0
-1057 -1774 0
-1061 -1779 0
-1059 -1790 0
-1061 -1793 0
-1057 -1812 0
-1061 -1817 0
-1059 -1833 0
-1061 -1835 0
-1057 -1851 0
-1058 -1852 0
-1060 -1854 0
-1061 -1857 0
-1057 -1865 0
-1060 -1867 0
-1061 -1870 0
-1057 -1871 0
-1060 -1874 0
-1061 -1877 0
-1057 -1879 0
-1059 -1881 0
-1060 -1882 0
-1061 -1884 0
-1056 -1885 0
-1057 -1886 0
-1060 -1889 0
-1061 -1891 0
-1056 -1937 0
-1060 -1939 0
-1061 -1942 0
-1062 -1199 0
-1065 -1201 0
-1066 -1202 0
-1069 -1203 0
-1070 -1204 0
-1062 -1233 0
-1065 -1235 0
-1066 -1236 0
-1067 -1237 0
-1068 -1238 0
-1070 -1239 0
-1062 -1261 0
-1065 -1262 0
-1066 -1263 0
-1067 -1265 0
-1070 -1266 0
-1064 -1273 0
-1065 -1275 0
-1066 -1276 0
-1067 -1277 0
-1069 -1278 0
-1070 -1279 0
-1064 -1308 0
-1067 -1310 0
-1068 -1311 0
-1069 -1312 0
-1070 -1313 0
-1065 -1322 0
-1069 -1324 0
-1070 -1325 0
-1062 -1335 0
-1065 -1337 0
-1067 -1338 0
-1068 -1339 0
-1069 -1340 0
-1070 -1341 0
-1063 -1349 0
-1065 -1351 0
-1066 -1352 0
-1069 -1354 0
-1070 -1355 0
-1063 -1363 0
-1068 -1366 0
-1069 -1367 0
-1070 -1368 0
-1062 -1376 0
-1065 -1378 0
-1067 -1380 0
-1069 -1381 0
-1070 -1382 0
-1062 -1383 0
-1063 -1384 0
-1067 -1386 0
-1068 -1387 0
-1069 -1388 0
-1070 -1389 0
-1064 -1457 0
-1067 -1459 0
-1068 -1460 0
-1069 -1461 0
-1070 -1462 0
-1063 -1463 0
-1064 -1464 0
-1069 -1467 0
-1070 -1468 0
-1064 -1485 0
-1066 -1487 0
-1067 -1488 0
-1068 -1489 0
-1069 -1490 0
-1070 -1491 0
-1063 -1492 0
-1066 -1494 0
-1067 -1496 0
-1069 -1497 0
-1070 -1498 0
-1063 -1508 0
-1064 -1509 0
-1067 -1511 0
-1068 -1512 0
-1070 -1513 0
-1063 -1514 0
-1064 -1515 0
-1065 -1516 0
-1068 -1518 0
-1070 -1519 0
-1063 -1526 0
-1067 -1530 0
-1070 -1531 0
-1063 -1539 0
-1064 -1540 0
-1065 -1541 0
-1066 -1542 0
-1067 -1544 0
-1070 -1545 0
-1063 -1559 0
-1065 -1561 0
-1066 -1562 0
-1067 -1563 0
-1068 -1564 0
-1070 -1565 0
-1062 -1575 0
-1063 -1576 0
-1066 -1578 0
-1067 -1579 0
-1070 -1580 0
-1064 -1593 0
-1065 -1595 0
-1068 -1597 0
-1069 -1598 0
-1070 -1599 0
-1064 -1634 0
-1065 -1635 0
-1066 -1636 0
-1069 -1638 0
-1070 -1639 0
-1065 -1648 0
-1066 -1649 0
-1067 -1651 0
-1068 -1652 0
-1069 -1653 0
-1070 -1654 0
-1062 -1661 0
-1065 -1663 0
-1066 -1664 0
-1069 -1666 0
-1070 -1667 0
-1065 -1676 0
-1067 -1678 0
-1068 -1679 0
-1070 -1680 0
-1063 -1687 0
-1065 -1689 0
-1067 -1691 0
-1068 -1692 0
-1070 -1693 0
-1062 -1701 0
-1063 -1702 0
-1065 -1704 0
-1070 -1706 0
-1063 -1716 0
-1065 -1718 0
-1066 -1719 0
-1067 -1720 0
-1070 -1721 0
-1062 -1729 0
-1065 -1731 0
-1066 -1732 0
-1067 -1733 0
-1068 -1734 0
-1070 -1735 0
-1062 -1736 0
-1063 -1737 0
-1065 -1738 0
-1066 -1739 0
-1068 -1741 0
-1070 -1742 0
-1062 -1750 0
-1065 -1751 0
-1066 -1752 0
-1067 -1754 0
-1070 -1755 0
-1065 -1763 0
-1067 -1764 0
-1068 -1765 0
-1069 -1766 0
-1070 -1767 0
-1063 -1768 0
-1065 -1769 0
-1067 -1771 0
-1069 -1772 0
-1070 -1773 0
-1065 -1781 0
-1066 -1782 0
-1067 -1784 0
-1068 -1785 0
-1069 -1786 0
-1070 -1787 0
-1065 -1795 0
-1066 -1796 0
-1067 -1797 0
-1069 -1798 0
-1070 -1799 0
-1063 -1818 0
-1066 -1819 0
-1067 -1821 0
-1068 -1822 0
-1070 -1823 0
-1066 -1825 0
-1067 -1827 0
-1069 -1828 0
-1070 -1829 0
-1065 -1836 0
-1066 -1837 0
-1067 -1839 0
-1068 -1840 0
-1069 -1841 0
-1070 -1842 0
-1063 -1844 0
-1064 -1845 0
-1066 -1846 0
-1068 -1848 0
-1069 -1849 0
-1070 -1850 0
-1063 -1865 0
-1067 -1867 0
-1068 -1868 0
-1069 -1869 0
-1070 -1870 0
-1063 -1871 0
-1066 -1873 0
-1067 -1874 0
-1068 -1875 0
-1069 -1876 0
-1070 -1877 0
-1063 -1879 0
-1065 -1880 0
-1067 -1882 0
-1069 -1883 0
-1070 -1884 0
-1062 -1892 0
-1063 -1893 0
-1067 -1895 0
-1068 -1896 0
-1069 -1897 0
-1070 -1898 0
-1062 -1931 0
-1065 -1932 0
-1068 -1934 0
-1069 -1935 0
-1070 -1936 0
-1065 -1943 0
-1066 -1944 0
-1067 -1946 0
-1068 -1947 0
-1069 -1948 0
-1070 -1949 0
-1065 -1952 0
-1066 -1953 0
-1067 -1955 0
-1068 -1956 0
-1069 -1957 0
-1070 -1958 0
-1073 -1162 0
-1074 -1163 0
-1075 -1164 0
-1076 -1165 0
-1077 -1166 0
-1071 -1193 0
-1073 -1196 0
-1074 -1197 0
-1077 -1198 0
-1073 -1226 0
-1074 -1228 0
-1075 -1229 0
-1076 -1230 0
-1077 -1232 0
-1071 -1261 0
-1073 -1262 0
-1074 -1264 0
-1075 -1265 0
-1077 -1266 0
-1071 -1267 0
-1073 -1268 0
-1074 -1269 0
-1076 -1270 0
-1077 -1272 0
-1072 -1308 0
-1074 -1309 0
-1075 -1310 0
-1076 -1311 0
-1077 -1313 0
-1072 -1314 0
-1073 -1315 0
-1074 -1317 0
-1077 -1319 0
-1073 -1322 0
-1074 -1323 0
-1077 -1325 0
-1073 -1328 0
-1074 -1330 0
-1075 -1331 0
-1076 -1332 0
-1077 -1334 0
-1073 -1351 0
-1074 -1353 0
-1077 -1355 0
-1073 -1358 0
-1074 -1359 0
-1075 -1360 0
-1076 -1361 0
-1077 -1362 0
-1071 -1369 0
-1074 -1372 0
-1076 -1373 0
-1077 -1375 0
-1071 -1376 0
-1073 -1378 0
-1074 -1379 0
-1075 -1380 0
-1077 -1382 0
-1071 -1383 0
-1074 -1385 0
-1075 -1386 0
-1076 -1387 0
-1077 -1389 0
-1071 -1390 0
-1073 -1392 0
-1074 -1394 0
-1076 -1395 0
-1077 -1396 0
-1074 -1433 0
-1075 -1434 0
-1077 -1436 0
-1072 -1478 0
-1073 -1480 0
-1074 -1481 0
-1075 -1482 0
-1077 -1484 0
-1072 -1485 0
-1075 -1488 0
-1076 -1489 0
-1077 -1491 0
-1074 -1495 0
-1075 -1496 0
-1077 -1498 0
-1072 -1500 0
-1073 -1502 0
-1074 -1504 0
-1075 -1505 0
-1077 -1507 0
-1072 -1509 0
-1075 -1511 0
-1076 -1512 0
-1077 -1513 0
-1072 -1515 0
-1073 -1516 0
-1074 -1517 0
-1076 -1518 0
-1077 -1519 0
-1072 -1521 0
-1075 -1523 0
-1077 -1525 0
-1074 -1529 0
-1075 -1530 0
-1077 -1531 0
-1071 -1546 0
-1072 -1547 0
-1073 -1548 0
-1075 -1549 0
-1077 -1551 0
-1071 -1566 0
-1073 -1569 0
-1074 -1570 0
-1075 -1571 0
-1076 -1572 0
-1077 -1574 0
-1071 -1575 0
-1075 -1579 0
-1077 -1580 0
-1072 -1634 0
-1073 -1635 0
-1074 -1637 0
-1077 -1639 0
-1072 -1640 0
-1073 -1641 0
-1075 -1643 0
-1076 -1644 0
-1077 -1645 0
-1073 -1648 0
-1074 -1650 0
-1075 -1651 0
-1076 -1652 0
-1077 -1654 0
-1073 -1657 0
-1074 -1659 0
-1077 -1660 0
-1073 -1689 0
-1074 -1690 0
-1075 -1691 0
-1076 -1692 0
-1077 -1693 0
-1073 -1696 0
-1074 -1698 0
-1077 -1700 0
-1071 -1722 0
-1073 -1724 0
-1074 -1725 0
-1075 -1726 0
-1077 -1728 0
-1071 -1729 0
-1073 -1731 0
-1075 -1733 0
-1076 -1734 0
-1077 -1735 0
-1071 -1736 0
-1073 -1738 0
-1074 -1740 0
-1076 -1741 0
-1077 -1742 0
-1071 -1743 0
-1073 -1745 0
-1075 -1747 0
-1077 -1749 0
-1073 -1757 0
-1074 -1759 0
-1076 -1760 0
-1077 -1761 0
-1073 -1763 0
-1075 -1764 0
-1076 -1765 0
-1077 -1767 0
-1073 -1769 0
-1074 -1770 0
-1075 -1771 0
-1077 -1773 0
-1073 -1775 0
-1076 -1777 0
-1077 -1779 0
-1074 -1790 0
-1076 -1791 0
-1077 -1793 0
-1073 -1795 0
-1075 -1797 0
-1077 -1799 0
-1073 -1836 0
-1074 -1838 0
-1075 -1839 0
-1076 -1840 0
-1077 -1842 0
-1075 -1867 0
-1076 -1868 0
-1077 -1870 0
-1075 -1874 0
-1076 -1875 0
-1077 -1877 0
-1071 -1885 0
-1073 -1887 0
-1075 -1889 0
-1077 -1891 0
-1071 -1892 0
-1074 -1894 0
-1075 -1895 0
-1076 -1896 0
-1077 -1898 0
-1073 -1926 0
-1076 -1928 0
-1077 -1930 0
-1073 -1952 0
-1074 -1954 0
-1075 -1955 0
-1076 -1956 0
-1077 -1958 0
-1078 -1261 0
-1082 -1262 0
-1083 -1264 0
-1084 -1265 0
-1086 -1266 0
-1078 -1267 0
-1082 -1268 0
-1083 -1269 0
-1085 -1270 0
-1086 -1272 0
-1083 -1309 0
-1084 -1310 0
-1085 -1311 0
-1086 -1313 0
-1082 -1315 0
-1083 -1317 0
-1086 -1319 0
-1079 -1363 0
-1081 -1364 0
-1083 -1365 0
-1085 -1366 0
-1086 -1368 0
-1078 -1369 0
-1081 -1370 0
-1083 -1372 0
-1085 -1373 0
-1086 -1375 0
-1078 -1376 0
-1081 -1377 0
-1082 -1378 0
-1083 -1379 0
-1084 -1380 0
-1086 -1382 0
-1078 -1383 0
-1079 -1384 0
-1083 -1385 0
-1084 -1386 0
-1085 -1387 0
-1086 -1389 0
-1078 -1390 0
-1079 -1391 0
-1082 -1392 0
-1083 -1394 0
-1085 -1395 0
-1086 -1396 0
-1083 -1458 0
-1084 -1459 0
-1085 -1460 0
-1086 -1462 0
-1080 -1479 0
-1082 -1480 0
-1083 -1481 0
-1084 -1482 0
-1086 -1484 0
-1080 -1486 0
-1084 -1488 0
-1085 -1489 0
-1086 -1491 0
-1079 -1499 0
-1081 -1501 0
-1082 -1502 0
-1083 -1504 0
-1084 -1505 0
-1086 -1507 0
-1079 -1508 0
-1081 -1510 0
-1084 -1511 0
-1085 -1512 0
-1086 -1513 0
-1079 -1514 0
-1082 -1516 0
-1083 -1517 0
-1085 -1518 0
-1086 -1519 0
-1079 -1520 0
-1084 -1523 0
-1086 -1525 0
-1079 -1552 0
-1080 -1553 0
-1081 -1554 0
-1082 -1555 0
-1084 -1556 0
-1086 -1558 0
-1079 -1559 0
-1080 -1560 0
-1082 -1561 0
-1084 -1563 0
-1085 -1564 0
-1086 -1565 0
-1078 -1566 0
-1079 -1567 0
-1080 -1568 0
-1082 -1569 0
-1083 -1570 0
-1084 -1571 0
-1085 -1572 0
-1086 -1574 0
-1078 -1575 0
-1079 -1576 0
-1080 -1577 0
-1084 -1579 0
-1086 -1580 0
-1082 -1635 0
-1083 -1637 0
-1086 -1639 0
-1082 -1641 0
-1084 -1643 0
-1085 -1644 0
-1086 -1645 0
-1079 -1716 0
-1081 -1717 0
-1082 -1718 0
-1084 -1720 0
-1086 -1721 0
-1078 -1722 0
-1081 -1723 0
-1082 -1724 0
-1083 -1725 0
-1084 -1726 0
-1086 -1728 0
-1078 -1729 0
-1081 -1730 0
-1082 -1731 0
-1084 -1733 0
-1085 -1734 0
-1086 -1735 0
-1078 -1736 0
-1079 -1737 0
-1082 -1738 0
-1083 -1740 0
-1085 -1741 0
-1086 -1742 0
-1078 -1743 0
-1079 -1744 0
-1082 -1745 0
-1084 -1747 0
-1086 -1749 0
-1078 -1750 0
-1082 -1751 0
-1083 -1753 0
-1084 -1754 0
-1086 -1755 0
-1081 -1756 0
-1082 -1757 0
-1083 -1759 0
-1085 -1760 0
-1086 -1761 0
-1081 -1762 0
-1082 -1763 0
-1084 -1764 0
-1085 -1765 0
-1086 -1767 0
-1079 -1768 0
-1082 -1769 0
-1083 -1770 0
-1084 -1771 0
-1086 -1773 0
-1079 -1774 0
-1082 -1775 0
-1085 -1777 0
-1086 -1779 0
-1080 -1788 0
-1083 -1790 0
-1085 -1791 0
-1086 -1793 0
-1080 -1794 0
-1082 -1795 0
-1084 -1797 0
-1086 -1799 0
-1082 -1836 0
-1083 -1838 0
-1084 -1839 0
-1085 -1840 0
-1086 -1842 0
-1079 -1879 0
-1082 -1880 0
-1083 -1881 0
-1084 -1882 0
-1086 -1884 0
-1078 -1885 0
-1079 -1886 0
-1082 -1887 0
-1084 -1889 0
-1086 -1891 0
-1078 -1892 0
-1079 -1893 0
-1083 -1894 0
-1084 -1895 0
-1085 -1896 0
-1086 -1898 0
-1082 -1952 0
-1083 -1954 0
-1084 -1955 0
-1085 -1956 0
-1086 -1958 0
-1087 -1154 0
-1089 -1156 0
-1090 -1157 0
-1091 -1159 0
-1092 -1160 0
-1087 -1186 0
-1089 -1189 0
-1091 -1191 0
-1092 -1192 0
-1087 -1240 0
-1091 -1245 0
-1092 -1246 0
-1087 -1254 0
-1090 -1257 0
-1091 -1259 0
-1092 -1260 0
-1088 -1280 0
-1089 -1282 0
-1091 -1285 0
-1092 -1286 0
-1088 -1295 0
-1089 -1296 0
-1090 -1299 0
-1092 -1300 0
-1089 -1304 0
-1090 -1305 0
-1091 -1306 0
-1092 -1307 0
-1087 -1342 0
-1089 -1344 0
-1091 -1347 0
-1092 -1348 0
-1089 -1351 0
-1091 -1354 0
-1092 -1355 0
-1089 -1358 0
-1090 -1360 0
-1092 -1362 0
-1087 -1376 0
-1089 -1378 0
-1090 -1380 0
-1091 -1381 0
-1092 -1382 0
-1087 -1390 0
-1089 -1392 0
-1092 -1396 0
-1087 -1424 0
-1089 -1426 0
-1090 -1428 0
-1092 -1430 0
-1089 -1450 0
-1090 -1453 0
-1091 -1455 0
-1092 -1456 0
-1088 -1457 0
-1090 -1459 0
-1091 -1461 0
-1092 -1462 0
-1088 -1464 0
-1091 -1467 0
-1092 -1468 0
-1088 -1485 0
-1090 -1488 0
-1091 -1490 0
-1092 -1491 0
-1090 -1496 0
-1091 -1497 0
-1092 -1498 0
-1088 -1500 0
-1089 -1502 0
-1090 -1505 0
-1091 -1506 0
-1092 -1507 0
-1088 -1515 0
-1089 -1516 0
-1092 -1519 0
-1088 -1540 0
-1089 -1541 0
-1090 -1544 0
-1092 -1545 0
-1087 -1546 0
-1088 -1547 0
-1089 -1548 0
-1090 -1549 0
-1091 -1550 0
-1092 -1551 0
-1089 -1555 0
-1090 -1556 0
-1091 -1557 0
-1092 -1558 0
-1089 -1561 0
-1090 -1563 0
-1092 -1565 0
-1087 -1566 0
-1089 -1569 0
-1090 -1571 0
-1091 -1573 0
-1092 -1574 0
-1089 -1582 0
-1090 -1584 0
-1091 -1585 0
-1092 -1586 0
-1088 -1600 0
-1090 -1604 0
-1092 -1606 0
-1088 -1615 0
-1091 -1619 0
-1092 -1620 0
-1087 -1621 0
-1088 -1622 0
-1092 -1626 0
-1092 -1633 0
-1087 -1668 0
-1090 -1672 0
-1092 -1674 0
-1089 -1676 0
-1090 -1678 0
-1092 -1680 0
-1089 -1689 0
-1090 -1691 0
-1092 -1693 0
-1089 -1696 0
-1091 -1699 0
-1092 -1700 0
-1087 -1701 0
-1089 -1704 0
-1092 -1706 0
-1087 -1729 0
-1089 -1731 0
-1090 -1733 0
-1092 -1735 0
-1087 -1743 0
-1089 -1745 0
-1090 -1747 0
-1091 -1748 0
-1092 -1749 0
-1087 -1750 0
-1089 -1751 0
-1090 -1754 0
-1092 -1755 0
-1089 -1757 0
-1092 -1761 0
-1089 -1769 0
-1090 -1771 0
-1091 -1772 0
-1092 -1773 0
-1089 -1781 0
-1090 -1784 0
-1091 -1786 0
-1092 -1787 0
-1091 -1792 0
-1092 -1793 0
-1089 -1801 0
-1090 -1802 0
-1091 -1804 0
-1092 -1805 0
-1089 -1813 0
-1091 -1816 0
-1092 -1817 0
-1090 -1827 0
-1091 -1828 0
-1092 -1829 0
-1088 -1852 0
-1089 -1853 0
-1090 -1854 0
-1091 -1856 0
-1092 -1857 0
-1089 -1860 0
-1091 -1863 0
-1092 -1864 0
-1090 -1874 0
-1091 -1876 0
-1092 -1877 0
-1087 -1892 0
-1090 -1895 0
-1091 -1897 0
-1092 -1898 0
-1087 -1918 0
-1089 -1920 0
-1092 -1924 0
-1089 -1952 0
-1090 -1955 0
-1091 -1957 0
-1092 -1958 0
-1093 -1147 0
-1095 -1149 0
-1096 -1150 0
-1097 -1152 0
-1098 -1153 0
-1093 -1179 0
-1095 -1182 0
-1096 -1183 0
-1098 -1185 0
-1093 -1233 0
-1095 -1236 0
-1097 -1238 0
-1098 -1239 0
-1093 -1247 0
-1095 -1250 0
-1098 -1253 0
-1094 -1273 0
-1095 -1276 0
-1098 -1279 0
-1094 -1288 0
-1097 -1291 0
-1098 -1293 0
-1098 -1307 0
-1093 -1335 0
-1097 -1339 0
-1098 -1341 0
-1095 -1352 0
-1096 -1353 0
-1098 -1355 0
-1096 -1359 0
-1097 -1361 0
-1098 -1362 0
-1093 -1369 0
-1095 -1371 0
-1096 -1372 0
-1097 -1373 0
-1098 -1375 0
-1093 -1383 0
-1096 -1385 0
-1097 -1387 0
-1098 -1389 0
-1095 -1398 0
-1096 -1399 0
-1097 -1401 0
-1098 -1403 0
-1093 -1417 0
-1096 -1420 0
-1098 -1423 0
-1094 -1457 0
-1096 -1458 0
-1097 -1460 0
-1098 -1462 0
-1094 -1470 0
-1095 -1473 0
-1096 -1474 0
-1097 -1476 0
-1098 -1477 0
-1094 -1478 0
-1096 -1481 0
-1098 -1484 0
-1095 -1494 0
-1096 -1495 0
-1098 -1498 0
-1094 -1509 0
-1097 -1512 0
-1098 -1513 0
-1094 -1521 0
-1095 -1522 0
-1098 -1525 0
-1094 -1533 0
-1097 -1536 0
-1098 -1538 0
-1093 -1546 0
-1094 -1547 0
-1098 -1551 0
-1098 -1558 0
-1095 -1562 0
-1097 -1564 0
-1098 -1565 0
-1093 -1575 0
-1095 -1578 0
-1098 -1580 0
-1096 -1589 0
-1097 -1591 0
-1098 -1592 0
-1094 -1593 0
-1096 -1596 0
-1097 -1597 0
-1098 -1599 0
-1094 -1608 0
-1095 -1610 0
-1096 -1611 0
-1098 -1613 0
-1093 -1621 0
-1094 -1622 0
-1095 -1623 0
-1096 -1624 0
-1097 -1625 0
-1098 -1626 0
-1095 -1630 0
-1096 -1631 0
-1097 -1632 0
-1098 -1633 0
-1093 -1661 0
-1095 -1664 0
-1096 -1665 0
-1098 -1667 0
-1095 -1682 0
-1096 -1683 0
-1097 -1684 0
-1098 -1686 0
-1096 -1690 0
-1097 -1692 0
-1098 -1693 0
-1095 -1697 0
-1096 -1698 0
-1098 -1700 0
-1093 -1707 0
-1095 -1710 0
-1096 -1711 0
-1097 -1713 0
-1098 -1715 0
-1093 -1722 0
-1096 -1725 0
-1098 -1728 0
-1093 -1736 0
-1095 -1739 0
-1096 -1740 0
-1097 -1741 0
-1098 -1742 0
-1093 -1750 0
-1095 -1752 0
-1096 -1753 0
-1098 -1755 0
-1097 -1765 0
-1098 -1767 0
-1095 -1776 0
-1097 -1777 0
-1098 -1779 0
-1095 -1796 0
-1098 -1799 0
-1095 -1807 0
-1096 -1808 0
-1098 -1811 0
-1095 -1819 0
-1096 -1820 0
-1097 -1822 0
-1098 -1823 0
-1095 -1832 0
-1096 -1833 0
-1097 -1834 0
-1098 -1835 0
-1095 -1837 0
-1096 -1838 0
-1097 -1840 0
-1098 -1842 0
-1094 -1845 0
-1095 -1846 0
-1096 -1847 0
-1097 -1848 0
-1098 -1850 0
-1096 -1861 0
-1097 -1862 0
-1098 -1864 0
-1095 -1873 0
-1097 -1875 0
-1098 -1877 0
-1093 -1885 0
-1095 -1888 0
-1098 -1891 0
-1093 -1911 0
-1096 -1913 0
-1097 -1915 0
-1098 -1917 0
-1095 -1944 0
-1096 -1945 0
-1097 -1947 0
-1098 -1949 0
-1099 -1247 0
-1103 -1252 0
-1104 -1253 0
-1099 -1254 0
-1102 -1258 0
-1103 -1259 0
-1104 -1260 0
-1102 -1291 0
-1103 -1292 0
-1104 -1293 0
-1104 -1300 0
-1101 -1357 0
-1102 -1361 0
-1104 -1362 0
-1099 -1383 0
-1102 -1387 0
-1103 -1388 0
-1104 -1389 0
-1099 -1390 0
-1102 -1395 0
-1104 -1396 0
-1102 -1401 0
-1103 -1402 0
-1104 -1403 0
-1102 -1454 0
-1103 -1455 0
-1104 -1456 0
-1102 -1460 0
-1103 -1461 0
-1104 -1462 0
-1100 -1465 0
-1103 -1467 0
-1104 -1468 0
-1100 -1471 0
-1102 -1476 0
-1104 -1477 0
-1101 -1501 0
-1103 -1506 0
-1104 -1507 0
-1101 -1510 0
-1102 -1512 0
-1104 -1513 0
-1100 -1527 0
-1101 -1528 0
-1104 -1531 0
-1102 -1536 0
-1103 -1537 0
-1104 -1538 0
-1104 -1545 0
-1099 -1546 0
-1103 -1550 0
-1104 -1551 0
-1100 -1560 0
-1102 -1564 0
-1104 -1565 0
-1099 -1566 0
-1100 -1568 0
-1102 -1572 0
-1103 -1573 0
-1104 -1574 0
-1099 -1575 0
-1100 -1577 0
-1104 -1580 0
-1100 -1581 0
-1103 -1585 0
-1104 -1586 0
-1100 -1587 0
-1102 -1591 0
-1104 -1592 0
-1104 -1613 0
-1102 -1618 0
-1103 -1619 0
-1104 -1620 0
-1099 -1621 0
-1102 -1625 0
-1104 -1626 0
-1100 -1675 0
-1102 -1679 0
-1104 -1680 0
-1100 -1681 0
-1102 -1684 0
-1103 -1685 0
-1104 -1686 0
-1101 -1695 0
-1103 -1699 0
-1104 -1700 0
-1099 -1701 0
-1101 -1703 0
-1104 -1706 0
-1099 -1707 0
-1101 -1709 0
-1102 -1713 0
-1103 -1714 0
-1104 -1715 0
-1099 -1736 0
-1102 -1741 0
-1104 -1742 0
-1099 -1743 0
-1103 -1748 0
-1104 -1749 0
-1099 -1750 0
-1104 -1755 0
-1101 -1756 0
-1102 -1760 0
-1104 -1761 0
-1101 -1762 0
-1102 -1765 0
-1103 -1766 0
-1104 -1767 0
-1102 -1785 0
-1103 -1786 0
-1104 -1787 0
-1100 -1788 0
-1102 -1791 0
-1103 -1792 0
-1104 -1793 0
-1100 -1794 0
-1103 -1798 0
-1104 -1799 0
-1101 -1800 0
-1102 -1803 0
-1103 -1804 0
-1104 -1805 0
-1101 -1806 0
-1103 -1810 0
-1104 -1811 0
-1101 -1824 0
-1103 -1828 0
-1104 -1829 0
-1101 -1830 0
-1102 -1834 0
-1104 -1835 0
-1102 -1840 0
-1103 -1841 0
-1104 -1842 0
-1105 -1233 0
-1108 -1236 0
-1109 -1237 0
-1110 -1239 0
-1105 -1240 0
-1108 -1242 0
-1110 -1246 0
-1108 -1276 0
-1109 -1277 0
-1110 -1279 0
-1110 -1286 0
-1106 -1349 0
-1108 -1352 0
-1110 -1355 0
-1105 -1369 0
-1108 -1371 0
-1110 -1375 0
-1105 -1376 0
-1109 -1380 0
-1110 -1382 0
-1108 -1398 0
-1109 -1400 0
-1110 -1403 0
-1106 -1463 0
-1107 -1465 0
-1110 -1468 0
-1106 -1469 0
-1107 -1471 0
-1108 -1473 0
-1109 -1475 0
-1110 -1477 0
-1107 -1479 0
-1109 -1482 0
-1110 -1484 0
-1107 -1486 0
-1108 -1487 0
-1109 -1488 0
-1110 -1491 0
-1106 -1514 0
-1110 -1519 0
-1106 -1520 0
-1108 -1522 0
-1109 -1523 0
-1110 -1525 0
-1106 -1526 0
-1107 -1527 0
-1109 -1530 0
-1110 -1531 0
-1106 -1532 0
-1109 -1535 0
-1110 -1538 0
-1106 -1539 0
-1108 -1542 0
-1109 -1544 0
-1110 -1545 0
-1106 -1552 0
-1107 -1553 0
-1109 -1556 0
-1110 -1558 0
-1105 -1566 0
-1106 -1567 0
-1107 -1568 0
-1109 -1571 0
-1110 -1574 0
-1105 -1575 0
-1106 -1576 0
-1107 -1577 0
-1108 -1578 0
-1109 -1579 0
-1110 -1580 0
-1110 -1599 0
-1108 -1602 0
-1109 -1604 0
-1110 -1606 0
-1105 -1621 0
-1108 -1623 0
-1110 -1626 0
-1107 -1675 0
-1109 -1678 0
-1110 -1680 0
-1107 -1681 0
-1108 -1682 0
-1110 -1686 0
-1106 -1687 0
-1109 -1691 0
-1110 -1693 0
-1105 -1701 0
-1106 -1702 0
-1110 -1706 0
-1105 -1707 0
-1106 -1708 0
-1108 -1710 0
-1109 -1712 0
-1110 -1715 0
-1105 -1722 0
-1109 -1726 0
-1110 -1728 0
-1105 -1729 0
-1108 -1732 0
-1109 -1733 0
-1110 -1735 0
-1105 -1750 0
-1108 -1752 0
-1109 -1754 0
-1110 -1755 0
-1106 -1768 0
-1109 -1771 0
-1110 -1773 0
-1106 -1774 0
-1108 -1776 0
-1110 -1779 0
-1108 -1782 0
-1109 -1784 0
-1110 -1787 0
-1107 -1788 0
-1108 -1789 0
-1110 -1793 0
-1107 -1794 0
-1108 -1796 0
-1109 -1797 0
-1110 -1799 0
-1106 -1812 0
-1108 -1814 0
-1110 -1817 0
-1106 -1818 0
-1108 -1819 0
-1109 -1821 0
-1110 -1823 0
-1108 -1825 0
-1109 -1827 0
-1110 -1829 0
-1108 -1832 0
-1110 -1835 0
-1106 -1844 0
-1108 -1846 0
-1110 -1850 0
-1106 -1851 0
-1109 -1854 0
-1110 -1857 0
-1106 -1871 0
-1108 -1873 0
-1109 -1874 0
-1110 -1877 0
-1105 -1885 0
-1106 -1886 0
-1108 -1888 0
-1109 -1889 0
-1110 -1891 0
-1105 -1892 0
-1106 -1893 0
-1109 -1895 0
-1110 -1898 0
-1108 -1944 0
-1109 -1946 0
-1110 -1949 0
-1108 -1953 0
-1109 -1955 0
-1110 -1958 0
-1113 -1130 0
-1114 -1131 0
-1115 -1133 0
-1116 -1134 0
-1113 -1228 0
-1114 -1229 0
-1115 -1231 0
-1116 -1232 0
-1111 -1240 0
-1113 -1243 0
-1115 -1245 0
-1116 -1246 0
-1111 -1254 0
-1113 -1256 0
-1114 -1257 0
-1115 -1259 0
-1116 -1260 0
-1111 -1267 0
-1113 -1269 0
-1115 -1271 0
-1116 -1272 0
-1113 -1283 0
-1115 -1285 0
-1116 -1286 0
-1113 -1298 0
-1114 -1299 0
-1116 -1300 0
-1113 -1317 0
-1115 -1318 0
-1116 -1319 0
-1113 -1353 0
-1115 -1354 0
-1116 -1355 0
-1113 -1359 0
-1114 -1360 0
-1116 -1362 0
-1113 -1365 0
-1115 -1367 0
-1116 -1368 0
-1111 -1376 0
-1113 -1379 0
-1114 -1380 0
-1115 -1381 0
-1116 -1382 0
-1111 -1390 0
-1113 -1394 0
-1116 -1396 0
-1113 -1399 0
-1114 -1400 0
-1115 -1402 0
-1116 -1403 0
-1113 -1452 0
-1114 -1453 0
-1115 -1455 0
-1116 -1456 0
-1113 -1458 0
-1114 -1459 0
-1115 -1461 0
-1116 -1462 0
-1112 -1471 0
-1113 -1474 0
-1114 -1475 0
-1116 -1477 0
-1112 -1486 0
-1114 -1488 0
-1115 -1490 0
-1116 -1491 0
-1113 -1504 0
-1114 -1505 0
-1115 -1506 0
-1116 -1507 0
-1113 -1517 0
-1116 -1519 0
-1112 -1527 0
-1113 -1529 0
-1114 -1530 0
-1116 -1531 0
-1114 -1535 0
-1115 -1537 0
-1116 -1538 0
-1111 -1546 0
-1114 -1549 0
-1115 -1550 0
-1116 -1551 0
-1112 -1553 0
-1114 -1556 0
-1115 -1557 0
-1116 -1558 0
-1112 -1560 0
-1114 -1563 0
-1116 -1565 0
-1111 -1575 0
-1112 -1577 0
-1114 -1579 0
-1116 -1580 0
-1112 -1581 0
-1114 -1584 0
-1115 -1585 0
-1116 -1586 0
-1113 -1603 0
-1114 -1604 0
-1116 -1606 0
-1113 -1617 0
-1115 -1619 0
-1116 -1620 0
-1114 -1643 0
-1116 -1645 0
-1112 -1681 0
-1113 -1683 0
-1115 -1685 0
-1116 -1686 0
-1113 -1690 0
-1114 -1691 0
-1116 -1693 0
-1113 -1698 0
-1115 -1699 0
-1116 -1700 0
-1111 -1707 0
-1113 -1711 0
-1114 -1712 0
-1115 -1714 0
-1116 -1715 0
-1114 -1720 0
-1116 -1721 0
-1111 -1729 0
-1114 -1733 0
-1116 -1735 0
-1111 -1743 0
-1114 -1747 0
-1115 -1748 0
-1116 -1749 0
-1113 -1759 0
-1116 -1761 0
-1113 -1770 0
-1114 -1771 0
-1115 -1772 0
-1116 -1773 0
-1112 -1794 0
-1114 -1797 0
-1115 -1798 0
-1116 -1799 0
-1114 -1802 0
-1115 -1804 0
-1116 -1805 0
-1115 -1816 0
-1116 -1817 0
-1113 -1833 0
-1116 -1835 0
-1114 -1854 0
-1115 -1856 0
-1116 -1857 0
-1114 -1874 0
-1115 -1876 0
-1116 -1877 0
-1113 -1881 0
-1114 -1882 0
-1115 -1883 0
-1116 -1884 0
-1111 -1892 0
-1113 -1894 0
-1114 -1895 0
-1115 -1897 0
-1116 -1898 0
-1113 -1954 0
-1114 -1955 0
-1115 -1957 0
-1116 -1958 0
-1119 -1124 0
-1120 -1125 0
-1121 -1127 0
-1122 -1128 0
-1119 -1226 0
-1120 -1227 0
-1121 -1230 0
-1122 -1232 0
-1117 -1233 0
-1119 -1235 0
-1120 -1236 0
-1121 -1238 0
-1122 -1239 0
-1117 -1247 0
-1119 -1249 0
-1120 -1250 0
-1122 -1253 0
-1117 -1261 0
-1119 -1262 0
-1120 -1263 0
-1122 -1266 0
-1119 -1275 0
-1120 -1276 0
-1122 -1279 0
-1119 -1289 0
-1121 -1291 0
-1122 -1293 0
-1121 -1311 0
-1122 -1313 0
-1119 -1351 0
-1120 -1352 0
-1122 -1355 0
-1119 -1358 0
-1121 -1361 0
-1122 -1362 0
-1121 -1366 0
-1122 -1368 0
-1117 -1369 0
-1120 -1371 0
-1121 -1373 0
-1122 -1375 0
-1117 -1383 0
-1121 -1387 0
-1122 -1389 0
-1121 -1460 0
-1122 -1462 0
-1118 -1465 0
-1122 -1468 0
-1118 -1479 0
-1119 -1480 0
-1122 -1484 0
-1121 -1512 0
-1122 -1513 0
-1120 -1522 0
-1122 -1525 0
-1118 -1527 0
-1122 -1531 0
-1119 -1541 0
-1120 -1542 0
-1122 -1545 0
-1117 -1546 0
-1119 -1548 0
-1122 -1551 0
-1118 -1553 0
-1119 -1555 0
-1122 -1558 0
-1118 -1560 0
-1119 -1561 0
-1120 -1562 0
-1121 -1564 0
-1122 -1565 0
-1117 -1566 0
-1118 -1568 0
-1119 -1569 0
-1121 -1572 0
-1122 -1574 0
-1118 -1587 0
-1119 -1588 0
-1121 -1591 0
-1122 -1592 0
-1119 -1595 0
-1121 -1597 0
-1122 -1599 0
-1119 -1609 0
-1120 -1610 0
-1122 -1613 0
-1119 -1635 0
-1120 -1636 0
-1122 -1639 0
-1118 -1675 0
-1119 -1676 0
-1121 -1679 0
-1122 -1680 0
-1119 -1689 0
-1121 -1692 0
-1122 -1693 0
-1119 -1696 0
-1120 -1697 0
-1122 -1700 0
-1117 -1701 0
-1119 -1704 0
-1122 -1706 0
-1119 -1718 0
-1120 -1719 0
-1122 -1721 0
-1117 -1722 0
-1119 -1724 0
-1122 -1728 0
-1117 -1736 0
-1119 -1738 0
-1120 -1739 0
-1121 -1741 0
-1122 -1742 0
-1119 -1763 0
-1121 -1765 0
-1122 -1767 0
-1119 -1775 0
-1120 -1776 0
-1121 -1777 0
-1122 -1779 0
-1119 -1781 0
-1120 -1782 0
-1121 -1785 0
-1122 -1787 0
-1118 -1788 0
-1120 -1789 0
-1121 -1791 0
-1122 -1793 0
-1120 -1807 0
-1122 -1811 0
-1120 -1819 0
-1121 -1822 0
-1122 -1823 0
-1120 -1825 0
-1122 -1829 0
-1119 -1836 0
-1120 -1837 0
-1121 -1840 0
-1122 -1842 0
-1120 -1846 0
-1121 -1848 0
-1122 -1850 0
-1120 -1873 0
-1121 -1875 0
-1122 -1877 0
-1119 -1880 0
-1122 -1884 0
-1117 -1885 0
-1119 -1887 0
-1120 -1888 0
-1122 -1891 0
-1119 -1943 0
-1120 -1944 0
-1121 -1947 0
-1122 -1949 0
-1124 -1189 0
-1127 -1190 0
-1128 -1192 0
-1126 -1208 0
-1127 -1209 0
-1128 -1210 0
-1125 -1219 0
-1128 -1222 0
-1123 -1280 0
-1124 -1282 0
-1127 -1284 0
-1128 -1286 0
-1123 -1295 0
-1124 -1296 0
-1125 -1297 0
-1126 -1299 0
-1128 -1300 0
-1124 -1304 0
-1126 -1305 0
-1128 -1307 0
-1123 -1314 0
-1124 -1315 0
-1125 -1316 0
-1128 -1319 0
-1124 -1322 0
-1128 -1325 0
-1124 -1328 0
-1125 -1329 0
-1126 -1331 0
-1127 -1332 0
-1128 -1334 0
-1124 -1337 0
-1126 -1338 0
-1127 -1339 0
-1128 -1341 0
-1124 -1351 0
-1125 -1352 0
-1128 -1355 0
-1124 -1358 0
-1126 -1360 0
-1127 -1361 0
-1128 -1362 0
-1127 -1366 0
-1128 -1368 0
-1125 -1371 0
-1127 -1373 0
-1128 -1375 0
-1126 -1386 0
-1127 -1387 0
-1128 -1389 0
-1124 -1426 0
-1125 -1427 0
-1126 -1428 0
-1127 -1429 0
-1128 -1430 0
-1124 -1444 0
-1125 -1445 0
-1126 -1447 0
-1128 -1448 0
-1123 -1457 0
-1126 -1459 0
-1127 -1460 0
-1128 -1462 0
-1123 -1464 0
-1128 -1468 0
-1123 -1478 0
-1124 -1480 0
-1126 -1482 0
-1128 -1484 0
-1123 -1500 0
-1124 -1502 0
-1125 -1503 0
-1126 -1505 0
-1128 -1507 0
-1123 -1515 0
-1124 -1516 0
-1127 -1518 0
-1128 -1519 0
-1123 -1533 0
-1124 -1534 0
-1126 -1535 0
-1127 -1536 0
-1128 -1538 0
-1124 -1582 0
-1125 -1583 0
-1126 -1584 0
-1128 -1586 0
-1123 -1600 0
-1125 -1602 0
-1126 -1604 0
-1127 -1605 0
-1128 -1606 0
-1123 -1615 0
-1125 -1616 0
-1127 -1618 0
-1128 -1620 0
-1123 -1622 0
-1125 -1623 0
-1127 -1625 0
-1128 -1626 0
-1125 -1630 0
-1127 -1632 0
-1128 -1633 0
-1123 -1640 0
-1124 -1641 0
-1125 -1642 0
-1126 -1643 0
-1127 -1644 0
-1128 -1645 0
-1124 -1648 0
-1125 -1649 0
-1126 -1651 0
-1127 -1652 0
-1128 -1654 0
-1124 -1657 0
-1125 -1658 0
-1128 -1660 0
-1124 -1663 0
-1125 -1664 0
-1128 -1667 0
-1125 -1682 0
-1127 -1684 0
-1128 -1686 0
-1124 -1689 0
-1126 -1691 0
-1127 -1692 0
-1128 -1693 0
-1124 -1696 0
-1125 -1697 0
-1128 -1700 0
-1124 -1704 0
-1128 -1706 0
-1124 -1718 0
-1125 -1719 0
-1126 -1720 0
-1128 -1721 0
-1124 -1724 0
-1126 -1726 0
-1128 -1728 0
-1124 -1738 0
-1125 -1739 0
-1127 -1741 0
-1128 -1742 0
-1124 -1763 0
-1126 -1764 0
-1127 -1765 0
-1128 -1767 0
-1124 -1775 0
-1125 -1776 0
-1127 -1777 0
-1128 -1779 0
-1124 -1781 0
-1125 -1782 0
-1126 -1784 0
-1127 -1785 0
-1128 -1787 0
-1125 -1825 0
-1126 -1827 0
-1128 -1829 0
-1124 -1836 0
-1125 -1837 0
-1126 -1839 0
-1127 -1840 0
-1128 -1842 0
-1123 -1852 0
-1124 -1853 0
-1126 -1854 0
-1127 -1855 0
-1128 -1857 0
-1124 -1860 0
-1127 -1862 0
-1128 -1864 0
-1126 -1867 0
-1127 -1868 0
-1128 -1870 0
-1125 -1873 0
-1126 -1874 0
-1127 -1875 0
-1128 -1877 0
-1124 -1880 0
-1126 -1882 0
-1128 -1884 0
-1124 -1887 0
-1125 -1888 0
-1126 -1889 0
-1128 -1891 0
-1124 -1920 0
-1125 -1921 0
-1127 -1923 0
-1128 -1924 0
-1125 -1938 0
-1126 -1939 0
-1127 -1940 0
-1128 -1942 0
-1130 -1183 0
-1131 -1184 0
-1134 -1185 0
-1133 -1203 0
-1134 -1204 0
-1131 -1214 0
-1132 -1215 0
-1134 -1216 0
-1129 -1273 0
-1131 -1277 0
-1133 -1278 0
-1134 -1279 0
-1129 -1288 0
-1131 -1290 0
-1132 -1291 0
-1133 -1292 0
-1134 -1293 0
-1131 -1305 0
-1133 -1306 0
-1134 -1307 0
-1129 -1308 0
-1130 -1309 0
-1131 -1310 0
-1132 -1311 0
-1133 -1312 0
-1134 -1313 0
-1130 -1323 0
-1133 -1324 0
-1134 -1325 0
-1130 -1330 0
-1131 -1331 0
-1132 -1332 0
-1133 -1333 0
-1134 -1334 0
-1130 -1346 0
-1133 -1347 0
-1134 -1348 0
-1130 -1353 0
-1133 -1354 0
-1134 -1355 0
-1130 -1359 0
-1131 -1360 0
-1132 -1361 0
-1134 -1362 0
-1130 -1365 0
-1132 -1366 0
-1133 -1367 0
-1134 -1368 0
-1130 -1379 0
-1131 -1380 0
-1133 -1381 0
-1134 -1382 0
-1130 -1394 0
-1132 -1395 0
-1134 -1396 0
-1130 -1399 0
-1131 -1400 0
-1132 -1401 0
-1133 -1402 0
-1134 -1403 0
-1130 -1420 0
-1131 -1421 0
-1133 -1422 0
-1134 -1423 0
-1131 -1439 0
-1132 -1440 0
-1133 -1441 0
-1134 -1442 0
-1129 -1457 0
-1130 -1458 0
-1131 -1459 0
-1132 -1460 0
-1133 -1461 0
-1134 -1462 0
-1129 -1470 0
-1130 -1474 0
-1131 -1475 0
-1132 -1476 0
-1134 -1477 0
-1129 -1485 0
-1131 -1488 0
-1132 -1489 0
-1133 -1490 0
-1134 -1491 0
-1129 -1509 0
-1131 -1511 0
-1132 -1512 0
-1134 -1513 0
-1129 -1521 0
-1131 -1523 0
-1133 -1524 0
-1134 -1525 0
-1129 -1540 0
-1130 -1543 0
-1131 -1544 0
-1134 -1545 0
-1130 -1589 0
-1131 -1590 0
-1132 -1591 0
-1134 -1592 0
-1129 -1593 0
-1130 -1596 0
-1132 -1597 0
-1133 -1598 0
-1134 -1599 0
-1129 -1608 0
-1130 -1611 0
-1131 -1612 0
-1134 -1613 0
-1129 -1622 0
-1130 -1624 0
-1132 -1625 0
-1134 -1626 0
-1130 -1631 0
-1132 -1632 0
-1134 -1633 0
-1129 -1634 0
-1130 -1637 0
-1133 -1638 0
-1134 -1639 0
-1130 -1650 0
-1131 -1651 0
-1132 -1652 0
-1133 -1653 0
-1134 -1654 0
-1130 -1659 0
-1134 -1660 0
-1130 -1671 0
-1131 -1672 0
-1132 -1673 0
-1134 -1674 0
-1130 -1677 0
-1131 -1678 0
-1132 -1679 0
-1134 -1680 0
-1130 -1690 0
-1131 -1691 0
-1132 -1692 0
-1134 -1693 0
-1130 -1698 0
-1133 -1699 0
-1134 -1700 0
-1130 -1711 0
-1131 -1712 0
-1132 -1713 0
-1133 -1714 0
-1134 -1715 0
-1131 -1720 0
-1134 -1721 0
-1131 -1733 0
-1132 -1734 0
-1134 -1735 0
-1131 -1747 0
-1133 -1748 0
-1134 -1749 0
-1130 -1759 0
-1132 -1760 0
-1134 -1761 0
-1130 -1770 0
-1131 -1771 0
-1133 -1772 0
-1134 -1773 0
-1130 -1833 0
-1132 -1834 0
-1134 -1835 0
-1129 -1845 0
-1130 -1847 0
-1132 -1848 0
-1133 -1849 0
-1134 -1850 0
-1130 -1861 0
-1132 -1862 0
-1133 -1863 0
-1134 -1864 0
-1131 -1867 0
-1132 -1868 0
-1133 -1869 0
-1134 -1870 0
-1131 -1874 0
-1132 -1875 0
-1133 -1876 0
-1134 -1877 0
-1130 -1881 0
-1131 -1882 0
-1133 -1883 0
-1134 -1884 0
-1130 -1894 0
-1131 -1895 0
-1132 -1896 0
-1133 -1897 0
-1134 -1898 0
-1130 -1913 0
-1131 -1914 0
-1132 -1915 0
-1133 -1916 0
-1134 -1917 0
-1130 -1933 0
-1132 -1934 0
-1133 -1935 0
-1134 -1936 0
-1130 -1954 0
-1131 -1955 0
-1132 -1956 0
-1133 -1957 0
-1134 -1958 0
-1138 -1214 0
-1139 -1215 0
-1140 -1216 0
-1137 -1219 0
-1140 -1222 0
-1138 -1290 0
-1139 -1291 0
-1140 -1293 0
-1137 -1297 0
-1138 -1299 0
-1140 -1300 0
-1138 -1310 0
-1139 -1311 0
-1140 -1313 0
-1137 -1316 0
-1140 -1319 0
-1135 -1327 0
-1137 -1329 0
-1138 -1331 0
-1139 -1332 0
-1140 -1334 0
-1135 -1336 0
-1138 -1338 0
-1139 -1339 0
-1140 -1341 0
-1135 -1343 0
-1137 -1345 0
-1140 -1348 0
-1136 -1357 0
-1138 -1360 0
-1139 -1361 0
-1140 -1362 0
-1136 -1364 0
-1139 -1366 0
-1140 -1368 0
-1136 -1370 0
-1137 -1371 0
-1139 -1373 0
-1140 -1375 0
-1136 -1377 0
-1138 -1380 0
-1140 -1382 0
-1137 -1398 0
-1138 -1400 0
-1139 -1401 0
-1140 -1403 0
-1137 -1438 0
-1138 -1439 0
-1139 -1440 0
-1140 -1442 0
-1137 -1445 0
-1138 -1447 0
-1140 -1448 0
-1138 -1459 0
-1139 -1460 0
-1140 -1462 0
-1135 -1465 0
-1140 -1468 0
-1135 -1471 0
-1137 -1473 0
-1138 -1475 0
-1139 -1476 0
-1140 -1477 0
-1135 -1479 0
-1138 -1482 0
-1140 -1484 0
-1135 -1486 0
-1137 -1487 0
-1138 -1488 0
-1139 -1489 0
-1140 -1491 0
-1135 -1493 0
-1137 -1494 0
-1138 -1496 0
-1140 -1498 0
-1136 -1501 0
-1137 -1503 0
-1138 -1505 0
-1140 -1507 0
-1136 -1510 0
-1138 -1511 0
-1139 -1512 0
-1140 -1513 0
-1135 -1527 0
-1136 -1528 0
-1138 -1530 0
-1140 -1531 0
-1135 -1553 0
-1136 -1554 0
-1138 -1556 0
-1140 -1558 0
-1135 -1581 0
-1137 -1583 0
-1138 -1584 0
-1140 -1586 0
-1135 -1587 0
-1138 -1590 0
-1139 -1591 0
-1140 -1592 0
-1137 -1610 0
-1138 -1612 0
-1140 -1613 0
-1137 -1616 0
-1139 -1618 0
-1140 -1620 0
-1137 -1623 0
-1139 -1625 0
-1140 -1626 0
-1137 -1636 0
-1140 -1639 0
-1137 -1642 0
-1138 -1643 0
-1139 -1644 0
-1140 -1645 0
-1135 -1656 0
-1137 -1658 0
-1140 -1660 0
-1135 -1662 0
-1137 -1664 0
-1140 -1667 0
-1135 -1669 0
-1137 -1670 0
-1138 -1672 0
-1139 -1673 0
-1140 -1674 0
-1136 -1695 0
-1137 -1697 0
-1140 -1700 0
-1136 -1703 0
-1140 -1706 0
-1136 -1709 0
-1137 -1710 0
-1138 -1712 0
-1139 -1713 0
-1140 -1715 0
-1136 -1717 0
-1137 -1719 0
-1138 -1720 0
-1140 -1721 0
-1136 -1723 0
-1138 -1726 0
-1140 -1728 0
-1136 -1730 0
-1137 -1732 0
-1138 -1733 0
-1139 -1734 0
-1140 -1735 0
-1138 -1771 0
-1140 -1773 0
-1137 -1776 0
-1139 -1777 0
-1140 -1779 0
-1137 -1782 0
-1138 -1784 0
-1139 -1785 0
-1140 -1787 0
-1136 -1824 0
-1137 -1825 0
-1138 -1827 0
-1140 -1829 0
-1136 -1830 0
-1137 -1832 0
-1139 -1834 0
-1140 -1835 0
-1138 -1882 0
-1140 -1884 0
-1137 -1888 0
-1138 -1889 0
-1140 -1891 0
-1138 -1895 0
-1139 -1896 0
-1140 -1898 0
-1137 -1953 0
-1138 -1955 0
-1139 -1956 0
-1140 -1958 0
-1145 -1203 0
-1146 -1204 0
-1143 -1208 0
-1144 -1209 0
-1146 -1210 0
-1143 -1277 0
-1145 -1278 0
-1146 -1279 0
-1144 -1284 0
-1145 -1285 0
-1146 -1286 0
-1143 -1310 0
-1144 -1311 0
-1145 -1312 0
-1146 -1313 0
-1145 -1318 0
-1146 -1319 0
-1142 -1320 0
-1145 -1324 0
-1146 -1325 0
-1142 -1336 0
-1143 -1338 0
-1144 -1339 0
-1145 -1340 0
-1146 -1341 0
-1142 -1343 0
-1145 -1347 0
-1146 -1348 0
-1141 -1349 0
-1145 -1354 0
-1146 -1355 0
-1141 -1363 0
-1144 -1366 0
-1145 -1367 0
-1146 -1368 0
-1141 -1384 0
-1143 -1386 0
-1144 -1387 0
-1145 -1388 0
-1146 -1389 0
-1141 -1391 0
-1144 -1395 0
-1146 -1396 0
-1143 -1400 0
-1144 -1401 0
-1145 -1402 0
-1146 -1403 0
-1141 -1463 0
-1142 -1465 0
-1145 -1467 0
-1146 -1468 0
-1141 -1469 0
-1142 -1471 0
-1143 -1475 0
-1144 -1476 0
-1146 -1477 0
-1141 -1492 0
-1142 -1493 0
-1143 -1496 0
-1145 -1497 0
-1146 -1498 0
-1141 -1514 0
-1144 -1518 0
-1146 -1519 0
-1141 -1520 0
-1143 -1523 0
-1145 -1524 0
-1146 -1525 0
-1141 -1526 0
-1142 -1527 0
-1143 -1530 0
-1146 -1531 0
-1141 -1559 0
-1142 -1560 0
-1143 -1563 0
-1144 -1564 0
-1146 -1565 0
-1144 -1597 0
-1145 -1598 0
-1146 -1599 0
-1143 -1604 0
-1144 -1605 0
-1146 -1606 0
-1144 -1625 0
-1146 -1626 0
-1145 -1638 0
-1146 -1639 0
-1143 -1643 0
-1144 -1644 0
-1146 -1645 0
-1142 -1646 0
-1143 -1651 0
-1144 -1652 0
-1145 -1653 0
-1146 -1654 0
-1142 -1662 0
-1145 -1666 0
-1146 -1667 0
-1142 -1669 0
-1143 -1672 0
-1144 -1673 0
-1146 -1674 0
-1141 -1687 0
-1143 -1691 0
-1144 -1692 0
-1146 -1693 0
-1141 -1702 0
-1146 -1706 0
-1141 -1708 0
-1143 -1712 0
-1144 -1713 0
-1145 -1714 0
-1146 -1715 0
-1141 -1716 0
-1143 -1720 0
-1146 -1721 0
-1141 -1737 0
-1144 -1741 0
-1146 -1742 0
-1141 -1744 0
-1143 -1747 0
-1145 -1748 0
-1146 -1749 0
-1144 -1760 0
-1146 -1761 0
-1143 -1764 0
-1144 -1765 0
-1145 -1766 0
-1146 -1767 0
-1143 -1784 0
-1144 -1785 0
-1145 -1786 0
-1146 -1787 0
-1143 -1827 0
-1145 -1828 0
-1146 -1829 0
-1144 -1834 0
-1146 -1835 0
-1143 -1839 0
-1144 -1840 0
-1145 -1841 0
-1146 -1842 0
-1141 -1844 0
-1144 -1848 0
-1145 -1849 0
-1146 -1850 0
-1141 -1851 0
-1143 -1854 0
-1144 -1855 0
-1145 -1856 0
-1146 -1857 0
-1141 -1865 0
-1142 -1866 0
-1143 -1867 0
-1144 -1868 0
-1145 -1869 0
-1146 -1870 0
-1141 -1871 0
-1143 -1874 0
-1144 -1875 0
-1145 -1876 0
-1146 -1877 0
-1141 -1879 0
-1143 -1882 0
-1145 -1883 0
-1146 -1884 0
-1144 -1934 0
-1145 -1935 0
-1146 -1936 0
-1143 -1939 0
-1144 -1940 0
-1145 -1941 0
-1146 -1942 0
-1147 -1193 0
-1150 -1197 0
-1153 -1198 0
-1147 -1205 0
-1150 -1207 0
-1151 -1208 0
-1152 -1209 0
-1153 -1210 0
-1147 -1217 0
-1149 -1219 0
-1150 -1220 0
-1153 -1222 0
-1147 -1267 0
-1150 -1269 0
-1152 -1270 0
-1153 -1272 0
-1150 -1283 0
-1152 -1284 0
-1153 -1286 0
-1149 -1297 0
-1150 -1298 0
-1151 -1299 0
-1153 -1300 0
-1150 -1309 0
-1151 -1310 0
-1152 -1311 0
-1153 -1313 0
-1148 -1320 0
-1150 -1323 0
-1153 -1325 0
-1148 -1327 0
-1149 -1329 0
-1150 -1330 0
-1151 -1331 0
-1152 -1332 0
-1153 -1334 0
-1147 -1342 0
-1148 -1343 0
-1149 -1345 0
-1150 -1346 0
-1153 -1348 0
-1149 -1352 0
-1150 -1353 0
-1153 -1355 0
-1150 -1359 0
-1151 -1360 0
-1152 -1361 0
-1153 -1362 0
-1147 -1369 0
-1149 -1371 0
-1150 -1372 0
-1152 -1373 0
-1153 -1375 0
-1147 -1383 0
-1150 -1385 0
-1151 -1386 0
-1152 -1387 0
-1153 -1389 0
-1149 -1398 0
-1150 -1399 0
-1151 -1400 0
-1152 -1401 0
-1153 -1403 0
-1149 -1432 0
-1150 -1433 0
-1151 -1434 0
-1153 -1436 0
-1147 -1443 0
-1149 -1445 0
-1150 -1446 0
-1151 -1447 0
-1153 -1448 0
-1150 -1458 0
-1151 -1459 0
-1152 -1460 0
-1153 -1462 0
-1148 -1471 0
-1149 -1473 0
-1150 -1474 0
-1151 -1475 0
-1152 -1476 0
-1153 -1477 0
-1148 -1479 0
-1150 -1481 0
-1151 -1482 0
-1153 -1484 0
-1148 -1493 0
-1149 -1494 0
-1150 -1495 0
-1151 -1496 0
-1153 -1498 0
-1149 -1503 0
-1150 -1504 0
-1151 -1505 0
-1153 -1507 0
-1150 -1517 0
-1152 -1518 0
-1153 -1519 0
-1148 -1527 0
-1150 -1529 0
-1151 -1530 0
-1153 -1531 0
-1147 -1566 0
-1148 -1568 0
-1150 -1570 0
-1151 -1571 0
-1152 -1572 0
-1153 -1574 0
-1148 -1581 0
-1149 -1583 0
-1151 -1584 0
-1153 -1586 0
-1149 -1602 0
-1150 -1603 0
-1151 -1604 0
-1152 -1605 0
-1153 -1606 0
-1149 -1616 0
-1150 -1617 0
-1152 -1618 0
-1153 -1620 0
-1149 -1636 0
-1150 -1637 0
-1153 -1639 0
-1148 -1646 0
-1149 -1649 0
-1150 -1650 0
-1151 -1651 0
-1152 -1652 0
-1153 -1654 0
-1148 -1656 0
-1149 -1658 0
-1150 -1659 0
-1153 -1660 0
-1147 -1668 0
-1148 -1669 0
-1149 -1670 0
-1150 -1671 0
-1151 -1672 0
-1152 -1673 0
-1153 -1674 0
-1150 -1690 0
-1151 -1691 0
-1152 -1692 0
-1153 -1693 0
-1149 -1697 0
-1150 -1698 0
-1153 -1700 0
-1147 -1707 0
-1149 -1710 0
-1150 -1711 0
-1151 -1712 0
-1152 -1713 0
-1153 -1715 0
-1147 -1722 0
-1150 -1725 0
-1151 -1726 0
-1153 -1728 0
-1147 -1736 0
-1149 -1739 0
-1150 -1740 0
-1152 -1741 0
-1153 -1742 0
-1147 -1750 0
-1149 -1752 0
-1150 -1753 0
-1151 -1754 0
-1153 -1755 0
-1151 -1764 0
-1152 -1765 0
-1153 -1767 0
-1149 -1776 0
-1152 -1777 0
-1153 -1779 0
-1148 -1788 0
-1149 -1789 0
-1150 -1790 0
-1152 -1791 0
-1153 -1793 0
-1149 -1832 0
-1150 -1833 0
-1152 -1834 0
-1153 -1835 0
-1149 -1837 0
-1150 -1838 0
-1151 -1839 0
-1152 -1840 0
-1153 -1842 0
-1151 -1854 0
-1152 -1855 0
-1153 -1857 0
-1148 -1866 0
-1151 -1867 0
-1152 -1868 0
-1153 -1870 0
-1149 -1873 0
-1151 -1874 0
-1152 -1875 0
-1153 -1877 0
-1147 -1885 0
-1149 -1888 0
-1151 -1889 0
-1153 -1891 0
-1149 -1927 0
-1152 -1928 0
-1153 -1930 0
-1147 -1937 0
-1149 -1938 0
-1151 -1939 0
-1152 -1940 0
-1153 -1942 0
-1154 -1193 0
-1156 -1196 0
-1160 -1198 0
-1154 -1199 0
-1156 -1201 0
-1159 -1203 0
-1160 -1204 0
-1154 -1211 0
-1156 -1213 0
-1157 -1214 0
-1158 -1215 0
-1160 -1216 0
-1154 -1261 0
-1156 -1262 0
-1157 -1265 0
-1160 -1266 0
-1156 -1275 0
-1157 -1277 0
-1159 -1278 0
-1160 -1279 0
-1156 -1289 0
-1157 -1290 0
-1158 -1291 0
-1159 -1292 0
-1160 -1293 0
-1156 -1315 0
-1159 -1318 0
-1160 -1319 0
-1155 -1320 0
-1156 -1322 0
-1159 -1324 0
-1160 -1325 0
-1155 -1327 0
-1156 -1328 0
-1157 -1331 0
-1158 -1332 0
-1159 -1333 0
-1160 -1334 0
-1154 -1335 0
-1155 -1336 0
-1156 -1337 0
-1157 -1338 0
-1158 -1339 0
-1159 -1340 0
-1160 -1341 0
-1156 -1351 0
-1159 -1354 0
-1160 -1355 0
-1156 -1358 0
-1157 -1360 0
-1158 -1361 0
-1160 -1362 0
-1154 -1376 0
-1156 -1378 0
-1157 -1380 0
-1159 -1381 0
-1160 -1382 0
-1154 -1390 0
-1156 -1392 0
-1158 -1395 0
-1160 -1396 0
-1157 -1434 0
-1159 -1435 0
-1160 -1436 0
-1154 -1437 0
-1157 -1439 0
-1158 -1440 0
-1159 -1441 0
-1160 -1442 0
-1157 -1459 0
-1158 -1460 0
-1159 -1461 0
-1160 -1462 0
-1155 -1465 0
-1159 -1467 0
-1160 -1468 0
-1155 -1486 0
-1157 -1488 0
-1158 -1489 0
-1159 -1490 0
-1160 -1491 0
-1155 -1493 0
-1157 -1496 0
-1159 -1497 0
-1160 -1498 0
-1157 -1511 0
-1158 -1512 0
-1160 -1513 0
-1157 -1523 0
-1159 -1524 0
-1160 -1525 0
-1155 -1527 0
-1157 -1530 0
-1160 -1531 0
-1154 -1575 0
-1155 -1577 0
-1157 -1579 0
-1160 -1580 0
-1155 -1587 0
-1156 -1588 0
-1157 -1590 0
-1158 -1591 0
-1160 -1592 0
-1156 -1595 0
-1158 -1597 0
-1159 -1598 0
-1160 -1599 0
-1156 -1609 0
-1157 -1612 0
-1160 -1613 0
-1156 -1641 0
-1157 -1643 0
-1158 -1644 0
-1160 -1645 0
-1155 -1646 0
-1156 -1648 0
-1157 -1651 0
-1158 -1652 0
-1159 -1653 0
-1160 -1654 0
-1155 -1656 0
-1156 -1657 0
-1160 -1660 0
-1154 -1661 0
-1155 -1662 0
-1156 -1663 0
-1159 -1666 0
-1160 -1667 0
-1156 -1689 0
-1157 -1691 0
-1158 -1692 0
-1160 -1693 0
-1156 -1696 0
-1159 -1699 0
-1160 -1700 0
-1154 -1701 0
-1156 -1704 0
-1160 -1706 0
-1154 -1729 0
-1156 -1731 0
-1157 -1733 0
-1158 -1734 0
-1160 -1735 0
-1154 -1743 0
-1156 -1745 0
-1157 -1747 0
-1159 -1748 0
-1160 -1749 0
-1154 -1750 0
-1156 -1751 0
-1157 -1754 0
-1160 -1755 0
-1156 -1757 0
-1158 -1760 0
-1160 -1761 0
-1156 -1769 0
-1157 -1771 0
-1159 -1772 0
-1160 -1773 0
-1156 -1781 0
-1157 -1784 0
-1158 -1785 0
-1159 -1786 0
-1160 -1787 0
-1155 -1794 0
-1156 -1795 0
-1157 -1797 0
-1159 -1798 0
-1160 -1799 0
-1157 -1827 0
-1159 -1828 0
-1160 -1829 0
-1158 -1848 0
-1159 -1849 0
-1160 -1850 0
-1155 -1866 0
-1157 -1867 0
-1158 -1868 0
-1159 -1869 0
-1160 -1870 0
-1157 -1874 0
-1158 -1875 0
-1159 -1876 0
-1160 -1877 0
-1154 -1892 0
-1157 -1895 0
-1158 -1896 0
-1159 -1897 0
-1160 -1898 0
-1156 -1926 0
-1158 -1928 0
-1159 -1929 0
-1160 -1930 0
-1154 -1931 0
-1156 -1932 0
-1158 -1934 0
-1159 -1935 0
-1160 -1936 0
-1156 -1952 0
-1157 -1955 0
-1158 -1956 0
-1159 -1957 0
-1160 -1958 0
-1163 -1183 0
-1164 -1184 0
-1166 -1185 0
-1162 -1189 0
-1165 -1190 0
-1166 -1192 0
-1162 -1275 0
-1164 -1277 0
-1166 -1279 0
-1162 -1282 0
-1163 -1283 0
-1165 -1284 0
-1166 -1286 0
-1162 -1289 0
-1164 -1290 0
-1165 -1291 0
-1166 -1293 0
-1162 -1296 0
-1163 -1298 0
-1164 -1299 0
-1166 -1300 0
-1161 -1302 0
-1162 -1304 0
-1164 -1305 0
-1166 -1307 0
-1161 -1336 0
-1162 -1337 0
-1164 -1338 0
-1165 -1339 0
-1166 -1341 0
-1161 -1343 0
-1162 -1344 0
-1163 -1346 0
-1166 -1348 0
-1162 -1351 0
-1163 -1353 0
-1166 -1355 0
-1162 -1358 0
-1163 -1359 0
-1164 -1360 0
-1165 -1361 0
-1166 -1362 0
-1163 -1372 0
-1165 -1373 0
-1166 -1375 0
-1162 -1378 0
-1163 -1379 0
-1164 -1380 0
-1166 -1382 0
-1163 -1385 0
-1164 -1386 0
-1165 -1387 0
-1166 -1389 0
-1162 -1392 0
-1163 -1394 0
-1165 -1395 0
-1166 -1396 0
-1162 -1419 0
-1163 -1420 0
-1164 -1421 0
-1166 -1423 0
-1162 -1426 0
-1164 -1428 0
-1165 -1429 0
-1166 -1430 0
-1161 -1479 0
-1162 -1480 0
-1163 -1481 0
-1164 -1482 0
-1166 -1484 0
-1161 -1486 0
-1164 -1488 0
-1165 -1489 0
-1166 -1491 0
-1161 -1493 0
-1163 -1495 0
-1164 -1496 0
-1166 -1498 0
-1162 -1534 0
-1164 -1535 0
-1165 -1536 0
-1166 -1538 0
-1162 -1541 0
-1163 -1543 0
-1164 -1544 0
-1166 -1545 0
-1161 -1553 0
-1162 -1555 0
-1164 -1556 0
-1166 -1558 0
-1161 -1560 0
-1162 -1561 0
-1164 -1563 0
-1165 -1564 0
-1166 -1565 0
-1161 -1581 0
-1162 -1582 0
-1164 -1584 0
-1166 -1586 0
-1161 -1587 0
-1162 -1588 0
-1163 -1589 0
-1164 -1590 0
-1165 -1591 0
-1166 -1592 0
-1162 -1595 0
-1163 -1596 0
-1165 -1597 0
-1166 -1599 0
-1163 -1603 0
-1164 -1604 0
-1165 -1605 0
-1166 -1606 0
-1162 -1609 0
-1163 -1611 0
-1164 -1612 0
-1166 -1613 0
-1163 -1617 0
-1165 -1618 0
-1166 -1620 0
-1161 -1628 0
-1163 -1631 0
-1165 -1632 0
-1166 -1633 0
-1161 -1662 0
-1162 -1663 0
-1163 -1665 0
-1166 -1667 0
-1161 -1669 0
-1163 -1671 0
-1164 -1672 0
-1165 -1673 0
-1166 -1674 0
-1161 -1675 0
-1162 -1676 0
-1163 -1677 0
-1164 -1678 0
-1165 -1679 0
-1166 -1680 0
-1161 -1681 0
-1163 -1683 0
-1165 -1684 0
-1166 -1686 0
-1162 -1689 0
-1163 -1690 0
-1164 -1691 0
-1165 -1692 0
-1166 -1693 0
-1162 -1696 0
-1163 -1698 0
-1166 -1700 0
-1162 -1724 0
-1163 -1725 0
-1164 -1726 0
-1166 -1728 0
-1162 -1731 0
-1164 -1733 0
-1165 -1734 0
-1166 -1735 0
-1162 -1738 0
-1163 -1740 0
-1165 -1741 0
-1166 -1742 0
-1162 -1745 0
-1164 -1747 0
-1166 -1749 0
-1162 -1757 0
-1163 -1759 0
-1165 -1760 0
-1166 -1761 0
-1162 -1763 0
-1164 -1764 0
-1165 -1765 0
-1166 -1767 0
-1162 -1769 0
-1163 -1770 0
-1164 -1771 0
-1166 -1773 0
-1162 -1775 0
-1165 -1777 0
-1166 -1779 0
-1162 -1836 0
-1163 -1838 0
-1164 -1839 0
-1165 -1840 0
-1166 -1842 0
-1163 -1847 0
-1165 -1848 0
-1166 -1850 0
-1162 -1853 0
-1164 -1854 0
-1165 -1855 0
-1166 -1857 0
-1161 -1859 0
-1162 -1860 0
-1163 -1861 0
-1165 -1862 0
-1166 -1864 0
-1164 -1874 0
-1165 -1875 0
-1166 -1877 0
-1162 -1887 0
-1164 -1889 0
-1166 -1891 0
-1163 -1894 0
-1164 -1895 0
-1165 -1896 0
-1166 -1898 0
-1163 -1913 0
-1164 -1914 0
-1165 -1915 0
-1166 -1917 0
-1162 -1920 0
-1163 -1922 0
-1165 -1923 0
-1166 -1924 0
-1162 -1952 0
-1163 -1954 0
-1164 -1955 0
-1165 -1956 0
-1166 -1958 0
-1168 -1287 0
-1171 -1291 0
-1172 -1293 0
-1168 -1294 0
-1170 -1297 0
-1172 -1300 0
-1171 -1311 0
-1172 -1313 0
-1170 -1316 0
-1172 -1319 0
-1168 -1326 0
-1170 -1329 0
-1171 -1332 0
-1172 -1334 0
-1167 -1335 0
-1171 -1339 0
-1172 -1341 0
-1167 -1342 0
-1170 -1345 0
-1172 -1348 0
-1167 -1383 0
-1168 -1384 0
-1171 -1387 0
-1172 -1389 0
-1167 -1390 0
-1168 -1391 0
-1170 -1393 0
-1171 -1395 0
-1172 -1396 0
-1170 -1398 0
-1171 -1401 0
-1172 -1403 0
-1167 -1437 0
-1170 -1438 0
-1171 -1440 0
-1172 -1442 0
-1167 -1443 0
-1170 -1445 0
-1172 -1448 0
-1170 -1451 0
-1171 -1454 0
-1172 -1456 0
-1171 -1460 0
-1172 -1462 0
-1168 -1463 0
-1172 -1468 0
-1168 -1469 0
-1170 -1473 0
-1171 -1476 0
-1172 -1477 0
-1172 -1484 0
-1170 -1487 0
-1171 -1489 0
-1172 -1491 0
-1168 -1492 0
-1170 -1494 0
-1172 -1498 0
-1168 -1514 0
-1171 -1518 0
-1172 -1519 0
-1168 -1520 0
-1170 -1522 0
-1172 -1525 0
-1168 -1532 0
-1171 -1536 0
-1172 -1538 0
-1168 -1539 0
-1170 -1542 0
-1172 -1545 0
-1167 -1546 0
-1172 -1551 0
-1168 -1559 0
-1170 -1562 0
-1171 -1564 0
-1172 -1565 0
-1167 -1566 0
-1168 -1567 0
-1171 -1572 0
-1172 -1574 0
-1167 -1575 0
-1168 -1576 0
-1170 -1578 0
-1172 -1580 0
-1170 -1583 0
-1172 -1586 0
-1171 -1591 0
-1172 -1592 0
-1168 -1607 0
-1170 -1610 0
-1172 -1613 0
-1168 -1614 0
-1170 -1616 0
-1171 -1618 0
-1172 -1620 0
-1167 -1621 0
-1170 -1623 0
-1171 -1625 0
-1172 -1626 0
-1170 -1636 0
-1172 -1639 0
-1170 -1642 0
-1171 -1644 0
-1172 -1645 0
-1168 -1655 0
-1170 -1658 0
-1172 -1660 0
-1167 -1661 0
-1170 -1664 0
-1172 -1667 0
-1167 -1668 0
-1170 -1670 0
-1171 -1673 0
-1172 -1674 0
-1171 -1679 0
-1172 -1680 0
-1170 -1682 0
-1171 -1684 0
-1172 -1686 0
-1167 -1736 0
-1168 -1737 0
-1170 -1739 0
-1171 -1741 0
-1172 -1742 0
-1167 -1743 0
-1168 -1744 0
-1170 -1746 0
-1172 -1749 0
-1167 -1750 0
-1170 -1752 0
-1172 -1755 0
-1168 -1768 0
-1172 -1773 0
-1168 -1774 0
-1170 -1776 0
-1171 -1777 0
-1172 -1779 0
-1170 -1782 0
-1171 -1785 0
-1172 -1787 0
-1169 -1800 0
-1171 -1803 0
-1172 -1805 0
-1169 -1806 0
-1170 -1807 0
-1172 -1811 0
-1169 -1824 0
-1170 -1825 0
-1172 -1829 0
-1169 -1830 0
-1170 -1832 0
-1171 -1834 0
-1172 -1835 0
-1170 -1953 0
-1171 -1956 0
-1172 -1958 0
-1175 -1274 0
-1176 -1277 0
-1177 -1278 0
-1178 -1279 0
-1175 -1281 0
-1177 -1285 0
-1178 -1286 0
-1176 -1310 0
-1177 -1312 0
-1178 -1313 0
-1177 -1318 0
-1178 -1319 0
-1175 -1321 0
-1177 -1324 0
-1178 -1325 0
-1173 -1335 0
-1176 -1338 0
-1177 -1340 0
-1178 -1341 0
-1173 -1342 0
-1177 -1347 0
-1178 -1348 0
-1173 -1369 0
-1175 -1370 0
-1177 -1374 0
-1178 -1375 0
-1173 -1376 0
-1175 -1377 0
-1176 -1380 0
-1177 -1381 0
-1178 -1382 0
-1176 -1400 0
-1177 -1402 0
-1178 -1403 0
-1174 -1463 0
-1177 -1467 0
-1178 -1468 0
-1174 -1469 0
-1176 -1475 0
-1178 -1477 0
-1174 -1492 0
-1176 -1496 0
-1177 -1497 0
-1178 -1498 0
-1174 -1499 0
-1175 -1501 0
-1176 -1505 0
-1177 -1506 0
-1178 -1507 0
-1174 -1508 0
-1175 -1510 0
-1176 -1511 0
-1178 -1513 0
-1174 -1532 0
-1176 -1535 0
-1177 -1537 0
-1178 -1538 0
-1174 -1539 0
-1176 -1544 0
-1178 -1545 0
-1174 -1552 0
-1175 -1554 0
-1176 -1556 0
-1177 -1557 0
-1178 -1558 0
-1173 -1566 0
-1174 -1567 0
-1176 -1571 0
-1177 -1573 0
-1178 -1574 0
-1173 -1575 0
-1174 -1576 0
-1176 -1579 0
-1178 -1580 0
-1175 -1594 0
-1177 -1598 0
-1178 -1599 0
-1175 -1601 0
-1176 -1604 0
-1178 -1606 0
-1173 -1621 0
-1178 -1626 0
-1177 -1638 0
-1178 -1639 0
-1176 -1643 0
-1178 -1645 0
-1175 -1647 0
-1176 -1651 0
-1177 -1653 0
-1178 -1654 0
-1173 -1661 0
-1177 -1666 0
-1178 -1667 0
-1173 -1668 0
-1176 -1672 0
-1178 -1674 0
-1176 -1678 0
-1178 -1680 0
-1177 -1685 0
-1178 -1686 0
-1173 -1722 0
-1175 -1723 0
-1176 -1726 0
-1177 -1727 0
-1178 -1728 0
-1173 -1729 0
-1175 -1730 0
-1176 -1733 0
-1178 -1735 0
-1173 -1750 0
-1176 -1754 0
-1178 -1755 0
-1175 -1756 0
-1178 -1761 0
-1175 -1762 0
-1176 -1764 0
-1177 -1766 0
-1178 -1767 0
-1176 -1784 0
-1177 -1786 0
-1178 -1787 0
-1174 -1812 0
-1177 -1816 0
-1178 -1817 0
-1174 -1818 0
-1176 -1821 0
-1178 -1823 0
-1175 -1824 0
-1176 -1827 0
-1177 -1828 0
-1178 -1829 0
-1175 -1830 0
-1178 -1835 0
-1176 -1839 0
-1177 -1841 0
-1178 -1842 0
-1174 -1844 0
-1177 -1849 0
-1178 -1850 0
-1174 -1851 0
-1176 -1854 0
-1177 -1856 0
-1178 -1857 0
-1174 -1865 0
-1176 -1867 0
-1177 -1869 0
-1178 -1870 0
-1173 -1885 0
-1174 -1886 0
-1176 -1889 0
-1177 -1890 0
-1178 -1891 0
-1173 -1892 0
-1174 -1893 0
-1176 -1895 0
-1177 -1897 0
-1178 -1898 0
-1173 -1931 0
-1177 -1935 0
-1178 -1936 0
-1173 -1937 0
-1176 -1939 0
-1177 -1941 0
-1178 -1942 0
-1176 -1946 0
-1177 -1948 0
-1178 -1949 0
-1179 -1267 0
-1183 -1269 0
-1185 -1272 0
-1181 -1281 0
-1183 -1283 0
-1185 -1286 0
-1180 -1294 0
-1182 -1297 0
-1183 -1298 0
-1184 -1299 0
-1185 -1300 0
-1183 -1309 0
-1184 -1310 0
-1185 -1313 0
-1181 -1321 0
-1183 -1323 0
-1185 -1325 0
-1180 -1326 0
-1182 -1329 0
-1183 -1330 0
-1184 -1331 0
-1185 -1334 0
-1179 -1342 0
-1182 -1345 0
-1183 -1346 0
-1185 -1348 0
-1180 -1363 0
-1181 -1364 0
-1183 -1365 0
-1185 -1368 0
-1179 -1376 0
-1181 -1377 0
-1183 -1379 0
-1184 -1380 0
-1185 -1382 0
-1179 -1390 0
-1180 -1391 0
-1182 -1393 0
-1183 -1394 0
-1185 -1396 0
-1182 -1398 0
-1183 -1399 0
-1184 -1400 0
-1185 -1403 0
-1181 -1431 0
-1182 -1432 0
-1183 -1433 0
-1184 -1434 0
-1185 -1436 0
-1179 -1443 0
-1182 -1445 0
-1183 -1446 0
-1184 -1447 0
-1185 -1448 0
-1182 -1451 0
-1183 -1452 0
-1184 -1453 0
-1185 -1456 0
-1183 -1458 0
-1184 -1459 0
-1185 -1462 0
-1180 -1469 0
-1182 -1473 0
-1183 -1474 0
-1184 -1475 0
-1185 -1477 0
-1183 -1481 0
-1184 -1482 0
-1185 -1484 0
-1180 -1492 0
-1182 -1494 0
-1183 -1495 0
-1184 -1496 0
-1185 -1498 0
-1180 -1508 0
-1181 -1510 0
-1184 -1511 0
-1185 -1513 0
-1180 -1520 0
-1182 -1522 0
-1184 -1523 0
-1185 -1525 0
-1180 -1532 0
-1184 -1535 0
-1185 -1538 0
-1179 -1546 0
-1184 -1549 0
-1185 -1551 0
-1180 -1552 0
-1181 -1554 0
-1184 -1556 0
-1185 -1558 0
-1180 -1559 0
-1182 -1562 0
-1184 -1563 0
-1185 -1565 0
-1179 -1575 0
-1180 -1576 0
-1182 -1578 0
-1184 -1579 0
-1185 -1580 0
-1182 -1583 0
-1184 -1584 0
-1185 -1586 0
-1181 -1601 0
-1182 -1602 0
-1183 -1603 0
-1184 -1604 0
-1185 -1606 0
-1180 -1614 0
-1182 -1616 0
-1183 -1617 0
-1185 -1620 0
-1182 -1636 0
-1183 -1637 0
-1185 -1639 0
-1181 -1647 0
-1182 -1649 0
-1183 -1650 0
-1184 -1651 0
-1185 -1654 0
-1180 -1655 0
-1182 -1658 0
-1183 -1659 0
-1185 -1660 0
-1179 -1668 0
-1182 -1670 0
-1183 -1671 0
-1184 -1672 0
-1185 -1674 0
-1182 -1682 0
-1183 -1683 0
-1185 -1686 0
-1180 -1716 0
-1181 -1717 0
-1182 -1719 0
-1184 -1720 0
-1185 -1721 0
-1179 -1729 0
-1181 -1730 0
-1182 -1732 0
-1184 -1733 0
-1185 -1735 0
-1179 -1743 0
-1180 -1744 0
-1182 -1746 0
-1184 -1747 0
-1185 -1749 0
-1181 -1762 0
-1184 -1764 0
-1185 -1767 0
-1180 -1774 0
-1182 -1776 0
-1185 -1779 0
-1182 -1789 0
-1183 -1790 0
-1185 -1793 0
-1181 -1800 0
-1184 -1802 0
-1185 -1805 0
-1180 -1812 0
-1182 -1814 0
-1185 -1817 0
-1181 -1830 0
-1182 -1832 0
-1183 -1833 0
-1185 -1835 0
-1182 -1837 0
-1183 -1838 0
-1184 -1839 0
-1185 -1842 0
-1180 -1851 0
-1184 -1854 0
-1185 -1857 0
-1180 -1865 0
-1184 -1867 0
-1185 -1870 0
-1180 -1879 0
-1183 -1881 0
-1184 -1882 0
-1185 -1884 0
-1179 -1892 0
-1180 -1893 0
-1183 -1894 0
-1184 -1895 0
-1185 -1898 0
-1180 -1925 0
-1182 -1927 0
-1185 -1930 0
-1179 -1937 0
-1182 -1938 0
-1184 -1939 0
-1185 -1942 0
-1186 -1261 0
-1189 -1262 0
-1192 -1266 0
-1188 -1274 0
-1189 -1275 0
-1191 -1278 0
-1192 -1279 0
-1187 -1287 0
-1189 -1289 0
-1190 -1291 0
-1191 -1292 0
-1192 -1293 0
-1189 -1315 0
-1191 -1318 0
-1192 -1319 0
-1188 -1321 0
-1189 -1322 0
-1191 -1324 0
-1192 -1325 0
-1187 -1326 0
-1189 -1328 0
-1190 -1332 0
-1191 -1333 0
-1192 -1334 0
-1186 -1335 0
-1189 -1337 0
-1190 -1339 0
-1191 -1340 0
-1192 -1341 0
-1187 -1363 0
-1188 -1364 0
-1190 -1366 0
-1191 -1367 0
-1192 -1368 0
-1186 -1369 0
-1188 -1370 0
-1190 -1373 0
-1191 -1374 0
-1192 -1375 0
-1186 -1383 0
-1187 -1384 0
-1190 -1387 0
-1191 -1388 0
-1192 -1389 0
-1188 -1431 0
-1191 -1435 0
-1192 -1436 0
-1186 -1437 0
-1190 -1440 0
-1191 -1441 0
-1192 -1442 0
-1190 -1460 0
-1191 -1461 0
-1192 -1462 0
-1187 -1463 0
-1191 -1467 0
-1192 -1468 0
-1190 -1489 0
-1191 -1490 0
-1192 -1491 0
-1187 -1492 0
-1191 -1497 0
-1192 -1498 0
-1187 -1499 0
-1188 -1501 0
-1189 -1502 0
-1191 -1506 0
-1192 -1507 0
-1187 -1514 0
-1189 -1516 0
-1190 -1518 0
-1192 -1519 0
-1187 -1539 0
-1189 -1541 0
-1192 -1545 0
-1186 -1546 0
-1189 -1548 0
-1191 -1550 0
-1192 -1551 0
-1187 -1552 0
-1188 -1554 0
-1189 -1555 0
-1191 -1557 0
-1192 -1558 0
-1187 -1559 0
-1189 -1561 0
-1190 -1564 0
-1192 -1565 0
-1186 -1566 0
-1187 -1567 0
-1189 -1569 0
-1190 -1572 0
-1191 -1573 0
-1192 -1574 0
-1189 -1588 0
-1190 -1591 0
-1192 -1592 0
-1188 -1594 0
-1189 -1595 0
-1190 -1597 0
-1191 -1598 0
-1192 -1599 0
-1187 -1607 0
-1189 -1609 0
-1192 -1613 0
-1189 -1641 0
-1190 -1644 0
-1192 -1645 0
-1188 -1647 0
-1189 -1648 0
-1190 -1652 0
-1191 -1653 0
-1192 -1654 0
-1187 -1655 0
-1189 -1657 0
-1192 -1660 0
-1186 -1661 0
-1189 -1663 0
-1191 -1666 0
-1192 -1667 0
-1189 -1676 0
-1190 -1679 0
-1192 -1680 0
-1187 -1716 0
-1188 -1717 0
-1189 -1718 0
-1192 -1721 0
-1186 -1722 0
-1188 -1723 0
-1189 -1724 0
-1191 -1727 0
-1192 -1728 0
-1186 -1736 0
-1187 -1737 0
-1189 -1738 0
-1190 -1741 0
-1192 -1742 0
-1188 -1756 0
-1189 -1757 0
-1190 -1760 0
-1192 -1761 0
-1187 -1768 0
-1189 -1769 0
-1191 -1772 0
-1192 -1773 0
-1189 -1781 0
-1190 -1785 0
-1191 -1786 0
-1192 -1787 0
-1189 -1795 0
-1191 -1798 0
-1192 -1799 0
-1188 -1806 0
-1191 -1810 0
-1192 -1811 0
-1187 -1818 0
-1190 -1822 0
-1192 -1823 0
-1188 -1824 0
-1191 -1828 0
-1192 -1829 0
-1187 -1844 0
-1190 -1848 0
-1191 -1849 0
-1192 -1850 0
-1187 -1865 0
-1190 -1868 0
-1191 -1869 0
-1192 -1870 0
-1187 -1879 0
-1189 -1880 0
-1191 -1883 0
-1192 -1884 0
-1186 -1885 0
-1187 -1886 0
-1189 -1887 0
-1191 -1890 0
-1192 -1891 0
-1187 -1925 0
-1189 -1926 0
-1190 -1928 0
-1191 -1929 0
-1192 -1930 0
-1186 -1931 0
-1189 -1932 0
-1190 -1934 0
-1191 -1935 0
-1192 -1936 0
-1189 -1943 0
-1190 -1947 0
-1191 -1948 0
-1192 -1949 0
-1189 -1952 0
-1190 -1956 0
-1191 -1957 0
-1192 -1958 0
-1195 -1274 0
-1196 -1275 0
-1198 -1279 0
-1195 -1281 0
-1196 -1282 0
-1197 -1283 0
-1198 -1286 0
-1194 -1287 0
-1196 -1289 0
-1198 -1293 0
-1194 -1294 0
-1196 -1296 0
-1197 -1298 0
-1198 -1300 0
-1194 -1301 0
-1195 -1303 0
-1196 -1304 0
-1198 -1307 0
-1193 -1335 0
-1196 -1337 0
-1198 -1341 0
-1193 -1342 0
-1196 -1344 0
-1197 -1346 0
-1198 -1348 0
-1193 -1417 0
-1195 -1418 0
-1196 -1419 0
-1197 -1420 0
-1198 -1423 0
-1193 -1424 0
-1195 -1425 0
-1196 -1426 0
-1198 -1430 0
-1196 -1450 0
-1197 -1452 0
-1198 -1456 0
-1196 -1480 0
-1197 -1481 0
-1198 -1484 0
-1198 -1491 0
-1194 -1492 0
-1197 -1495 0
-1198 -1498 0
-1194 -1499 0
-1195 -1501 0
-1196 -1502 0
-1197 -1504 0
-1198 -1507 0
-1194 -1508 0
-1195 -1510 0
-1198 -1513 0
-1194 -1514 0
-1196 -1516 0
-1197 -1517 0
-1198 -1519 0
-1194 -1520 0
-1198 -1525 0
-1194 -1526 0
-1195 -1528 0
-1197 -1529 0
-1198 -1531 0
-1193 -1546 0
-1196 -1548 0
-1198 -1551 0
-1193 -1566 0
-1194 -1567 0
-1196 -1569 0
-1197 -1570 0
-1198 -1574 0
-1193 -1575 0
-1194 -1576 0
-1198 -1580 0
-1196 -1582 0
-1198 -1586 0
-1196 -1588 0
-1197 -1589 0
-1198 -1592 0
-1195 -1594 0
-1196 -1595 0
-1197 -1596 0
-1198 -1599 0
-1195 -1601 0
-1197 -1603 0
-1198 -1606 0
-1194 -1607 0
-1196 -1609 0
-1197 -1611 0
-1198 -1613 0
-1194 -1614 0
-1197 -1617 0
-1198 -1620 0
-1194 -1627 0
-1195 -1629 0
-1197 -1631 0
-1198 -1633 0
-1193 -1661 0
-1196 -1663 0
-1197 -1665 0
-1198 -1667 0
-1193 -1668 0
-1197 -1671 0
-1198 -1674 0
-1193 -1701 0
-1194 -1702 0
-1195 -1703 0
-1196 -1704 0
-1197 -1705 0
-1198 -1706 0
-1193 -1707 0
-1194 -1708 0
-1195 -1709 0
-1197 -1711 0
-1198 -1715 0
-1193 -1750 0
-1196 -1751 0
-1197 -1753 0
-1198 -1755 0
-1195 -1756 0
-1196 -1757 0
-1197 -1759 0
-1198 -1761 0
-1195 -1762 0
-1196 -1763 0
-1198 -1767 0
-1194 -1768 0
-1196 -1769 0
-1197 -1770 0
-1198 -1773 0
-1194 -1774 0
-1196 -1775 0
-1198 -1779 0
-1195 -1800 0
-1196 -1801 0
-1198 -1805 0
-1195 -1806 0
-1197 -1808 0
-1198 -1811 0
-1194 -1812 0
-1196 -1813 0
-1198 -1817 0
-1194 -1818 0
-1197 -1820 0
-1198 -1823 0
-1196 -1836 0
-1197 -1838 0
-1198 -1842 0
-1194 -1844 0
-1197 -1847 0
-1198 -1850 0
-1194 -1851 0
-1196 -1853 0
-1198 -1857 0
-1194 -1858 0
-1196 -1860 0
-1197 -1861 0
-1198 -1864 0
-1193 -1911 0
-1194 -1912 0
-1197 -1913 0
-1198 -1917 0
-1193 -1918 0
-1194 -1919 0
-1196 -1920 0
-1197 -1922 0
-1198 -1924 0
-1196 -1943 0
-1197 -1945 0
-1198 -1949 0
-1196 -1952 0
-1197 -1954 0
-1198 -1958 0
-1199 -1254 0
-1203 -1259 0
-1204 -1260 0
-1200 -1281 0
-1201 -1282 0
-1203 -1285 0
-1204 -1286 0
-1201 -1289 0
-1203 -1292 0
-1204 -1293 0
-1200 -1303 0
-1201 -1304 0
-1203 -1306 0
-1204 -1307 0
-1201 -1315 0
-1202 -1316 0
-1203 -1318 0
-1204 -1319 0
-1201 -1328 0
-1202 -1329 0
-1203 -1333 0
-1204 -1334 0
-1199 -1342 0
-1201 -1344 0
-1202 -1345 0
-1203 -1347 0
-1204 -1348 0
-1200 -1357 0
-1201 -1358 0
-1204 -1362 0
-1199 -1390 0
-1201 -1392 0
-1202 -1393 0
-1204 -1396 0
-1200 -1412 0
-1201 -1413 0
-1202 -1414 0
-1204 -1416 0
-1199 -1424 0
-1200 -1425 0
-1201 -1426 0
-1202 -1427 0
-1204 -1430 0
-1199 -1443 0
-1201 -1444 0
-1202 -1445 0
-1204 -1448 0
-1203 -1461 0
-1204 -1462 0
-1203 -1467 0
-1204 -1468 0
-1202 -1487 0
-1203 -1490 0
-1204 -1491 0
-1202 -1494 0
-1203 -1497 0
-1204 -1498 0
-1200 -1510 0
-1204 -1513 0
-1201 -1516 0
-1204 -1519 0
-1200 -1528 0
-1204 -1531 0
-1201 -1541 0
-1202 -1542 0
-1204 -1545 0
-1201 -1561 0
-1202 -1562 0
-1204 -1565 0
-1199 -1575 0
-1202 -1578 0
-1204 -1580 0
-1201 -1588 0
-1204 -1592 0
-1200 -1601 0
-1202 -1602 0
-1204 -1606 0
-1201 -1609 0
-1202 -1610 0
-1204 -1613 0
-1199 -1621 0
-1202 -1623 0
-1204 -1626 0
-1200 -1629 0
-1202 -1630 0
-1204 -1633 0
-1201 -1641 0
-1202 -1642 0
-1204 -1645 0
-1201 -1657 0
-1202 -1658 0
-1204 -1660 0
-1199 -1668 0
-1202 -1670 0
-1204 -1674 0
-1201 -1676 0
-1204 -1680 0
-1200 -1695 0
-1201 -1696 0
-1202 -1697 0
-1203 -1699 0
-1204 -1700 0
-1199 -1707 0
-1200 -1709 0
-1202 -1710 0
-1203 -1714 0
-1204 -1715 0
-1199 -1743 0
-1201 -1745 0
-1202 -1746 0
-1203 -1748 0
-1204 -1749 0
-1200 -1762 0
-1201 -1763 0
-1203 -1766 0
-1204 -1767 0
-1201 -1769 0
-1203 -1772 0
-1204 -1773 0
-1201 -1781 0
-1202 -1782 0
-1203 -1786 0
-1204 -1787 0
-1202 -1789 0
-1203 -1792 0
-1204 -1793 0
-1200 -1806 0
-1202 -1807 0
-1203 -1810 0
-1204 -1811 0
-1201 -1813 0
-1202 -1814 0
-1203 -1816 0
-1204 -1817 0
-1200 -1824 0
-1202 -1825 0
-1203 -1828 0
-1204 -1829 0
-1201 -1836 0
-1202 -1837 0
-1203 -1841 0
-1204 -1842 0
-1201 -1853 0
-1203 -1856 0
-1204 -1857 0
-1201 -1860 0
-1203 -1863 0
-1204 -1864 0
-1202 -1906 0
-1204 -1910 0
-1199 -1918 0
-1201 -1920 0
-1202 -1921 0
-1204 -1924 0
-1201 -1952 0
-1202 -1953 0
-1203 -1957 0
-1204 -1958 0
-1205 -1247 0
-1208 -1251 0
-1210 -1253 0
-1206 -1274 0
-1208 -1277 0
-1210 -1279 0
-1207 -1298 0
-1208 -1299 0
-1210 -1300 0
-1206 -1303 0
-1208 -1305 0
-1210 -1307 0
-1207 -1309 0
-1208 -1310 0
-1209 -1311 0
-1210 -1313 0
-1207 -1330 0
-1208 -1331 0
-1209 -1332 0
-1210 -1334 0
-1205 -1335 0
-1208 -1338 0
-1209 -1339 0
-1210 -1341 0
-1206 -1357 0
-1207 -1359 0
-1208 -1360 0
-1209 -1361 0
-1210 -1362 0
-1205 -1383 0
-1207 -1385 0
-1208 -1386 0
-1209 -1387 0
-1210 -1389 0
-1207 -1399 0
-1208 -1400 0
-1209 -1401 0
-1210 -1403 0
-1206 -1412 0
-1208 -1415 0
-1210 -1416 0
-1205 -1417 0
-1206 -1418 0
-1207 -1420 0
-1208 -1421 0
-1210 -1423 0
-1205 -1437 0
-1208 -1439 0
-1209 -1440 0
-1210 -1442 0
-1207 -1452 0
-1208 -1453 0
-1209 -1454 0
-1210 -1456 0
-1207 -1458 0
-1208 -1459 0
-1209 -1460 0
-1210 -1462 0
-1207 -1474 0
-1208 -1475 0
-1209 -1476 0
-1210 -1477 0
-1207 -1481 0
-1208 -1482 0
-1210 -1484 0
-1207 -1495 0
-1208 -1496 0
-1210 -1498 0
-1206 -1501 0
-1207 -1504 0
-1208 -1505 0
-1210 -1507 0
-1208 -1523 0
-1210 -1525 0
-1206 -1528 0
-1207 -1529 0
-1208 -1530 0
-1210 -1531 0
-1208 -1535 0
-1209 -1536 0
-1210 -1538 0
-1208 -1563 0
-1209 -1564 0
-1210 -1565 0
-1205 -1566 0
-1207 -1570 0
-1208 -1571 0
-1209 -1572 0
-1210 -1574 0
-1208 -1584 0
-1210 -1586 0
-1206 -1594 0
-1207 -1596 0
-1209 -1597 0
-1210 -1599 0
-1207 -1617 0
-1209 -1618 0
-1210 -1620 0
-1205 -1621 0
-1207 -1624 0
-1209 -1625 0
-1210 -1626 0
-1206 -1629 0
-1207 -1631 0
-1209 -1632 0
-1210 -1633 0
-1207 -1637 0
-1210 -1639 0
-1207 -1659 0
-1210 -1660 0
-1205 -1661 0
-1207 -1665 0
-1210 -1667 0
-1207 -1683 0
-1209 -1684 0
-1210 -1686 0
-1206 -1695 0
-1207 -1698 0
-1210 -1700 0
-1205 -1701 0
-1206 -1703 0
-1207 -1705 0
-1210 -1706 0
-1205 -1736 0
-1207 -1740 0
-1209 -1741 0
-1210 -1742 0
-1206 -1756 0
-1207 -1759 0
-1209 -1760 0
-1210 -1761 0
-1209 -1777 0
-1210 -1779 0
-1208 -1797 0
-1210 -1799 0
-1206 -1800 0
-1208 -1802 0
-1209 -1803 0
-1210 -1805 0
-1207 -1820 0
-1208 -1821 0
-1209 -1822 0
-1210 -1823 0
-1206 -1830 0
-1207 -1833 0
-1209 -1834 0
-1210 -1835 0
-1207 -1847 0
-1209 -1848 0
-1210 -1850 0
-1207 -1861 0
-1209 -1862 0
-1210 -1864 0
-1207 -1907 0
-1208 -1908 0
-1209 -1909 0
-1210 -1910 0
-1205 -1911 0
-1207 -1913 0
-1208 -1914 0
-1209 -1915 0
-1210 -1917 0
-1207 -1945 0
-1208 -1946 0
-1209 -1947 0
-1210 -1949 0
-1211 -1240 0
-1215 -1244 0
-1216 -1246 0
-1213 -1275 0
-1214 -1277 0
-1216 -1279 0
-1212 -1294 0
-1213 -1296 0
-1214 -1299 0
-1216 -1300 0
-1212 -1301 0
-1213 -1304 0
-1214 -1305 0
-1216 -1307 0
-1213 -1315 0
-1216 -1319 0
-1213 -1322 0
-1216 -1325 0
-1211 -1342 0
-1213 -1344 0
-1216 -1348 0
-1212 -1349 0
-1213 -1351 0
-1216 -1355 0
-1211 -1376 0
-1213 -1378 0
-1214 -1380 0
-1216 -1382 0
-1213 -1406 0
-1214 -1407 0
-1215 -1408 0
-1216 -1410 0
-1211 -1424 0
-1213 -1426 0
-1214 -1428 0
-1215 -1429 0
-1216 -1430 0
-1213 -1450 0
-1214 -1453 0
-1215 -1454 0
-1216 -1456 0
-1212 -1463 0
-1216 -1468 0
-1213 -1480 0
-1214 -1482 0
-1216 -1484 0
-1212 -1492 0
-1214 -1496 0
-1216 -1498 0
-1212 -1499 0
-1213 -1502 0
-1214 -1505 0
-1216 -1507 0
-1212 -1520 0
-1214 -1523 0
-1216 -1525 0
-1212 -1526 0
-1214 -1530 0
-1216 -1531 0
-1212 -1539 0
-1213 -1541 0
-1214 -1544 0
-1216 -1545 0
-1211 -1546 0
-1213 -1548 0
-1214 -1549 0
-1216 -1551 0
-1212 -1552 0
-1213 -1555 0
-1214 -1556 0
-1216 -1558 0
-1211 -1575 0
-1212 -1576 0
-1214 -1579 0
-1216 -1580 0
-1213 -1582 0
-1214 -1584 0
-1216 -1586 0
-1213 -1595 0
-1215 -1597 0
-1216 -1599 0
-1212 -1614 0
-1215 -1618 0
-1216 -1620 0
-1211 -1621 0
-1215 -1625 0
-1216 -1626 0
-1212 -1627 0
-1215 -1632 0
-1216 -1633 0
-1213 -1641 0
-1214 -1643 0
-1215 -1644 0
-1216 -1645 0
-1213 -1648 0
-1214 -1651 0
-1215 -1652 0
-1216 -1654 0
-1211 -1668 0
-1214 -1672 0
-1215 -1673 0
-1216 -1674 0
-1213 -1676 0
-1214 -1678 0
-1215 -1679 0
-1216 -1680 0
-1212 -1687 0
-1213 -1689 0
-1214 -1691 0
-1215 -1692 0
-1216 -1693 0
-1211 -1707 0
-1212 -1708 0
-1214 -1712 0
-1215 -1713 0
-1216 -1715 0
-1211 -1729 0
-1213 -1731 0
-1214 -1733 0
-1215 -1734 0
-1216 -1735 0
-1213 -1757 0
-1215 -1760 0
-1216 -1761 0
-1212 -1774 0
-1213 -1775 0
-1215 -1777 0
-1216 -1779 0
-1213 -1781 0
-1214 -1784 0
-1215 -1785 0
-1216 -1787 0
-1215 -1791 0
-1216 -1793 0
-1213 -1801 0
-1214 -1802 0
-1215 -1803 0
-1216 -1805 0
-1212 -1818 0
-1214 -1821 0
-1215 -1822 0
-1216 -1823 0
-1214 -1827 0
-1216 -1829 0
-1212 -1844 0
-1215 -1848 0
-1216 -1850 0
-1212 -1858 0
-1213 -1860 0
-1215 -1862 0
-1216 -1864 0
-1212 -1865 0
-1214 -1867 0
-1215 -1868 0
-1216 -1870 0
-1212 -1871 0
-1214 -1874 0
-1215 -1875 0
-1216 -1877 0
-1211 -1892 0
-1212 -1893 0
-1214 -1895 0
-1215 -1896 0
-1216 -1898 0
-1212 -1899 0
-1215 -1902 0
-1216 -1904 0
-1211 -1918 0
-1212 -1919 0
-1213 -1920 0
-1215 -1923 0
-1216 -1924 0
-1211 -1937 0
-1214 -1939 0
-1215 -1940 0
-1216 -1942 0
-1213 -1943 0
-1214 -1946 0
-1215 -1947 0
-1216 -1949 0
-1217 -1233 0
-1219 -1236 0
-1222 -1239 0
-1220 -1283 0
-1221 -1285 0
-1222 -1286 0
-1218 -1287 0
-1221 -1292 0
-1222 -1293 0
-1218 -1301 0
-1221 -1306 0
-1222 -1307 0
-1220 -1309 0
-1221 -1312 0
-1222 -1313 0
-1220 -1323 0
-1221 -1324 0
-1222 -1325 0
-1217 -1335 0
-1221 -1340 0
-1222 -1341 0
-1218 -1349 0
-1219 -1352 0
-1220 -1353 0
-1221 -1354 0
-1222 -1355 0
-1217 -1369 0
-1219 -1371 0
-1220 -1372 0
-1221 -1374 0
-1222 -1375 0
-1219 -1398 0
-1220 -1399 0
-1221 -1402 0
-1222 -1403 0
-1221 -1409 0
-1222 -1410 0
-1217 -1417 0
-1220 -1420 0
-1221 -1422 0
-1222 -1423 0
-1218 -1469 0
-1219 -1473 0
-1220 -1474 0
-1222 -1477 0
-1219 -1487 0
-1221 -1490 0
-1222 -1491 0
-1218 -1492 0
-1219 -1494 0
-1220 -1495 0
-1221 -1497 0
-1222 -1498 0
-1218 -1508 0
-1222 -1513 0
-1218 -1514 0
-1220 -1517 0
-1222 -1519 0
-1218 -1526 0
-1220 -1529 0
-1222 -1531 0
-1218 -1532 0
-1221 -1537 0
-1222 -1538 0
-1217 -1546 0
-1221 -1550 0
-1222 -1551 0
-1218 -1552 0
-1221 -1557 0
-1222 -1558 0
-1217 -1566 0
-1218 -1567 0
-1220 -1570 0
-1221 -1573 0
-1222 -1574 0
-1220 -1589 0
-1222 -1592 0
-1219 -1602 0
-1220 -1603 0
-1222 -1606 0
-1218 -1607 0
-1219 -1610 0
-1220 -1611 0
-1222 -1613 0
-1217 -1621 0
-1219 -1623 0
-1220 -1624 0
-1222 -1626 0
-1218 -1627 0
-1219 -1630 0
-1220 -1631 0
-1222 -1633 0
-1219 -1636 0
-1220 -1637 0
-1221 -1638 0
-1222 -1639 0
-1219 -1649 0
-1220 -1650 0
-1221 -1653 0
-1222 -1654 0
-1217 -1661 0
-1219 -1664 0
-1220 -1665 0
-1221 -1666 0
-1222 -1667 0
-1219 -1682 0
-1220 -1683 0
-1221 -1685 0
-1222 -1686 0
-1218 -1687 0
-1220 -1690 0
-1222 -1693 0
-1217 -1701 0
-1218 -1702 0
-1220 -1705 0
-1222 -1706 0
-1217 -1722 0
-1220 -1725 0
-1221 -1727 0
-1222 -1728 0
-1221 -1766 0
-1222 -1767 0
-1218 -1768 0
-1220 -1770 0
-1221 -1772 0
-1222 -1773 0
-1219 -1796 0
-1221 -1798 0
-1222 -1799 0
-1219 -1807 0
-1220 -1808 0
-1221 -1810 0
-1222 -1811 0
-1218 -1812 0
-1219 -1814 0
-1221 -1816 0
-1222 -1817 0
-1219 -1832 0
-1220 -1833 0
-1222 -1835 0
-1219 -1837 0
-1220 -1838 0
-1221 -1841 0
-1222 -1842 0
-1218 -1851 0
-1221 -1856 0
-1222 -1857 0
-1218 -1858 0
-1220 -1861 0
-1221 -1863 0
-1222 -1864 0
-1218 -1865 0
-1221 -1869 0
-1222 -1870 0
-1218 -1871 0
-1219 -1873 0
-1221 -1876 0
-1222 -1877 0
-1217 -1885 0
-1218 -1886 0
-1219 -1888 0
-1221 -1890 0
-1222 -1891 0
-1218 -1899 0
-1220 -1901 0
-1221 -1903 0
-1222 -1904 0
-1217 -1911 0
-1218 -1912 0
-1220 -1913 0
-1221 -1916 0
-1222 -1917 0
-1217 -1931 0
-1220 -1933 0
-1221 -1935 0
-1222 -1936 0
-1219 -1953 0
-1220 -1954 0
-1221 -1957 0
-1222 -1958 0
-1225 -1274 0
-1226 -1275 0
-1227 -1276 0
-1229 -1277 0
-1231 -1278 0
-1232 -1279 0
-1225 -1281 0
-1226 -1282 0
-1228 -1283 0
-1230 -1284 0
-1231 -1285 0
-1232 -1286 0
-1224 -1287 0
-1226 -1289 0
-1229 -1290 0
-1230 -1291 0
-1231 -1292 0
-1232 -1293 0
-1224 -1294 0
-1226 -1296 0
-1227 -1297 0
-1228 -1298 0
-1229 -1299 0
-1232 -1300 0
-1224 -1301 0
-1225 -1303 0
-1226 -1304 0
-1229 -1305 0
-1231 -1306 0
-1232 -1307 0
-1228 -1309 0
-1229 -1310 0
-1230 -1311 0
-1231 -1312 0
-1232 -1313 0
-1226 -1315 0
-1227 -1316 0
-1228 -1317 0
-1231 -1318 0
-1232 -1319 0
-1225 -1321 0
-1226 -1322 0
-1228 -1323 0
-1231 -1324 0
-1232 -1325 0
-1224 -1326 0
-1226 -1328 0
-1227 -1329 0
-1228 -1330 0
-1229 -1331 0
-1230 -1332 0
-1231 -1333 0
-1232 -1334 0
-1225 -1370 0
-1227 -1371 0
-1228 -1372 0
-1230 -1373 0
-1231 -1374 0
-1232 -1375 0
-1225 -1377 0
-1226 -1378 0
-1228 -1379 0
-1229 -1380 0
-1231 -1381 0
-1232 -1382 0
-1224 -1384 0
-1228 -1385 0
-1229 -1386 0
-1230 -1387 0
-1231 -1388 0
-1232 -1389 0
-1224 -1391 0
-1226 -1392 0
-1227 -1393 0
-1228 -1394 0
-1230 -1395 0
-1232 -1396 0
-1225 -1418 0
-1226 -1419 0
-1228 -1420 0
-1229 -1421 0
-1231 -1422 0
-1232 -1423 0
-1225 -1425 0
-1226 -1426 0
-1227 -1427 0
-1229 -1428 0
-1230 -1429 0
-1232 -1430 0
-1227 -1438 0
-1229 -1439 0
-1230 -1440 0
-1231 -1441 0
-1232 -1442 0
-1226 -1444 0
-1227 -1445 0
-1228 -1446 0
-1229 -1447 0
-1232 -1448 0
-1224 -1499 0
-1225 -1501 0
-1226 -1502 0
-1227 -1503 0
-1228 -1504 0
-1229 -1505 0
-1231 -1506 0
-1232 -1507 0
-1224 -1508 0
-1225 -1510 0
-1229 -1511 0
-1230 -1512 0
-1232 -1513 0
-1224 -1514 0
-1226 -1516 0
-1228 -1517 0
-1230 -1518 0
-1232 -1519 0
-1224 -1520 0
-1227 -1522 0
-1229 -1523 0
-1231 -1524 0
-1232 -1525 0
-1224 -1526 0
-1225 -1528 0
-1228 -1529 0
-1229 -1530 0
-1232 -1531 0
-1224 -1532 0
-1226 -1534 0
-1229 -1535 0
-1230 -1536 0
-1231 -1537 0
-1232 -1538 0
-1224 -1539 0
-1226 -1541 0
-1227 -1542 0
-1228 -1543 0
-1229 -1544 0
-1232 -1545 0
-1224 -1552 0
-1225 -1554 0
-1226 -1555 0
-1229 -1556 0
-1231 -1557 0
-1232 -1558 0
-1224 -1559 0
-1226 -1561 0
-1227 -1562 0
-1229 -1563 0
-1230 -1564 0
-1232 -1565 0
-1226 -1582 0
-1227 -1583 0
-1229 -1584 0
-1231 -1585 0
-1232 -1586 0
-1226 -1588 0
-1228 -1589 0
-1229 -1590 0
-1230 -1591 0
-1232 -1592 0
-1225 -1594 0
-1226 -1595 0
-1228 -1596 0
-1230 -1597 0
-1231 -1598 0
-1232 -1599 0
-1225 -1601 0
-1227 -1602 0
-1228 -1603 0
-1229 -1604 0
-1230 -1605 0
-1232 -1606 0
-1224 -1607 0
-1226 -1609 0
-1227 -1610 0
-1228 -1611 0
-1229 -1612 0
-1232 -1613 0
-1224 -1614 0
-1227 -1616 0
-1228 -1617 0
-1230 -1618 0
-1231 -1619 0
-1232 -1620 0
-1224 -1627 0
-1225 -1629 0
-1227 -1630 0
-1228 -1631 0
-1230 -1632 0
-1232 -1633 0
-1226 -1635 0
-1227 -1636 0
-1228 -1637 0
-1231 -1638 0
-1232 -1639 0
-1226 -1641 0
-1227 -1642 0
-1229 -1643 0
-1230 -1644 0
-1232 -1645 0
-1225 -1647 0
-1226 -1648 0
-1227 -1649 0
-1228 -1650 0
-1229 -1651 0
-1230 -1652 0
-1231 -1653 0
-1232 -1654 0
-1224 -1655 0
-1226 -1657 0
-1227 -1658 0
-1228 -1659 0
-1232 -1660 0
-1226 -1676 0
-1228 -1677 0
-1229 -1678 0
-1230 -1679 0
-1232 -1680 0
-1227 -1682 0
-1228 -1683 0
-1230 -1684 0
-1231 -1685 0
-1232 -1686 0
-1224 -1702 0
-1225 -1703 0
-1226 -1704 0
-1228 -1705 0
-1232 -1706 0
-1224 -1708 0
-1225 -1709 0
-1227 -1710 0
-1228 -1711 0
-1229 -1712 0
-1230 -1713 0
-1231 -1714 0
-1232 -1715 0
-1225 -1723 0
-1226 -1724 0
-1228 -1725 0
-1229 -1726 0
-1231 -1727 0
-1232 -1728 0
-1225 -1730 0
-1226 -1731 0
-1227 -1732 0
-1229 -1733 0
-1230 -1734 0
-1232 -1735 0
-1224 -1737 0
-1226 -1738 0
-1227 -1739 0
-1228 -1740 0
-1230 -1741 0
-1232 -1742 0
-1224 -1744 0
-1226 -1745 0
-1227 -1746 0
-1229 -1747 0
-1231 -1748 0
-1232 -1749 0
-1224 -1844 0
-1227 -1846 0
-1228 -1847 0
-1230 -1848 0
-1231 -1849 0
-1232 -1850 0
-1224 -1851 0
-1226 -1853 0
-1229 -1854 0
-1230 -1855 0
-1231 -1856 0
-1232 -1857 0
-1224 -1858 0
-1226 -1860 0
-1228 -1861 0
-1230 -1862 0
-1231 -1863 0
-1232 -1864 0
-1224 -1865 0
-1229 -1867 0
-1230 -1868 0
-1231 -1869 0
-1232 -1870 0
-1224 -1886 0
-1226 -1887 0
-1227 -1888 0
-1229 -1889 0
-1231 -1890 0
-1232 -1891 0
-1224 -1893 0
-1228 -1894 0
-1229 -1895 0
-1230 -1896 0
-1231 -1897 0
-1232 -1898 0
-1224 -1912 0
-1228 -1913 0
-1229 -1914 0
-1230 -1915 0
-1231 -1916 0
-1232 -1917 0
-1224 -1919 0
-1226 -1920 0
-1227 -1921 0
-1228 -1922 0
-1230 -1923 0
-1232 -1924 0
-1226 -1932 0
-1228 -1933 0
-1230 -1934 0
-1231 -1935 0
-1232 -1936 0
-1227 -1938 0
-1229 -1939 0
-1230 -1940 0
-1231 -1941 0
-1232 -1942 0
-1234 -1281 0
-1235 -1282 0
-1238 -1284 0
-1239 -1286 0
-1235 -1289 0
-1237 -1290 0
-1238 -1291 0
-1239 -1293 0
-1234 -1303 0
-1235 -1304 0
-1237 -1305 0
-1239 -1307 0
-1237 -1310 0
-1238 -1311 0
-1239 -1313 0
-1234 -1321 0
-1235 -1322 0
-1239 -1325 0
-1233 -1335 0
-1235 -1337 0
-1237 -1338 0
-1238 -1339 0
-1239 -1341 0
-1234 -1357 0
-1235 -1358 0
-1237 -1360 0
-1238 -1361 0
-1239 -1362 0
-1234 -1364 0
-1238 -1366 0
-1239 -1368 0
-1233 -1376 0
-1234 -1377 0
-1235 -1378 0
-1237 -1380 0
-1239 -1382 0
-1233 -1383 0
-1237 -1386 0
-1238 -1387 0
-1239 -1389 0
-1234 -1412 0
-1235 -1413 0
-1236 -1414 0
-1237 -1415 0
-1239 -1416 0
-1233 -1424 0
-1234 -1425 0
-1235 -1426 0
-1236 -1427 0
-1237 -1428 0
-1238 -1429 0
-1239 -1430 0
-1234 -1431 0
-1236 -1432 0
-1237 -1434 0
-1239 -1436 0
-1233 -1437 0
-1236 -1438 0
-1237 -1439 0
-1238 -1440 0
-1239 -1442 0
-1235 -1450 0
-1236 -1451 0
-1237 -1453 0
-1238 -1454 0
-1239 -1456 0
-1237 -1459 0
-1238 -1460 0
-1239 -1462 0
-1239 -1468 0
-1235 -1480 0
-1237 -1482 0
-1239 -1484 0
-1234 -1510 0
-1237 -1511 0
-1238 -1512 0
-1239 -1513 0
-1235 -1516 0
-1238 -1518 0
-1239 -1519 0
-1234 -1528 0
-1237 -1530 0
-1239 -1531 0
-1235 -1534 0
-1237 -1535 0
-1238 -1536 0
-1239 -1538 0
-1233 -1546 0
-1235 -1548 0
-1237 -1549 0
-1239 -1551 0
-1234 -1554 0
-1235 -1555 0
-1237 -1556 0
-1239 -1558 0
-1233 -1566 0
-1235 -1569 0
-1237 -1571 0
-1238 -1572 0
-1239 -1574 0
-1235 -1588 0
-1237 -1590 0
-1238 -1591 0
-1239 -1592 0
-1234 -1601 0
-1236 -1602 0
-1237 -1604 0
-1238 -1605 0
-1239 -1606 0
-1235 -1609 0
-1236 -1610 0
-1237 -1612 0
-1239 -1613 0
-1233 -1621 0
-1236 -1623 0
-1238 -1625 0
-1239 -1626 0
-1234 -1629 0
-1236 -1630 0
-1238 -1632 0
-1239 -1633 0
-1235 -1635 0
-1236 -1636 0
-1239 -1639 0
-1234 -1647 0
-1235 -1648 0
-1236 -1649 0
-1237 -1651 0
-1238 -1652 0
-1239 -1654 0
-1233 -1661 0
-1235 -1663 0
-1236 -1664 0
-1239 -1667 0
-1236 -1682 0
-1238 -1684 0
-1239 -1686 0
-1234 -1695 0
-1235 -1696 0
-1236 -1697 0
-1239 -1700 0
-1233 -1707 0
-1234 -1709 0
-1236 -1710 0
-1237 -1712 0
-1238 -1713 0
-1239 -1715 0
-1234 -1717 0
-1235 -1718 0
-1236 -1719 0
-1237 -1720 0
-1239 -1721 0
-1233 -1729 0
-1234 -1730 0
-1235 -1731 0
-1236 -1732 0
-1237 -1733 0
-1238 -1734 0
-1239 -1735 0
-1233 -1736 0
-1235 -1738 0
-1236 -1739 0
-1238 -1741 0
-1239 -1742 0
-1233 -1750 0
-1235 -1751 0
-1236 -1752 0
-1237 -1754 0
-1239 -1755 0
-1235 -1775 0
-1236 -1776 0
-1238 -1777 0
-1239 -1779 0
-1235 -1781 0
-1236 -1782 0
-1237 -1784 0
-1238 -1785 0
-1239 -1787 0
-1234 -1800 0
-1235 -1801 0
-1237 -1802 0
-1238 -1803 0
-1239 -1805 0
-1234 -1824 0
-1236 -1825 0
-1237 -1827 0
-1239 -1829 0
-1235 -1853 0
-1237 -1854 0
-1238 -1855 0
-1239 -1857 0
-1235 -1860 0
-1238 -1862 0
-1239 -1864 0
-1237 -1867 0
-1238 -1868 0
-1239 -1870 0
-1235 -1880 0
-1237 -1882 0
-1239 -1884 0
-1233 -1892 0
-1237 -1895 0
-1238 -1896 0
-1239 -1898 0
-1236 -1906 0
-1237 -1908 0
-1238 -1909 0
-1239 -1910 0
-1233 -1918 0
-1235 -1920 0
-1236 -1921 0
-1238 -1923 0
-1239 -1924 0
-1235 -1926 0
-1236 -1927 0
-1238 -1928 0
-1239 -1930 0
-1233 -1937 0
-1236 -1938 0
-1237 -1939 0
-1238 -1940 0
-1239 -1942 0
-1241 -1274 0
-1242 -1276 0
-1245 -1278 0
-1246 -1279 0
-1242 -1297 0
-1243 -1298 0
-1246 -1300 0
-1241 -1303 0
-1245 -1306 0
-1246 -1307 0
-1242 -1316 0
-1243 -1317 0
-1245 -1318 0
-1246 -1319 0
-1241 -1321 0
-1243 -1323 0
-1245 -1324 0
-1246 -1325 0
-1240 -1342 0
-1242 -1345 0
-1243 -1346 0
-1245 -1347 0
-1246 -1348 0
-1241 -1357 0
-1243 -1359 0
-1244 -1361 0
-1246 -1362 0
-1241 -1364 0
-1243 -1365 0
-1244 -1366 0
-1245 -1367 0
-1246 -1368 0
-1240 -1369 0
-1241 -1370 0
-1242 -1371 0
-1243 -1372 0
-1244 -1373 0
-1245 -1374 0
-1246 -1375 0
-1240 -1390 0
-1242 -1393 0
-1243 -1394 0
-1244 -1395 0
-1246 -1396 0
-1242 -1398 0
-1243 -1399 0
-1244 -1401 0
-1245 -1402 0
-1246 -1403 0
-1241 -1412 0
-1242 -1414 0
-1246 -1416 0
-1240 -1417 0
-1241 -1418 0
-1243 -1420 0
-1245 -1422 0
-1246 -1423 0
-1241 -1431 0
-1242 -1432 0
-1243 -1433 0
-1245 -1435 0
-1246 -1436 0
-1240 -1443 0
-1242 -1445 0
-1243 -1446 0
-1246 -1448 0
-1243 -1458 0
-1244 -1460 0
-1245 -1461 0
-1246 -1462 0
-1242 -1473 0
-1243 -1474 0
-1244 -1476 0
-1246 -1477 0
-1242 -1487 0
-1244 -1489 0
-1245 -1490 0
-1246 -1491 0
-1241 -1501 0
-1242 -1503 0
-1243 -1504 0
-1245 -1506 0
-1246 -1507 0
-1242 -1522 0
-1245 -1524 0
-1246 -1525 0
-1241 -1528 0
-1243 -1529 0
-1246 -1531 0
-1242 -1542 0
-1243 -1543 0
-1246 -1545 0
-1240 -1546 0
-1245 -1550 0
-1246 -1551 0
-1241 -1554 0
-1245 -1557 0
-1246 -1558 0
-1240 -1575 0
-1242 -1578 0
-1246 -1580 0
-1242 -1583 0
-1245 -1585 0
-1246 -1586 0
-1241 -1594 0
-1243 -1596 0
-1244 -1597 0
-1245 -1598 0
-1246 -1599 0
-1242 -1616 0
-1243 -1617 0
-1244 -1618 0
-1245 -1619 0
-1246 -1620 0
-1240 -1621 0
-1242 -1623 0
-1243 -1624 0
-1244 -1625 0
-1246 -1626 0
-1241 -1629 0
-1242 -1630 0
-1243 -1631 0
-1244 -1632 0
-1246 -1633 0
-1242 -1642 0
-1244 -1644 0
-1246 -1645 0
-1241 -1647 0
-1242 -1649 0
-1243 -1650 0
-1244 -1652 0
-1245 -1653 0
-1246 -1654 0
-1240 -1668 0
-1242 -1670 0
-1243 -1671 0
-1244 -1673 0
-1246 -1674 0
-1243 -1677 0
-1244 -1679 0
-1246 -1680 0
-1241 -1695 0
-1242 -1697 0
-1243 -1698 0
-1245 -1699 0
-1246 -1700 0
-1240 -1701 0
-1241 -1703 0
-1243 -1705 0
-1246 -1706 0
-1241 -1717 0
-1242 -1719 0
-1246 -1721 0
-1240 -1722 0
-1241 -1723 0
-1243 -1725 0
-1245 -1727 0
-1246 -1728 0
-1240 -1743 0
-1242 -1746 0
-1245 -1748 0
-1246 -1749 0
-1240 -1750 0
-1242 -1752 0
-1243 -1753 0
-1246 -1755 0
-1243 -1770 0
-1245 -1772 0
-1246 -1773 0
-1241 -1806 0
-1242 -1807 0
-1243 -1808 0
-1245 -1810 0
-1246 -1811 0
-1241 -1830 0
-1242 -1832 0
-1243 -1833 0
-1244 -1834 0
-1246 -1835 0
-1242 -1846 0
-1243 -1847 0
-1244 -1848 0
-1245 -1849 0
-1246 -1850 0
-1243 -1861 0
-1244 -1862 0
-1245 -1863 0
-1246 -1864 0
-1244 -1868 0
-1245 -1869 0
-1246 -1870 0
-1243 -1881 0
-1245 -1883 0
-1246 -1884 0
-1240 -1885 0
-1242 -1888 0
-1245 -1890 0
-1246 -1891 0
-1242 -1906 0
-1243 -1907 0
-1244 -1909 0
-1246 -1910 0
-1240 -1911 0
-1243 -1913 0
-1244 -1915 0
-1245 -1916 0
-1246 -1917 0
-1242 -1927 0
-1244 -1928 0
-1245 -1929 0
-1246 -1930 0
-1240 -1931 0
-1243 -1933 0
-1244 -1934 0
-1245 -1935 0
-1246 -1936 0
-1242 -1953 0
-1243 -1954 0
-1244 -1956 0
-1245 -1957 0
-1246 -1958 0
-1249 -1275 0
-1250 -1276 0
-1251 -1277 0
-1252 -1278 0
-1253 -1279 0
-1248 -1294 0
-1249 -1296 0
-1250 -1297 0
-1251 -1299 0
-1253 -1300 0
-1248 -1301 0
-1249 -1304 0
-1251 -1305 0
-1252 -1306 0
-1253 -1307 0
-1251 -1310 0
-1252 -1312 0
-1253 -1313 0
-1248 -1326 0
-1249 -1328 0
-1250 -1329 0
-1251 -1331 0
-1252 -1333 0
-1253 -1334 0
-1247 -1335 0
-1249 -1337 0
-1251 -1338 0
-1252 -1340 0
-1253 -1341 0
-1248 -1349 0
-1249 -1351 0
-1250 -1352 0
-1252 -1354 0
-1253 -1355 0
-1248 -1363 0
-1252 -1367 0
-1253 -1368 0
-1247 -1369 0
-1250 -1371 0
-1252 -1374 0
-1253 -1375 0
-1247 -1390 0
-1248 -1391 0
-1249 -1392 0
-1250 -1393 0
-1253 -1396 0
-1249 -1406 0
-1251 -1407 0
-1252 -1409 0
-1253 -1410 0
-1247 -1424 0
-1249 -1426 0
-1250 -1427 0
-1251 -1428 0
-1253 -1430 0
-1250 -1432 0
-1251 -1434 0
-1252 -1435 0
-1253 -1436 0
-1247 -1443 0
-1249 -1444 0
-1250 -1445 0
-1251 -1447 0
-1253 -1448 0
-1248 -1463 0
-1252 -1467 0
-1253 -1468 0
-1248 -1499 0
-1249 -1502 0
-1250 -1503 0
-1251 -1505 0
-1252 -1506 0
-1253 -1507 0
-1248 -1520 0
-1250 -1522 0
-1251 -1523 0
-1252 -1524 0
-1253 -1525 0
-1248 -1526 0
-1251 -1530 0
-1253 -1531 0
-1248 -1532 0
-1249 -1534 0
-1251 -1535 0
-1252 -1537 0
-1253 -1538 0
-1248 -1559 0
-1249 -1561 0
-1250 -1562 0
-1251 -1563 0
-1253 -1565 0
-1247 -1566 0
-1248 -1567 0
-1249 -1569 0
-1251 -1571 0
-1252 -1573 0
-1253 -1574 0
-1249 -1582 0
-1250 -1583 0
-1251 -1584 0
-1252 -1585 0
-1253 -1586 0
-1249 -1595 0
-1252 -1598 0
-1253 -1599 0
-1248 -1614 0
-1250 -1616 0
-1252 -1619 0
-1253 -1620 0
-1247 -1621 0
-1250 -1623 0
-1253 -1626 0
-1248 -1627 0
-1250 -1630 0
-1253 -1633 0
-1249 -1635 0
-1250 -1636 0
-1252 -1638 0
-1253 -1639 0
-1248 -1655 0
-1249 -1657 0
-1250 -1658 0
-1253 -1660 0
-1247 -1661 0
-1249 -1663 0
-1250 -1664 0
-1252 -1666 0
-1253 -1667 0
-1250 -1682 0
-1252 -1685 0
-1253 -1686 0
-1248 -1687 0
-1249 -1689 0
-1251 -1691 0
-1253 -1693 0
-1247 -1707 0
-1248 -1708 0
-1250 -1710 0
-1251 -1712 0
-1252 -1714 0
-1253 -1715 0
-1248 -1716 0
-1249 -1718 0
-1250 -1719 0
-1251 -1720 0
-1253 -1721 0
-1247 -1722 0
-1249 -1724 0
-1251 -1726 0
-1252 -1727 0
-1253 -1728 0
-1247 -1743 0
-1248 -1744 0
-1249 -1745 0
-1250 -1746 0
-1251 -1747 0
-1252 -1748 0
-1253 -1749 0
-1247 -1750 0
-1249 -1751 0
-1250 -1752 0
-1251 -1754 0
-1253 -1755 0
-1249 -1763 0
-1251 -1764 0
-1252 -1766 0
-1253 -1767 0
-1249 -1781 0
-1250 -1782 0
-1251 -1784 0
-1252 -1786 0
-1253 -1787 0
-1248 -1812 0
-1249 -1813 0
-1250 -1814 0
-1252 -1816 0
-1253 -1817 0
-1250 -1825 0
-1251 -1827 0
-1252 -1828 0
-1253 -1829 0
-1249 -1836 0
-1250 -1837 0
-1251 -1839 0
-1252 -1841 0
-1253 -1842 0
-1248 -1844 0
-1250 -1846 0
-1252 -1849 0
-1253 -1850 0
-1248 -1858 0
-1249 -1860 0
-1252 -1863 0
-1253 -1864 0
-1248 -1871 0
-1250 -1873 0
-1251 -1874 0
-1252 -1876 0
-1253 -1877 0
-1248 -1879 0
-1249 -1880 0
-1251 -1882 0
-1252 -1883 0
-1253 -1884 0
-1247 -1885 0
-1248 -1886 0
-1249 -1887 0
-1250 -1888 0
-1251 -1889 0
-1252 -1890 0
-1253 -1891 0
-1248 -1899 0
-1252 -1903 0
-1253 -1904 0
-1247 -1918 0
-1248 -1919 0
-1249 -1920 0
-1250 -1921 0
-1253 -1924 0
-1248 -1925 0
-1249 -1926 0
-1250 -1927 0
-1252 -1929 0
-1253 -1930 0
-1247 -1931 0
-1249 -1932 0
-1252 -1935 0
-1253 -1936 0
-1256 -1283 0
-1258 -1284 0
-1259 -1285 0
-1260 -1286 0
-1255 -1287 0
-1257 -1290 0
-1258 -1291 0
-1259 -1292 0
-1260 -1293 0
-1255 -1301 0
-1257 -1305 0
-1259 -1306 0
-1260 -1307 0
-1256 -1317 0
-1259 -1318 0
-1260 -1319 0
-1255 -1326 0
-1256 -1330 0
-1257 -1331 0
-1258 -1332 0
-1259 -1333 0
-1260 -1334 0
-1254 -1342 0
-1256 -1346 0
-1259 -1347 0
-1260 -1348 0
-1255 -1349 0
-1256 -1353 0
-1259 -1354 0
-1260 -1355 0
-1255 -1363 0
-1256 -1365 0
-1258 -1366 0
-1259 -1367 0
-1260 -1368 0
-1254 -1376 0
-1256 -1379 0
-1257 -1380 0
-1259 -1381 0
-1260 -1382 0
-1254 -1383 0
-1255 -1384 0
-1256 -1385 0
-1257 -1386 0
-1258 -1387 0
-1259 -1388 0
-1260 -1389 0
-1256 -1399 0
-1257 -1400 0
-1258 -1401 0
-1259 -1402 0
-1260 -1403 0
-1257 -1407 0
-1258 -1408 0
-1259 -1409 0
-1260 -1410 0
-1254 -1417 0
-1256 -1420 0
-1257 -1421 0
-1259 -1422 0
-1260 -1423 0
-1256 -1433 0
-1257 -1434 0
-1259 -1435 0
-1260 -1436 0
-1254 -1437 0
-1257 -1439 0
-1258 -1440 0
-1259 -1441 0
-1260 -1442 0
-1255 -1469 0
-1256 -1474 0
-1257 -1475 0
-1258 -1476 0
-1260 -1477 0
-1255 -1508 0
-1257 -1511 0
-1258 -1512 0
-1260 -1513 0
-1255 -1514 0
-1256 -1517 0
-1258 -1518 0
-1260 -1519 0
-1255 -1526 0
-1256 -1529 0
-1257 -1530 0
-1260 -1531 0
-1255 -1539 0
-1256 -1543 0
-1257 -1544 0
-1260 -1545 0
-1255 -1559 0
-1257 -1563 0
-1258 -1564 0
-1260 -1565 0
-1254 -1575 0
-1255 -1576 0
-1257 -1579 0
-1260 -1580 0
-1256 -1589 0
-1257 -1590 0
-1258 -1591 0
-1260 -1592 0
-1256 -1603 0
-1257 -1604 0
-1258 -1605 0
-1260 -1606 0
-1255 -1607 0
-1256 -1611 0
-1257 -1612 0
-1260 -1613 0
-1254 -1621 0
-1256 -1624 0
-1258 -1625 0
-1260 -1626 0
-1255 -1627 0
-1256 -1631 0
-1258 -1632 0
-1260 -1633 0
-1257 -1643 0
-1258 -1644 0
-1260 -1645 0
-1255 -1655 0
-1256 -1659 0
-1260 -1660 0
-1254 -1668 0
-1256 -1671 0
-1257 -1672 0
-1258 -1673 0
-1260 -1674 0
-1256 -1677 0
-1257 -1678 0
-1258 -1679 0
-1260 -1680 0
-1255 -1687 0
-1256 -1690 0
-1257 -1691 0
-1258 -1692 0
-1260 -1693 0
-1254 -1701 0
-1255 -1702 0
-1256 -1705 0
-1260 -1706 0
-1255 -1716 0
-1257 -1720 0
-1260 -1721 0
-1254 -1729 0
-1257 -1733 0
-1258 -1734 0
-1260 -1735 0
-1254 -1736 0
-1255 -1737 0
-1256 -1740 0
-1258 -1741 0
-1260 -1742 0
-1254 -1750 0
-1256 -1753 0
-1257 -1754 0
-1260 -1755 0
-1256 -1759 0
-1258 -1760 0
-1260 -1761 0
-1255 -1818 0
-1256 -1820 0
-1257 -1821 0
-1258 -1822 0
-1260 -1823 0
-1256 -1833 0
-1258 -1834 0
-1260 -1835 0
-1255 -1851 0
-1257 -1854 0
-1258 -1855 0
-1259 -1856 0
-1260 -1857 0
-1255 -1858 0
-1256 -1861 0
-1258 -1862 0
-1259 -1863 0
-1260 -1864 0
-1255 -1871 0
-1257 -1874 0
-1258 -1875 0
-1259 -1876 0
-1260 -1877 0
-1255 -1879 0
-1256 -1881 0
-1257 -1882 0
-1259 -1883 0
-1260 -1884 0
-1254 -1892 0
-1255 -1893 0
-1256 -1894 0
-1257 -1895 0
-1258 -1896 0
-1259 -1897 0
-1260 -1898 0
-1255 -1899 0
-1256 -1901 0
-1258 -1902 0
-1259 -1903 0
-1260 -1904 0
-1254 -1911 0
-1255 -1912 0
-1256 -1913 0
-1257 -1914 0
-1258 -1915 0
-1259 -1916 0
-1260 -1917 0
-1255 -1925 0
-1258 -1928 0
-1259 -1929 0
-1260 -1930 0
-1254 -1937 0
-1257 -1939 0
-1258 -1940 0
-1259 -1941 0
-1260 -1942 0
-1256 -1945 0
-1257 -1946 0
-1258 -1947 0
-1259 -1948 0
-1260 -1949 0
-1262 -1275 0
-1263 -1276 0
-1265 -1277 0
-1266 -1279 0
-1262 -1289 0
-1265 -1290 0
-1266 -1293 0
-1262 -1315 0
-1263 -1316 0
-1264 -1317 0
-1266 -1319 0
-1262 -1322 0
-1264 -1323 0
-1266 -1325 0
-1262 -1328 0
-1263 -1329 0
-1264 -1330 0
-1265 -1331 0
-1266 -1334 0
-1261 -1335 0
-1262 -1337 0
-1265 -1338 0
-1266 -1341 0
-1262 -1351 0
-1263 -1352 0
-1264 -1353 0
-1266 -1355 0
-1262 -1358 0
-1264 -1359 0
-1265 -1360 0
-1266 -1362 0
-1261 -1376 0
-1262 -1378 0
-1264 -1379 0
-1265 -1380 0
-1266 -1382 0
-1261 -1390 0
-1262 -1392 0
-1263 -1393 0
-1264 -1394 0
-1266 -1396 0
-1262 -1406 0
-1265 -1407 0
-1266 -1410 0
-1262 -1413 0
-1263 -1414 0
-1265 -1415 0
-1266 -1416 0
-1261 -1417 0
-1262 -1419 0
-1264 -1420 0
-1265 -1421 0
-1266 -1423 0
-1261 -1443 0
-1262 -1444 0
-1263 -1445 0
-1264 -1446 0
-1265 -1447 0
-1266 -1448 0
-1262 -1450 0
-1263 -1451 0
-1264 -1452 0
-1265 -1453 0
-1266 -1456 0
-1262 -1480 0
-1264 -1481 0
-1265 -1482 0
-1266 -1484 0
-1262 -1502 0
-1263 -1503 0
-1264 -1504 0
-1265 -1505 0
-1266 -1507 0
-1262 -1516 0
-1264 -1517 0
-1266 -1519 0
-1262 -1541 0
-1263 -1542 0
-1264 -1543 0
-1265 -1544 0
-1266 -1545 0
-1261 -1546 0
-1262 -1548 0
-1265 -1549 0
-1266 -1551 0
-1262 -1555 0
-1265 -1556 0
-1266 -1558 0
-1262 -1561 0
-1263 -1562 0
-1265 -1563 0
-1266 -1565 0
-1261 -1566 0
-1262 -1569 0
-1264 -1570 0
-1265 -1571 0
-1266 -1574 0
-1262 -1588 0
-1264 -1589 0
-1265 -1590 0
-1266 -1592 0
-1262 -1595 0
-1264 -1596 0
-1266 -1599 0
-1262 -1609 0
-1263 -1610 0
-1264 -1611 0
-1265 -1612 0
-1266 -1613 0
-1262 -1641 0
-1263 -1642 0
-1265 -1643 0
-1266 -1645 0
-1262 -1648 0
-1263 -1649 0
-1264 -1650 0
-1265 -1651 0
-1266 -1654 0
-1262 -1657 0
-1263 -1658 0
-1264 -1659 0
-1266 -1660 0
-1261 -1661 0
-1262 -1663 0
-1263 -1664 0
-1264 -1665 0
-1266 -1667 0
-1262 -1676 0
-1264 -1677 0
-1265 -1678 0
-1266 -1680 0
-1262 -1689 0
-1264 -1690 0
-1265 -1691 0
-1266 -1693 0
-1262 -1696 0
-1263 -1697 0
-1264 -1698 0
-1266 -1700 0
-1261 -1701 0
-1262 -1704 0
-1264 -1705 0
-1266 -1706 0
-1261 -1729 0
-1262 -1731 0
-1263 -1732 0
-1265 -1733 0
-1266 -1735 0
-1261 -1743 0
-1262 -1745 0
-1263 -1746 0
-1265 -1747 0
-1266 -1749 0
-1261 -1750 0
-1262 -1751 0
-1263 -1752 0
-1264 -1753 0
-1265 -1754 0
-1266 -1755 0
-1262 -1763 0
-1265 -1764 0
-1266 -1767 0
-1262 -1775 0
-1263 -1776 0
-1266 -1779 0
-1262 -1801 0
-1265 -1802 0
-1266 -1805 0
-1262 -1813 0
-1263 -1814 0
-1266 -1817 0
-1262 -1836 0
-1263 -1837 0
-1264 -1838 0
-1265 -1839 0
-1266 -1842 0
-1263 -1846 0
-1264 -1847 0
-1266 -1850 0
-1265 -1867 0
-1266 -1870 0
-1263 -1873 0
-1265 -1874 0
-1266 -1877 0
-1261 -1892 0
-1264 -1894 0
-1265 -1895 0
-1266 -1898 0
-1264 -1901 0
-1266 -1904 0
-1263 -1906 0
-1264 -1907 0
-1265 -1908 0
-1266 -1910 0
-1261 -1911 0
-1264 -1913 0
-1265 -1914 0
-1266 -1917 0
-1261 -1937 0
-1263 -1938 0
-1265 -1939 0
-1266 -1942 0
-1268 -1282 0
-1269 -1283 0
-1270 -1284 0
-1271 -1285 0
-1272 -1286 0
-1268 -1296 0
-1269 -1298 0
-1272 -1300 0
-1269 -1309 0
-1270 -1311 0
-1271 -1312 0
-1272 -1313 0
-1268 -1322 0
-1269 -1323 0
-1271 -1324 0
-1272 -1325 0
-1268 -1328 0
-1269 -1330 0
-1270 -1332 0
-1271 -1333 0
-1272 -1334 0
-1267 -1342 0
-1268 -1344 0
-1269 -1346 0
-1271 -1347 0
-1272 -1348 0
-1268 -1351 0
-1269 -1353 0
-1271 -1354 0
-1272 -1355 0
-1268 -1358 0
-1269 -1359 0
-1270 -1361 0
-1272 -1362 0
-1267 -1369 0
-1269 -1372 0
-1270 -1373 0
-1271 -1374 0
-1272 -1375 0
-1267 -1383 0
-1269 -1385 0
-1270 -1387 0
-1271 -1388 0
-1272 -1389 0
-1268 -1406 0
-1270 -1408 0
-1271 -1409 0
-1272 -1410 0
-1268 -1413 0
-1272 -1416 0
-1267 -1424 0
-1268 -1426 0
-1270 -1429 0
-1272 -1430 0
-1267 -1437 0
-1270 -1440 0
-1271 -1441 0
-1272 -1442 0
-1270 -1489 0
-1271 -1490 0
-1272 -1491 0
-1270 -1512 0
-1272 -1513 0
-1271 -1524 0
-1272 -1525 0
-1268 -1534 0
-1270 -1536 0
-1271 -1537 0
-1272 -1538 0
-1267 -1546 0
-1268 -1548 0
-1271 -1550 0
-1272 -1551 0
-1268 -1555 0
-1271 -1557 0
-1272 -1558 0
-1268 -1561 0
-1270 -1564 0
-1272 -1565 0
-1267 -1575 0
-1272 -1580 0
-1268 -1582 0
-1271 -1585 0
-1272 -1586 0
-1269 -1603 0
-1270 -1605 0
-1272 -1606 0
-1269 -1617 0
-1270 -1618 0
-1271 -1619 0
-1272 -1620 0
-1268 -1635 0
-1269 -1637 0
-1271 -1638 0
-1272 -1639 0
-1268 -1648 0
-1269 -1650 0
-1270 -1652 0
-1271 -1653 0
-1272 -1654 0
-1268 -1657 0
-1269 -1659 0
-1272 -1660 0
-1267 -1668 0
-1269 -1671 0
-1270 -1673 0
-1272 -1674 0
-1269 -1683 0
-1270 -1684 0
-1271 -1685 0
-1272 -1686 0
-1268 -1689 0
-1269 -1690 0
-1270 -1692 0
-1272 -1693 0
-1268 -1696 0
-1269 -1698 0
-1271 -1699 0
-1272 -1700 0
-1267 -1707 0
-1269 -1711 0
-1270 -1713 0
-1271 -1714 0
-1272 -1715 0
-1267 -1722 0
-1268 -1724 0
-1269 -1725 0
-1271 -1727 0
-1272 -1728 0
-1267 -1736 0
-1268 -1738 0
-1269 -1740 0
-1270 -1741 0
-1272 -1742 0
-1267 -1750 0
-1268 -1751 0
-1269 -1753 0
-1272 -1755 0
-1268 -1757 0
-1269 -1759 0
-1270 -1760 0
-1272 -1761 0
-1268 -1769 0
-1269 -1770 0
-1271 -1772 0
-1272 -1773 0
-1269 -1808 0
-1271 -1810 0
-1272 -1811 0
-1269 -1820 0
-1270 -1822 0
-1272 -1823 0
-1268 -1853 0
-1270 -1855 0
-1271 -1856 0
-1272 -1857 0
-1270 -1868 0
-1271 -1869 0
-1272 -1870 0
-1270 -1875 0
-1271 -1876 0
-1272 -1877 0
-1267 -1885 0
-1268 -1887 0
-1271 -1890 0
-1272 -1891 0
-1269 -1901 0
-1270 -1902 0
-1271 -1903 0
-1272 -1904 0
-1269 -1907 0
-1270 -1909 0
-1272 -1910 0
-1267 -1918 0
-1268 -1920 0
-1269 -1922 0
-1270 -1923 0
-1272 -1924 0
-1267 -1931 0
-1268 -1932 0
-1269 -1933 0
-1270 -1934 0
-1271 -1935 0
-1272 -1936 0
-1268 -1943 0
-1269 -1945 0
-1270 -1947 0
-1271 -1948 0
-1272 -1949 0
-1268 -1952 0
-1269 -1954 0
-1270 -1956 0
-1271 -1957 0
-1272 -1958 0
-1275 -1392 0
-1276 -1393 0
-1279 -1396 0
-1275 -1444 0
-1276 -1445 0
-1277 -1447 0
-1279 -1448 0
-1275 -1450 0
-1276 -1451 0
-1277 -1453 0
-1278 -1455 0
-1279 -1456 0
-1273 -1470 0
-1275 -1472 0
-1276 -1473 0
-1277 -1475 0
-1279 -1477 0
-1273 -1485 0
-1276 -1487 0
-1277 -1488 0
-1278 -1490 0
-1279 -1491 0
-1276 -1494 0
-1277 -1496 0
-1278 -1497 0
-1279 -1498 0
-1273 -1509 0
-1274 -1510 0
-1277 -1511 0
-1279 -1513 0
-1273 -1515 0
-1275 -1516 0
-1279 -1519 0
-1274 -1528 0
-1277 -1530 0
-1279 -1531 0
-1273 -1533 0
-1275 -1534 0
-1277 -1535 0
-1278 -1537 0
-1279 -1538 0
-1273 -1547 0
-1275 -1548 0
-1277 -1549 0
-1278 -1550 0
-1279 -1551 0
-1274 -1554 0
-1275 -1555 0
-1277 -1556 0
-1278 -1557 0
-1279 -1558 0
-1275 -1569 0
-1277 -1571 0
-1278 -1573 0
-1279 -1574 0
-1275 -1582 0
-1276 -1583 0
-1277 -1584 0
-1278 -1585 0
-1279 -1586 0
-1273 -1600 0
-1274 -1601 0
-1276 -1602 0
-1277 -1604 0
-1279 -1606 0
-1273 -1608 0
-1275 -1609 0
-1276 -1610 0
-1277 -1612 0
-1279 -1613 0
-1273 -1622 0
-1276 -1623 0
-1279 -1626 0
-1274 -1629 0
-1276 -1630 0
-1279 -1633 0
-1273 -1634 0
-1275 -1635 0
-1276 -1636 0
-1278 -1638 0
-1279 -1639 0
-1274 -1647 0
-1275 -1648 0
-1276 -1649 0
-1277 -1651 0
-1278 -1653 0
-1279 -1654 0
-1275 -1663 0
-1276 -1664 0
-1278 -1666 0
-1279 -1667 0
-1275 -1676 0
-1277 -1678 0
-1279 -1680 0
-1274 -1688 0
-1275 -1689 0
-1277 -1691 0
-1279 -1693 0
-1274 -1703 0
-1275 -1704 0
-1279 -1706 0
-1274 -1723 0
-1275 -1724 0
-1277 -1726 0
-1278 -1727 0
-1279 -1728 0
-1274 -1756 0
-1275 -1757 0
-1276 -1758 0
-1279 -1761 0
-1275 -1795 0
-1276 -1796 0
-1277 -1797 0
-1278 -1798 0
-1279 -1799 0
-1274 -1806 0
-1276 -1807 0
-1277 -1809 0
-1278 -1810 0
-1279 -1811 0
-1275 -1813 0
-1276 -1814 0
-1278 -1816 0
-1279 -1817 0
-1274 -1830 0
-1275 -1831 0
-1276 -1832 0
-1279 -1835 0
-1275 -1836 0
-1276 -1837 0
-1277 -1839 0
-1278 -1841 0
-1279 -1842 0
-1275 -1880 0
-1277 -1882 0
-1278 -1883 0
-1279 -1884 0
-1277 -1895 0
-1278 -1897 0
-1279 -1898 0
-1276 -1906 0
-1277 -1908 0
-1279 -1910 0
-1275 -1920 0
-1276 -1921 0
-1279 -1924 0
-1275 -1926 0
-1276 -1927 0
-1278 -1929 0
-1279 -1930 0
-1276 -1938 0
-1277 -1939 0
-1278 -1941 0
-1279 -1942 0
-1283 -1385 0
-1284 -1387 0
-1285 -1388 0
-1286 -1389 0
-1282 -1397 0
-1283 -1399 0
-1284 -1401 0
-1285 -1402 0
-1286 -1403 0
-1284 -1440 0
-1285 -1441 0
-1286 -1442 0
-1280 -1464 0
-1283 -1466 0
-1285 -1467 0
-1286 -1468 0
-1280 -1478 0
-1282 -1480 0
-1283 -1481 0
-1285 -1483 0
-1286 -1484 0
-1283 -1495 0
-1285 -1497 0
-1286 -1498 0
-1280 -1500 0
-1281 -1501 0
-1282 -1502 0
-1283 -1504 0
-1285 -1506 0
-1286 -1507 0
-1280 -1521 0
-1285 -1524 0
-1286 -1525 0
-1281 -1528 0
-1283 -1529 0
-1286 -1531 0
-1280 -1540 0
-1282 -1541 0
-1283 -1543 0
-1286 -1545 0
-1280 -1547 0
-1282 -1548 0
-1285 -1550 0
-1286 -1551 0
-1281 -1554 0
-1282 -1555 0
-1285 -1557 0
-1286 -1558 0
-1286 -1580 0
-1282 -1588 0
-1283 -1589 0
-1284 -1591 0
-1286 -1592 0
-1280 -1593 0
-1281 -1594 0
-1282 -1595 0
-1283 -1596 0
-1284 -1597 0
-1285 -1598 0
-1286 -1599 0
-1280 -1615 0
-1283 -1617 0
-1284 -1618 0
-1285 -1619 0
-1286 -1620 0
-1280 -1622 0
-1283 -1624 0
-1284 -1625 0
-1286 -1626 0
-1281 -1629 0
-1283 -1631 0
-1284 -1632 0
-1286 -1633 0
-1280 -1640 0
-1282 -1641 0
-1284 -1644 0
-1286 -1645 0
-1281 -1647 0
-1282 -1648 0
-1283 -1650 0
-1284 -1652 0
-1285 -1653 0
-1286 -1654 0
-1283 -1671 0
-1284 -1673 0
-1286 -1674 0
-1283 -1683 0
-1284 -1684 0
-1285 -1685 0
-1286 -1686 0
-1281 -1688 0
-1282 -1689 0
-1283 -1690 0
-1284 -1692 0
-1286 -1693 0
-1281 -1709 0
-1283 -1711 0
-1284 -1713 0
-1285 -1714 0
-1286 -1715 0
-1281 -1730 0
-1282 -1731 0
-1284 -1734 0
-1286 -1735 0
-1281 -1762 0
-1282 -1763 0
-1284 -1765 0
-1285 -1766 0
-1286 -1767 0
-1283 -1790 0
-1284 -1791 0
-1285 -1792 0
-1286 -1793 0
-1281 -1800 0
-1282 -1801 0
-1284 -1803 0
-1285 -1804 0
-1286 -1805 0
-1283 -1820 0
-1284 -1822 0
-1286 -1823 0
-1281 -1824 0
-1283 -1826 0
-1285 -1828 0
-1286 -1829 0
-1282 -1880 0
-1283 -1881 0
-1285 -1883 0
-1286 -1884 0
-1282 -1887 0
-1285 -1890 0
-1286 -1891 0
-1283 -1907 0
-1284 -1909 0
-1286 -1910 0
-1283 -1913 0
-1284 -1915 0
-1285 -1916 0
-1286 -1917 0
-1282 -1926 0
-1284 -1928 0
-1285 -1929 0
-1286 -1930 0
-1282 -1932 0
-1283 -1933 0
-1284 -1934 0
-1285 -1935 0
-1286 -1936 0
-1282 -1943 0
-1283 -1945 0
-1284 -1947 0
-1285 -1948 0
-1286 -1949 0
-1289 -1378 0
-1290 -1380 0
-1292 -1381 0
-1293 -1382 0
-1288 -1457 0
-1290 -1459 0
-1291 -1460 0
-1292 -1461 0
-1293 -1462 0
-1287 -1469 0
-1288 -1470 0
-1289 -1472 0
-1290 -1475 0
-1291 -1476 0
-1293 -1477 0
-1288 -1478 0
-1289 -1480 0
-1290 -1482 0
-1292 -1483 0
-1293 -1484 0
-1287 -1492 0
-1290 -1496 0
-1292 -1497 0
-1293 -1498 0
-1287 -1499 0
-1288 -1500 0
-1289 -1502 0
-1290 -1505 0
-1292 -1506 0
-1293 -1507 0
-1287 -1520 0
-1288 -1521 0
-1290 -1523 0
-1292 -1524 0
-1293 -1525 0
-1287 -1526 0
-1290 -1530 0
-1293 -1531 0
-1287 -1532 0
-1288 -1533 0
-1289 -1534 0
-1290 -1535 0
-1291 -1536 0
-1292 -1537 0
-1293 -1538 0
-1287 -1559 0
-1289 -1561 0
-1290 -1563 0
-1291 -1564 0
-1293 -1565 0
-1287 -1567 0
-1289 -1569 0
-1290 -1571 0
-1291 -1572 0
-1292 -1573 0
-1293 -1574 0
-1288 -1593 0
-1289 -1595 0
-1291 -1597 0
-1292 -1598 0
-1293 -1599 0
-1287 -1614 0
-1288 -1615 0
-1291 -1618 0
-1292 -1619 0
-1293 -1620 0
-1288 -1622 0
-1291 -1625 0
-1293 -1626 0
-1287 -1627 0
-1291 -1632 0
-1293 -1633 0
-1288 -1634 0
-1289 -1635 0
-1292 -1638 0
-1293 -1639 0
-1287 -1655 0
-1289 -1657 0
-1293 -1660 0
-1289 -1663 0
-1292 -1666 0
-1293 -1667 0
-1289 -1676 0
-1290 -1678 0
-1291 -1679 0
-1293 -1680 0
-1287 -1694 0
-1289 -1696 0
-1292 -1699 0
-1293 -1700 0
-1287 -1702 0
-1289 -1704 0
-1293 -1706 0
-1287 -1737 0
-1289 -1738 0
-1291 -1741 0
-1293 -1742 0
-1287 -1768 0
-1289 -1769 0
-1290 -1771 0
-1292 -1772 0
-1293 -1773 0
-1289 -1795 0
-1290 -1797 0
-1292 -1798 0
-1293 -1799 0
-1289 -1801 0
-1290 -1802 0
-1291 -1803 0
-1292 -1804 0
-1293 -1805 0
-1287 -1818 0
-1290 -1821 0
-1291 -1822 0
-1293 -1823 0
-1289 -1831 0
-1291 -1834 0
-1293 -1835 0
-1287 -1851 0
-1288 -1852 0
-1289 -1853 0
-1290 -1854 0
-1291 -1855 0
-1292 -1856 0
-1293 -1857 0
-1287 -1865 0
-1290 -1867 0
-1291 -1868 0
-1292 -1869 0
-1293 -1870 0
-1287 -1871 0
-1290 -1874 0
-1291 -1875 0
-1292 -1876 0
-1293 -1877 0
-1287 -1879 0
-1289 -1880 0
-1290 -1882 0
-1292 -1883 0
-1293 -1884 0
-1287 -1886 0
-1289 -1887 0
-1290 -1889 0
-1292 -1890 0
-1293 -1891 0
-1287 -1899 0
-1291 -1902 0
-1292 -1903 0
-1293 -1904 0
-1287 -1919 0
-1289 -1920 0
-1291 -1923 0
-1293 -1924 0
-1287 -1925 0
-1289 -1926 0
-1291 -1928 0
-1292 -1929 0
-1293 -1930 0
-1289 -1932 0
-1291 -1934 0
-1292 -1935 0
-1293 -1936 0
-1289 -1943 0
-1290 -1946 0
-1291 -1947 0
-1292 -1948 0
-1293 -1949 0
-1289 -1952 0
-1290 -1955 0
-1291 -1956 0
-1292 -1957 0
-1293 -1958 0
-1297 -1371 0
-1298 -1372 0
-1300 -1375 0
-1296 -1397 0
-1297 -1398 0
-1298 -1399 0
-1299 -1400 0
-1300 -1403 0
-1295 -1457 0
-1298 -1458 0
-1299 -1459 0
-1300 -1462 0
-1294 -1463 0
-1295 -1464 0
-1298 -1466 0
-1300 -1468 0
-1295 -1485 0
-1297 -1487 0
-1299 -1488 0
-1300 -1491 0
-1294 -1492 0
-1297 -1494 0
-1298 -1495 0
-1299 -1496 0
-1300 -1498 0
-1294 -1508 0
-1295 -1509 0
-1299 -1511 0
-1300 -1513 0
-1294 -1514 0
-1295 -1515 0
-1296 -1516 0
-1298 -1517 0
-1300 -1519 0
-1294 -1526 0
-1298 -1529 0
-1299 -1530 0
-1300 -1531 0
-1294 -1539 0
-1295 -1540 0
-1296 -1541 0
-1297 -1542 0
-1298 -1543 0
-1299 -1544 0
-1300 -1545 0
-1294 -1559 0
-1296 -1561 0
-1297 -1562 0
-1299 -1563 0
-1300 -1565 0
-1294 -1576 0
-1297 -1578 0
-1299 -1579 0
-1300 -1580 0
-1295 -1600 0
-1297 -1602 0
-1298 -1603 0
-1299 -1604 0
-1300 -1606 0
-1294 -1607 0
-1295 -1608 0
-1296 -1609 0
-1297 -1610 0
-1298 -1611 0
-1299 -1612 0
-1300 -1613 0
-1295 -1622 0
-1297 -1623 0
-1298 -1624 0
-1300 -1626 0
-1294 -1627 0
-1297 -1630 0
-1298 -1631 0
-1300 -1633 0
-1295 -1640 0
-1296 -1641 0
-1297 -1642 0
-1299 -1643 0
-1300 -1645 0
-1294 -1655 0
-1296 -1657 0
-1297 -1658 0
-1298 -1659 0
-1300 -1660 0
-1297 -1670 0
-1298 -1671 0
-1299 -1672 0
-1300 -1674 0
-1297 -1682 0
-1298 -1683 0
-1300 -1686 0
-1294 -1694 0
-1296 -1696 0
-1297 -1697 0
-1298 -1698 0
-1300 -1700 0
-1294 -1708 0
-1297 -1710 0
-1298 -1711 0
-1299 -1712 0
-1300 -1715 0
-1294 -1744 0
-1296 -1745 0
-1297 -1746 0
-1299 -1747 0
-1300 -1749 0
-1294 -1774 0
-1296 -1775 0
-1297 -1776 0
-1300 -1779 0
-1297 -1789 0
-1298 -1790 0
-1300 -1793 0
-1297 -1807 0
-1298 -1808 0
-1299 -1809 0
-1300 -1811 0
-1294 -1812 0
-1296 -1813 0
-1297 -1814 0
-1300 -1817 0
-1297 -1825 0
-1298 -1826 0
-1299 -1827 0
-1300 -1829 0
-1296 -1836 0
-1297 -1837 0
-1298 -1838 0
-1299 -1839 0
-1300 -1842 0
-1294 -1844 0
-1295 -1845 0
-1297 -1846 0
-1298 -1847 0
-1300 -1850 0
-1294 -1865 0
-1299 -1867 0
-1300 -1870 0
-1294 -1871 0
-1297 -1873 0
-1299 -1874 0
-1300 -1877 0
-1294 -1879 0
-1296 -1880 0
-1298 -1881 0
-1299 -1882 0
-1300 -1884 0
-1294 -1893 0
-1298 -1894 0
-1299 -1895 0
-1300 -1898 0
-1294 -1899 0
-1298 -1901 0
-1300 -1904 0
-1294 -1912 0
-1298 -1913 0
-1299 -1914 0
-1300 -1917 0
-1294 -1925 0
-1296 -1926 0
-1297 -1927 0
-1300 -1930 0
-1297 -1938 0
-1299 -1939 0
-1300 -1942 0
-1304 -1397 0
-1305 -1400 0
-1306 -1402 0
-1307 -1403 0
-1305 -1459 0
-1306 -1461 0
-1307 -1462 0
-1302 -1479 0
-1304 -1480 0
-1305 -1482 0
-1306 -1483 0
-1307 -1484 0
-1302 -1486 0
-1305 -1488 0
-1306 -1490 0
-1307 -1491 0
-1301 -1499 0
-1303 -1501 0
-1304 -1502 0
-1305 -1505 0
-1306 -1506 0
-1307 -1507 0
-1301 -1508 0
-1303 -1510 0
-1305 -1511 0
-1307 -1513 0
-1301 -1514 0
-1304 -1516 0
-1307 -1519 0
-1301 -1520 0
-1305 -1523 0
-1306 -1524 0
-1307 -1525 0
-1301 -1552 0
-1302 -1553 0
-1303 -1554 0
-1304 -1555 0
-1305 -1556 0
-1306 -1557 0
-1307 -1558 0
-1301 -1559 0
-1302 -1560 0
-1304 -1561 0
-1305 -1563 0
-1307 -1565 0
-1301 -1567 0
-1302 -1568 0
-1304 -1569 0
-1305 -1571 0
-1306 -1573 0
-1307 -1574 0
-1301 -1576 0
-1302 -1577 0
-1305 -1579 0
-1307 -1580 0
-1303 -1594 0
-1304 -1595 0
-1306 -1598 0
-1307 -1599 0
-1303 -1601 0
-1305 -1604 0
-1307 -1606 0
-1301 -1607 0
-1304 -1609 0
-1305 -1612 0
-1307 -1613 0
-1301 -1614 0
-1306 -1619 0
-1307 -1620 0
-1307 -1626 0
-1302 -1646 0
-1303 -1647 0
-1304 -1648 0
-1305 -1651 0
-1306 -1653 0
-1307 -1654 0
-1301 -1655 0
-1302 -1656 0
-1304 -1657 0
-1307 -1660 0
-1302 -1662 0
-1304 -1663 0
-1306 -1666 0
-1307 -1667 0
-1302 -1669 0
-1305 -1672 0
-1307 -1674 0
-1302 -1675 0
-1304 -1676 0
-1305 -1678 0
-1307 -1680 0
-1302 -1681 0
-1306 -1685 0
-1307 -1686 0
-1301 -1687 0
-1303 -1688 0
-1304 -1689 0
-1305 -1691 0
-1307 -1693 0
-1301 -1694 0
-1303 -1695 0
-1304 -1696 0
-1306 -1699 0
-1307 -1700 0
-1301 -1702 0
-1303 -1703 0
-1304 -1704 0
-1307 -1706 0
-1301 -1708 0
-1303 -1709 0
-1305 -1712 0
-1306 -1714 0
-1307 -1715 0
-1303 -1800 0
-1304 -1801 0
-1305 -1802 0
-1306 -1804 0
-1307 -1805 0
-1303 -1806 0
-1305 -1809 0
-1306 -1810 0
-1307 -1811 0
-1301 -1812 0
-1304 -1813 0
-1306 -1816 0
-1307 -1817 0
-1301 -1818 0
-1305 -1821 0
-1307 -1823 0
-1304 -1836 0
-1305 -1839 0
-1306 -1841 0
-1307 -1842 0
-1301 -1879 0
-1304 -1880 0
-1305 -1882 0
-1306 -1883 0
-1307 -1884 0
-1301 -1886 0
-1304 -1887 0
-1305 -1889 0
-1306 -1890 0
-1307 -1891 0
-1301 -1893 0
-1305 -1895 0
-1306 -1897 0
-1307 -1898 0
-1301 -1925 0
-1304 -1926 0
-1306 -1929 0
-1307 -1930 0
-1304 -1932 0
-1306 -1935 0
-1307 -1936 0
-1305 -1939 0
-1306 -1941 0
-1307 -1942 0
-1304 -1943 0
-1305 -1946 0
-1306 -1948 0
-1307 -1949 0
-1310 -1428 0
-1311 -1429 0
-1313 -1430 0
-1309 -1452 0
-1310 -1453 0
-1311 -1454 0
-1312 -1455 0
-1313 -1456 0
-1308 -1457 0
-1309 -1458 0
-1310 -1459 0
-1311 -1460 0
-1312 -1461 0
-1313 -1462 0
-1308 -1464 0
-1309 -1466 0
-1312 -1467 0
-1313 -1468 0
-1308 -1485 0
-1310 -1488 0
-1311 -1489 0
-1312 -1490 0
-1313 -1491 0
-1309 -1495 0
-1310 -1496 0
-1312 -1497 0
-1313 -1498 0
-1308 -1500 0
-1309 -1504 0
-1310 -1505 0
-1312 -1506 0
-1313 -1507 0
-1308 -1515 0
-1309 -1517 0
-1311 -1518 0
-1313 -1519 0
-1308 -1540 0
-1309 -1543 0
-1310 -1544 0
-1313 -1545 0
-1308 -1547 0
-1310 -1549 0
-1312 -1550 0
-1313 -1551 0
-1310 -1556 0
-1312 -1557 0
-1313 -1558 0
-1310 -1563 0
-1311 -1564 0
-1313 -1565 0
-1309 -1570 0
-1310 -1571 0
-1311 -1572 0
-1312 -1573 0
-1313 -1574 0
-1310 -1584 0
-1312 -1585 0
-1313 -1586 0
-1308 -1593 0
-1309 -1596 0
-1311 -1597 0
-1312 -1598 0
-1313 -1599 0
-1308 -1608 0
-1309 -1611 0
-1310 -1612 0
-1313 -1613 0
-1308 -1640 0
-1310 -1643 0
-1311 -1644 0
-1313 -1645 0
-1309 -1650 0
-1310 -1651 0
-1311 -1652 0
-1312 -1653 0
-1313 -1654 0
-1309 -1659 0
-1313 -1660 0
-1309 -1665 0
-1312 -1666 0
-1313 -1667 0
-1310 -1720 0
-1313 -1721 0
-1309 -1725 0
-1310 -1726 0
-1312 -1727 0
-1313 -1728 0
-1309 -1740 0
-1311 -1741 0
-1313 -1742 0
-1310 -1797 0
-1312 -1798 0
-1313 -1799 0
-1309 -1808 0
-1310 -1809 0
-1312 -1810 0
-1313 -1811 0
-1309 -1820 0
-1310 -1821 0
-1311 -1822 0
-1313 -1823 0
-1309 -1826 0
-1310 -1827 0
-1312 -1828 0
-1313 -1829 0
-1308 -1852 0
-1310 -1854 0
-1311 -1855 0
-1312 -1856 0
-1313 -1857 0
-1309 -1861 0
-1311 -1862 0
-1312 -1863 0
-1313 -1864 0
-1310 -1874 0
-1311 -1875 0
-1312 -1876 0
-1313 -1877 0
-1309 -1894 0
-1310 -1895 0
-1311 -1896 0
-1312 -1897 0
-1313 -1898 0
-1309 -1901 0
-1311 -1902 0
-1312 -1903 0
-1313 -1904 0
-1309 -1907 0
-1310 -1908 0
-1311 -1909 0
-1313 -1910 0
-1309 -1913 0
-1310 -1914 0
-1311 -1915 0
-1312 -1916 0
-1313 -1917 0
-1310 -1939 0
-1311 -1940 0
-1312 -1941 0
-1313 -1942 0
-1309 -1945 0
-1310 -1946 0
-1311 -1947 0
-1312 -1948 0
-1313 -1949 0
-1315 -1419 0
-1317 -1420 0
-1318 -1422 0
-1319 -1423 0
-1314 -1457 0
-1317 -1458 0
-1318 -1461 0
-1319 -1462 0
-1314 -1470 0
-1315 -1472 0
-1316 -1473 0
-1317 -1474 0
-1319 -1477 0
-1314 -1478 0
-1315 -1480 0
-1317 -1481 0
-1318 -1483 0
-1319 -1484 0
-1316 -1494 0
-1317 -1495 0
-1318 -1497 0
-1319 -1498 0
-1314 -1509 0
-1319 -1513 0
-1314 -1521 0
-1316 -1522 0
-1318 -1524 0
-1319 -1525 0
-1314 -1533 0
-1315 -1534 0
-1318 -1537 0
-1319 -1538 0
-1314 -1547 0
-1315 -1548 0
-1318 -1550 0
-1319 -1551 0
-1315 -1555 0
-1318 -1557 0
-1319 -1558 0
-1315 -1561 0
-1316 -1562 0
-1319 -1565 0
-1316 -1578 0
-1319 -1580 0
-1315 -1588 0
-1317 -1589 0
-1319 -1592 0
-1314 -1600 0
-1316 -1602 0
-1317 -1603 0
-1319 -1606 0
-1314 -1615 0
-1316 -1616 0
-1317 -1617 0
-1318 -1619 0
-1319 -1620 0
-1314 -1634 0
-1315 -1635 0
-1316 -1636 0
-1317 -1637 0
-1318 -1638 0
-1319 -1639 0
-1315 -1648 0
-1316 -1649 0
-1317 -1650 0
-1318 -1653 0
-1319 -1654 0
-1315 -1657 0
-1316 -1658 0
-1317 -1659 0
-1319 -1660 0
-1316 -1670 0
-1317 -1671 0
-1319 -1674 0
-1315 -1718 0
-1316 -1719 0
-1319 -1721 0
-1315 -1731 0
-1316 -1732 0
-1319 -1735 0
-1315 -1745 0
-1316 -1746 0
-1318 -1748 0
-1319 -1749 0
-1315 -1781 0
-1316 -1782 0
-1317 -1783 0
-1318 -1786 0
-1319 -1787 0
-1316 -1789 0
-1317 -1790 0
-1318 -1792 0
-1319 -1793 0
-1315 -1801 0
-1318 -1804 0
-1319 -1805 0
-1315 -1813 0
-1316 -1814 0
-1318 -1816 0
-1319 -1817 0
-1315 -1831 0
-1316 -1832 0
-1317 -1833 0
-1319 -1835 0
-1315 -1836 0
-1316 -1837 0
-1317 -1838 0
-1318 -1841 0
-1319 -1842 0
-1314 -1845 0
-1316 -1846 0
-1317 -1847 0
-1318 -1849 0
-1319 -1850 0
-1315 -1860 0
-1317 -1861 0
-1318 -1863 0
-1319 -1864 0
-1316 -1873 0
-1318 -1876 0
-1319 -1877 0
-1315 -1887 0
-1316 -1888 0
-1318 -1890 0
-1319 -1891 0
-1317 -1901 0
-1318 -1903 0
-1319 -1904 0
-1316 -1906 0
-1317 -1907 0
-1319 -1910 0
-1315 -1920 0
-1316 -1921 0
-1317 -1922 0
-1319 -1924 0
-1315 -1932 0
-1317 -1933 0
-1318 -1935 0
-1319 -1936 0
-1322 -1450 0
-1323 -1452 0
-1324 -1455 0
-1325 -1456 0
-1323 -1458 0
-1324 -1461 0
-1325 -1462 0
-1320 -1465 0
-1323 -1466 0
-1324 -1467 0
-1325 -1468 0
-1320 -1471 0
-1322 -1472 0
-1323 -1474 0
-1325 -1477 0
-1321 -1501 0
-1322 -1502 0
-1323 -1504 0
-1324 -1506 0
-1325 -1507 0
-1321 -1510 0
-1325 -1513 0
-1320 -1527 0
-1321 -1528 0
-1323 -1529 0
-1325 -1531 0
-1322 -1534 0
-1324 -1537 0
-1325 -1538 0
-1322 -1541 0
-1323 -1543 0
-1325 -1545 0
-1322 -1548 0
-1324 -1550 0
-1325 -1551 0
-1320 -1560 0
-1322 -1561 0
-1325 -1565 0
-1320 -1568 0
-1322 -1569 0
-1323 -1570 0
-1324 -1573 0
-1325 -1574 0
-1320 -1577 0
-1325 -1580 0
-1320 -1581 0
-1322 -1582 0
-1324 -1585 0
-1325 -1586 0
-1320 -1587 0
-1322 -1588 0
-1323 -1589 0
-1325 -1592 0
-1321 -1594 0
-1322 -1595 0
-1323 -1596 0
-1324 -1598 0
-1325 -1599 0
-1321 -1601 0
-1323 -1603 0
-1325 -1606 0
-1320 -1628 0
-1321 -1629 0
-1323 -1631 0
-1325 -1633 0
-1322 -1635 0
-1323 -1637 0
-1324 -1638 0
-1325 -1639 0
-1322 -1641 0
-1325 -1645 0
-1320 -1656 0
-1322 -1657 0
-1323 -1659 0
-1325 -1660 0
-1320 -1662 0
-1322 -1663 0
-1323 -1665 0
-1324 -1666 0
-1325 -1667 0
-1320 -1669 0
-1323 -1671 0
-1325 -1674 0
-1321 -1688 0
-1322 -1689 0
-1323 -1690 0
-1325 -1693 0
-1321 -1717 0
-1322 -1718 0
-1325 -1721 0
-1321 -1723 0
-1322 -1724 0
-1323 -1725 0
-1324 -1727 0
-1325 -1728 0
-1321 -1730 0
-1322 -1731 0
-1325 -1735 0
-1322 -1813 0
-1324 -1816 0
-1325 -1817 0
-1323 -1820 0
-1325 -1823 0
-1321 -1824 0
-1323 -1826 0
-1324 -1828 0
-1325 -1829 0
-1321 -1830 0
-1322 -1831 0
-1323 -1833 0
-1325 -1835 0
-1322 -1836 0
-1323 -1838 0
-1324 -1841 0
-1325 -1842 0
-1323 -1907 0
-1325 -1910 0
-1323 -1913 0
-1324 -1916 0
-1325 -1917 0
-1322 -1920 0
-1323 -1922 0
-1325 -1924 0
-1322 -1943 0
-1323 -1945 0
-1324 -1948 0
-1325 -1949 0
-1326 -1463 0
-1327 -1465 0
-1330 -1466 0
-1333 -1467 0
-1334 -1468 0
-1326 -1469 0
-1327 -1471 0
-1328 -1472 0
-1329 -1473 0
-1330 -1474 0
-1331 -1475 0
-1332 -1476 0
-1334 -1477 0
-1327 -1479 0
-1328 -1480 0
-1330 -1481 0
-1331 -1482 0
-1333 -1483 0
-1334 -1484 0
-1327 -1486 0
-1329 -1487 0
-1331 -1488 0
-1332 -1489 0
-1333 -1490 0
-1334 -1491 0
-1326 -1514 0
-1328 -1516 0
-1330 -1517 0
-1332 -1518 0
-1334 -1519 0
-1326 -1520 0
-1329 -1522 0
-1331 -1523 0
-1333 -1524 0
-1334 -1525 0
-1326 -1526 0
-1327 -1527 0
-1330 -1529 0
-1331 -1530 0
-1334 -1531 0
-1326 -1532 0
-1328 -1534 0
-1331 -1535 0
-1332 -1536 0
-1333 -1537 0
-1334 -1538 0
-1326 -1539 0
-1328 -1541 0
-1329 -1542 0
-1330 -1543 0
-1331 -1544 0
-1334 -1545 0
-1326 -1552 0
-1327 -1553 0
-1328 -1555 0
-1331 -1556 0
-1333 -1557 0
-1334 -1558 0
-1326 -1567 0
-1327 -1568 0
-1328 -1569 0
-1330 -1570 0
-1331 -1571 0
-1332 -1572 0
-1333 -1573 0
-1334 -1574 0
-1326 -1576 0
-1327 -1577 0
-1329 -1578 0
-1331 -1579 0
-1334 -1580 0
-1326 -1607 0
-1328 -1609 0
-1329 -1610 0
-1330 -1611 0
-1331 -1612 0
-1334 -1613 0
-1326 -1614 0
-1329 -1616 0
-1330 -1617 0
-1332 -1618 0
-1333 -1619 0
-1334 -1620 0
-1326 -1627 0
-1327 -1628 0
-1329 -1630 0
-1330 -1631 0
-1332 -1632 0
-1334 -1633 0
-1328 -1635 0
-1329 -1636 0
-1330 -1637 0
-1333 -1638 0
-1334 -1639 0
-1328 -1641 0
-1329 -1642 0
-1331 -1643 0
-1332 -1644 0
-1334 -1645 0
-1327 -1646 0
-1328 -1648 0
-1329 -1649 0
-1330 -1650 0
-1331 -1651 0
-1332 -1652 0
-1333 -1653 0
-1334 -1654 0
-1327 -1662 0
-1328 -1663 0
-1329 -1664 0
-1330 -1665 0
-1333 -1666 0
-1334 -1667 0
-1327 -1669 0
-1329 -1670 0
-1330 -1671 0
-1331 -1672 0
-1332 -1673 0
-1334 -1674 0
-1326 -1694 0
-1328 -1696 0
-1329 -1697 0
-1330 -1698 0
-1333 -1699 0
-1334 -1700 0
-1326 -1716 0
-1328 -1718 0
-1329 -1719 0
-1331 -1720 0
-1334 -1721 0
-1326 -1737 0
-1328 -1738 0
-1329 -1739 0
-1330 -1740 0
-1332 -1741 0
-1334 -1742 0
-1326 -1744 0
-1328 -1745 0
-1329 -1746 0
-1331 -1747 0
-1333 -1748 0
-1334 -1749 0
-1328 -1801 0
-1331 -1802 0
-1332 -1803 0
-1333 -1804 0
-1334 -1805 0
-1329 -1807 0
-1330 -1808 0
-1331 -1809 0
-1333 -1810 0
-1334 -1811 0
-1329 -1825 0
-1330 -1826 0
-1331 -1827 0
-1333 -1828 0
-1334 -1829 0
-1328 -1831 0
-1329 -1832 0
-1330 -1833 0
-1332 -1834 0
-1334 -1835 0
-1326 -1844 0
-1329 -1846 0
-1330 -1847 0
-1332 -1848 0
-1333 -1849 0
-1334 -1850 0
-1326 -1851 0
-1328 -1853 0
-1331 -1854 0
-1332 -1855 0
-1333 -1856 0
-1334 -1857 0
-1326 -1871 0
-1329 -1873 0
-1331 -1874 0
-1332 -1875 0
-1333 -1876 0
-1334 -1877 0
-1326 -1886 0
-1328 -1887 0
-1329 -1888 0
-1331 -1889 0
-1333 -1890 0
-1334 -1891 0
-1326 -1893 0
-1330 -1894 0
-1331 -1895 0
-1332 -1896 0
-1333 -1897 0
-1334 -1898 0
-1326 -1899 0
-1330 -1901 0
-1332 -1902 0
-1333 -1903 0
-1334 -1904 0
-1326 -1912 0
-1330 -1913 0
-1331 -1914 0
-1332 -1915 0
-1333 -1916 0
-1334 -1917 0
-1326 -1919 0
-1328 -1920 0
-1329 -1921 0
-1330 -1922 0
-1332 -1923 0
-1334 -1924 0
-1328 -1932 0
-1330 -1933 0
-1332 -1934 0
-1333 -1935 0
-1334 -1936 0
-1329 -1938 0
-1331 -1939 0
-1332 -1940 0
-1333 -1941 0
-1334 -1942 0
-1337 -1450 0
-1338 -1453 0
-1339 -1454 0
-1340 -1455 0
-1341 -1456 0
-1338 -1459 0
-1339 -1460 0
-1340 -1461 0
-1341 -1462 0
-1336 -1471 0
-1337 -1472 0
-1338 -1475 0
-1339 -1476 0
-1341 -1477 0
-1336 -1486 0
-1338 -1488 0
-1339 -1489 0
-1340 -1490 0
-1341 -1491 0
-1337 -1502 0
-1338 -1505 0
-1340 -1506 0
-1341 -1507 0
-1337 -1516 0
-1339 -1518 0
-1341 -1519 0
-1336 -1527 0
-1338 -1530 0
-1341 -1531 0
-1337 -1534 0
-1338 -1535 0
-1339 -1536 0
-1340 -1537 0
-1341 -1538 0
-1335 -1546 0
-1337 -1548 0
-1338 -1549 0
-1340 -1550 0
-1341 -1551 0
-1336 -1553 0
-1337 -1555 0
-1338 -1556 0
-1340 -1557 0
-1341 -1558 0
-1336 -1560 0
-1337 -1561 0
-1338 -1563 0
-1339 -1564 0
-1341 -1565 0
-1335 -1575 0
-1336 -1577 0
-1338 -1579 0
-1341 -1580 0
-1336 -1581 0
-1337 -1582 0
-1338 -1584 0
-1340 -1585 0
-1341 -1586 0
-1337 -1595 0
-1339 -1597 0
-1340 -1598 0
-1341 -1599 0
-1337 -1609 0
-1338 -1612 0
-1341 -1613 0
-1335 -1621 0
-1339 -1625 0
-1341 -1626 0
-1336 -1628 0
-1339 -1632 0
-1341 -1633 0
-1337 -1635 0
-1340 -1638 0
-1341 -1639 0
-1336 -1646 0
-1337 -1648 0
-1338 -1651 0
-1339 -1652 0
-1340 -1653 0
-1341 -1654 0
-1336 -1656 0
-1337 -1657 0
-1341 -1660 0
-1335 -1668 0
-1336 -1669 0
-1338 -1672 0
-1339 -1673 0
-1341 -1674 0
-1336 -1675 0
-1337 -1676 0
-1338 -1678 0
-1339 -1679 0
-1341 -1680 0
-1335 -1701 0
-1337 -1704 0
-1341 -1706 0
-1335 -1722 0
-1337 -1724 0
-1338 -1726 0
-1340 -1727 0
-1341 -1728 0
-1335 -1736 0
-1337 -1738 0
-1339 -1741 0
-1341 -1742 0
-1335 -1750 0
-1337 -1751 0
-1338 -1754 0
-1341 -1755 0
-1338 -1809 0
-1340 -1810 0
-1341 -1811 0
-1338 -1821 0
-1339 -1822 0
-1341 -1823 0
-1337 -1831 0
-1339 -1834 0
-1341 -1835 0
-1337 -1853 0
-1338 -1854 0
-1339 -1855 0
-1340 -1856 0
-1341 -1857 0
-1338 -1874 0
-1339 -1875 0
-1340 -1876 0
-1341 -1877 0
-1337 -1880 0
-1338 -1882 0
-1340 -1883 0
-1341 -1884 0
-1335 -1892 0
-1338 -1895 0
-1339 -1896 0
-1340 -1897 0
-1341 -1898 0
-1339 -1902 0
-1340 -1903 0
-1341 -1904 0
-1338 -1908 0
-1339 -1909 0
-1341 -1910 0
-1335 -1918 0
-1337 -1920 0
-1339 -1923 0
-1341 -1924 0
-1337 -1926 0
-1339 -1928 0
-1340 -1929 0
-1341 -1930 0
-1335 -1937 0
-1338 -1939 0
-1339 -1940 0
-1340 -1941 0
-1341 -1942 0
-1337 -1943 0
-1338 -1946 0
-1339 -1947 0
-1340 -1948 0
-1341 -1949 0
-1344 -1397 0
-1345 -1398 0
-1346 -1399 0
-1347 -1402 0
-1348 -1403 0
-1346 -1458 0
-1347 -1461 0
-1348 -1462 0
-1343 -1465 0
-1346 -1466 0
-1347 -1467 0
-1348 -1468 0
-1343 -1479 0
-1344 -1480 0
-1346 -1481 0
-1347 -1483 0
-1348 -1484 0
-1348 -1513 0
-1345 -1522 0
-1347 -1524 0
-1348 -1525 0
-1343 -1527 0
-1346 -1529 0
-1348 -1531 0
-1344 -1541 0
-1345 -1542 0
-1346 -1543 0
-1348 -1545 0
-1342 -1546 0
-1344 -1548 0
-1347 -1550 0
-1348 -1551 0
-1343 -1553 0
-1344 -1555 0
-1347 -1557 0
-1348 -1558 0
-1343 -1560 0
-1344 -1561 0
-1345 -1562 0
-1348 -1565 0
-1342 -1566 0
-1343 -1568 0
-1344 -1569 0
-1346 -1570 0
-1347 -1573 0
-1348 -1574 0
-1343 -1587 0
-1344 -1588 0
-1346 -1589 0
-1348 -1592 0
-1345 -1602 0
-1346 -1603 0
-1348 -1606 0
-1345 -1616 0
-1346 -1617 0
-1347 -1619 0
-1348 -1620 0
-1342 -1621 0
-1345 -1623 0
-1346 -1624 0
-1348 -1626 0
-1343 -1628 0
-1345 -1630 0
-1346 -1631 0
-1348 -1633 0
-1344 -1641 0
-1345 -1642 0
-1348 -1645 0
-1343 -1646 0
-1344 -1648 0
-1345 -1649 0
-1346 -1650 0
-1347 -1653 0
-1348 -1654 0
-1343 -1656 0
-1344 -1657 0
-1345 -1658 0
-1346 -1659 0
-1348 -1660 0
-1342 -1661 0
-1343 -1662 0
-1344 -1663 0
-1345 -1664 0
-1346 -1665 0
-1347 -1666 0
-1348 -1667 0
-1343 -1681 0
-1345 -1682 0
-1346 -1683 0
-1347 -1685 0
-1348 -1686 0
-1342 -1707 0
-1345 -1710 0
-1346 -1711 0
-1347 -1714 0
-1348 -1715 0
-1342 -1729 0
-1344 -1731 0
-1345 -1732 0
-1348 -1735 0
-1342 -1743 0
-1344 -1745 0
-1345 -1746 0
-1347 -1748 0
-1348 -1749 0
-1342 -1750 0
-1344 -1751 0
-1345 -1752 0
-1346 -1753 0
-1348 -1755 0
-1344 -1801 0
-1347 -1804 0
-1348 -1805 0
-1344 -1813 0
-1345 -1814 0
-1347 -1816 0
-1348 -1817 0
-1345 -1825 0
-1346 -1826 0
-1347 -1828 0
-1348 -1829 0
-1344 -1836 0
-1345 -1837 0
-1346 -1838 0
-1347 -1841 0
-1348 -1842 0
-1345 -1846 0
-1346 -1847 0
-1347 -1849 0
-1348 -1850 0
-1345 -1873 0
-1347 -1876 0
-1348 -1877 0
-1344 -1880 0
-1346 -1881 0
-1347 -1883 0
-1348 -1884 0
-1342 -1885 0
-1344 -1887 0
-1345 -1888 0
-1347 -1890 0
-1348 -1891 0
-1346 -1901 0
-1347 -1903 0
-1348 -1904 0
-1345 -1906 0
-1346 -1907 0
-1348 -1910 0
-1342 -1911 0
-1346 -1913 0
-1347 -1916 0
-1348 -1917 0
-1344 -1926 0
-1345 -1927 0
-1347 -1929 0
-1348 -1930 0
-1342 -1931 0
-1344 -1932 0
-1346 -1933 0
-1347 -1935 0
-1348 -1936 0
-1352 -1438 0
-1354 -1441 0
-1355 -1442 0
-1351 -1444 0
-1352 -1445 0
-1353 -1446 0
-1355 -1448 0
-1351 -1450 0
-1352 -1451 0
-1353 -1452 0
-1354 -1455 0
-1355 -1456 0
-1353 -1458 0
-1354 -1461 0
-1355 -1462 0
-1349 -1463 0
-1353 -1466 0
-1354 -1467 0
-1355 -1468 0
-1349 -1469 0
-1351 -1472 0
-1352 -1473 0
-1353 -1474 0
-1355 -1477 0
-1351 -1480 0
-1353 -1481 0
-1354 -1483 0
-1355 -1484 0
-1352 -1487 0
-1354 -1490 0
-1355 -1491 0
-1349 -1492 0
-1352 -1494 0
-1353 -1495 0
-1354 -1497 0
-1355 -1498 0
-1349 -1514 0
-1351 -1516 0
-1353 -1517 0
-1355 -1519 0
-1349 -1520 0
-1352 -1522 0
-1354 -1524 0
-1355 -1525 0
-1349 -1532 0
-1351 -1534 0
-1354 -1537 0
-1355 -1538 0
-1349 -1539 0
-1351 -1541 0
-1352 -1542 0
-1353 -1543 0
-1355 -1545 0
-1351 -1548 0
-1354 -1550 0
-1355 -1551 0
-1349 -1559 0
-1351 -1561 0
-1352 -1562 0
-1355 -1565 0
-1349 -1567 0
-1351 -1569 0
-1353 -1570 0
-1354 -1573 0
-1355 -1574 0
-1349 -1576 0
-1352 -1578 0
-1355 -1580 0
-1351 -1582 0
-1352 -1583 0
-1354 -1585 0
-1355 -1586 0
-1351 -1588 0
-1353 -1589 0
-1355 -1592 0
-1350 -1594 0
-1351 -1595 0
-1353 -1596 0
-1354 -1598 0
-1355 -1599 0
-1350 -1601 0
-1352 -1602 0
-1353 -1603 0
-1355 -1606 0
-1349 -1627 0
-1350 -1629 0
-1352 -1630 0
-1353 -1631 0
-1355 -1633 0
-1350 -1647 0
-1351 -1648 0
-1352 -1649 0
-1353 -1650 0
-1354 -1653 0
-1355 -1654 0
-1349 -1694 0
-1350 -1695 0
-1351 -1696 0
-1352 -1697 0
-1353 -1698 0
-1354 -1699 0
-1355 -1700 0
-1349 -1702 0
-1350 -1703 0
-1351 -1704 0
-1353 -1705 0
-1355 -1706 0
-1349 -1708 0
-1350 -1709 0
-1352 -1710 0
-1353 -1711 0
-1354 -1714 0
-1355 -1715 0
-1349 -1716 0
-1350 -1717 0
-1351 -1718 0
-1352 -1719 0
-1355 -1721 0
-1350 -1723 0
-1351 -1724 0
-1353 -1725 0
-1354 -1727 0
-1355 -1728 0
-1350 -1730 0
-1351 -1731 0
-1352 -1732 0
-1355 -1735 0
-1350 -1756 0
-1351 -1757 0
-1352 -1758 0
-1353 -1759 0
-1355 -1761 0
-1350 -1762 0
-1351 -1763 0
-1354 -1766 0
-1355 -1767 0
-1352 -1789 0
-1353 -1790 0
-1354 -1792 0
-1355 -1793 0
-1351 -1795 0
-1352 -1796 0
-1354 -1798 0
-1355 -1799 0
-1349 -1812 0
-1351 -1813 0
-1352 -1814 0
-1354 -1816 0
-1355 -1817 0
-1349 -1818 0
-1352 -1819 0
-1353 -1820 0
-1355 -1823 0
-1350 -1824 0
-1352 -1825 0
-1353 -1826 0
-1354 -1828 0
-1355 -1829 0
-1350 -1830 0
-1351 -1831 0
-1352 -1832 0
-1353 -1833 0
-1355 -1835 0
-1349 -1905 0
-1352 -1906 0
-1353 -1907 0
-1355 -1910 0
-1349 -1912 0
-1353 -1913 0
-1354 -1916 0
-1355 -1917 0
-1349 -1919 0
-1351 -1920 0
-1352 -1921 0
-1353 -1922 0
-1355 -1924 0
-1349 -1925 0
-1351 -1926 0
-1352 -1927 0
-1354 -1929 0
-1355 -1930 0
-1351 -1932 0
-1353 -1933 0
-1354 -1935 0
-1355 -1936 0
-1352 -1938 0
-1354 -1941 0
-1355 -1942 0
-1351 -1943 0
-1352 -1944 0
-1353 -1945 0
-1354 -1948 0
-1355 -1949 0
-1356 -1463 0
-1359 -1466 0
-1362 -1468 0
-1356 -1469 0
-1358 -1472 0
-1359 -1474 0
-1360 -1475 0
-1361 -1476 0
-1362 -1477 0
-1356 -1492 0
-1359 -1495 0
-1360 -1496 0
-1362 -1498 0
-1356 -1499 0
-1357 -1501 0
-1358 -1502 0
-1359 -1504 0
-1360 -1505 0
-1362 -1507 0
-1356 -1508 0
-1357 -1510 0
-1360 -1511 0
-1361 -1512 0
-1362 -1513 0
-1356 -1532 0
-1358 -1534 0
-1360 -1535 0
-1361 -1536 0
-1362 -1538 0
-1356 -1539 0
-1358 -1541 0
-1359 -1543 0
-1360 -1544 0
-1362 -1545 0
-1356 -1552 0
-1357 -1554 0
-1358 -1555 0
-1360 -1556 0
-1362 -1558 0
-1356 -1567 0
-1358 -1569 0
-1359 -1570 0
-1360 -1571 0
-1361 -1572 0
-1362 -1574 0
-1356 -1576 0
-1360 -1579 0
-1362 -1580 0
-1356 -1607 0
-1358 -1609 0
-1359 -1611 0
-1360 -1612 0
-1362 -1613 0
-1356 -1614 0
-1359 -1617 0
-1361 -1618 0
-1362 -1620 0
-1356 -1627 0
-1357 -1629 0
-1359 -1631 0
-1361 -1632 0
-1362 -1633 0
-1356 -1655 0
-1358 -1657 0
-1359 -1659 0
-1362 -1660 0
-1356 -1687 0
-1357 -1688 0
-1358 -1689 0
-1359 -1690 0
-1360 -1691 0
-1361 -1692 0
-1362 -1693 0
-1356 -1702 0
-1357 -1703 0
-1358 -1704 0
-1359 -1705 0
-1362 -1706 0
-1356 -1708 0
-1357 -1709 0
-1359 -1711 0
-1360 -1712 0
-1361 -1713 0
-1362 -1715 0
-1356 -1716 0
-1357 -1717 0
-1358 -1718 0
-1360 -1720 0
-1362 -1721 0
-1356 -1737 0
-1358 -1738 0
-1359 -1740 0
-1361 -1741 0
-1362 -1742 0
-1356 -1744 0
-1358 -1745 0
-1360 -1747 0
-1362 -1749 0
-1356 -1768 0
-1358 -1769 0
-1359 -1770 0
-1360 -1771 0
-1362 -1773 0
-1356 -1774 0
-1358 -1775 0
-1361 -1777 0
-1362 -1779 0
-1359 -1790 0
-1361 -1791 0
-1362 -1793 0
-1358 -1795 0
-1360 -1797 0
-1362 -1799 0
-1357 -1800 0
-1358 -1801 0
-1360 -1802 0
-1361 -1803 0
-1362 -1805 0
-1357 -1806 0
-1359 -1808 0
-1360 -1809 0
-1362 -1811 0
-1357 -1824 0
-1359 -1826 0
-1360 -1827 0
-1362 -1829 0
-1357 -1830 0
-1358 -1831 0
-1359 -1833 0
-1361 -1834 0
-1362 -1835 0
-1358 -1836 0
-1359 -1838 0
-1360 -1839 0
-1361 -1840 0
-1362 -1842 0
-1356 -1844 0
-1359 -1847 0
-1361 -1848 0
-1362 -1850 0
-1356 -1851 0
-1358 -1853 0
-1360 -1854 0
-1361 -1855 0
-1362 -1857 0
-1356 -1865 0
-1360 -1867 0
-1361 -1868 0
-1362 -1870 0
-1356 -1886 0
-1358 -1887 0
-1360 -1889 0
-1362 -1891 0
-1356 -1893 0
-1359 -1894 0
-1360 -1895 0
-1361 -1896 0
-1362 -1898 0
-1356 -1899 0
-1357 -1900 0
-1359 -1901 0
-1361 -1902 0
-1362 -1904 0
-1356 -1912 0
-1359 -1913 0
-1360 -1914 0
-1361 -1915 0
-1362 -1917 0
-1356 -1919 0
-1358 -1920 0
-1359 -1922 0
-1361 -1923 0
-1362 -1924 0
-1356 -1925 0
-1358 -1926 0
-1361 -1928 0
-1362 -1930 0
-1358 -1952 0
-1359 -1954 0
-1360 -1955 0
-1361 -1956 0
-1362 -1958 0
-1364 -1418 0
-1365 -1420 0
-1367 -1422 0
-1368 -1423 0
-1364 -1425 0
-1366 -1429 0
-1368 -1430 0
-1365 -1452 0
-1366 -1454 0
-1367 -1455 0
-1368 -1456 0
-1365 -1481 0
-1367 -1483 0
-1368 -1484 0
-1366 -1489 0
-1367 -1490 0
-1368 -1491 0
-1363 -1492 0
-1365 -1495 0
-1367 -1497 0
-1368 -1498 0
-1363 -1499 0
-1364 -1501 0
-1365 -1504 0
-1367 -1506 0
-1368 -1507 0
-1363 -1508 0
-1364 -1510 0
-1366 -1512 0
-1368 -1513 0
-1363 -1514 0
-1365 -1517 0
-1366 -1518 0
-1368 -1519 0
-1363 -1520 0
-1367 -1524 0
-1368 -1525 0
-1363 -1526 0
-1364 -1528 0
-1365 -1529 0
-1368 -1531 0
-1367 -1550 0
-1368 -1551 0
-1363 -1567 0
-1365 -1570 0
-1366 -1572 0
-1367 -1573 0
-1368 -1574 0
-1363 -1576 0
-1368 -1580 0
-1367 -1585 0
-1368 -1586 0
-1365 -1589 0
-1366 -1591 0
-1368 -1592 0
-1365 -1637 0
-1367 -1638 0
-1368 -1639 0
-1366 -1644 0
-1368 -1645 0
-1364 -1647 0
-1365 -1650 0
-1366 -1652 0
-1367 -1653 0
-1368 -1654 0
-1363 -1655 0
-1365 -1659 0
-1368 -1660 0
-1363 -1687 0
-1364 -1688 0
-1365 -1690 0
-1366 -1692 0
-1368 -1693 0
-1363 -1694 0
-1364 -1695 0
-1365 -1698 0
-1367 -1699 0
-1368 -1700 0
-1364 -1723 0
-1365 -1725 0
-1367 -1727 0
-1368 -1728 0
-1364 -1730 0
-1366 -1734 0
-1368 -1735 0
-1363 -1737 0
-1365 -1740 0
-1366 -1741 0
-1368 -1742 0
-1363 -1744 0
-1367 -1748 0
-1368 -1749 0
-1365 -1783 0
-1366 -1785 0
-1367 -1786 0
-1368 -1787 0
-1365 -1790 0
-1366 -1791 0
-1367 -1792 0
-1368 -1793 0
-1367 -1798 0
-1368 -1799 0
-1365 -1838 0
-1366 -1840 0
-1367 -1841 0
-1368 -1842 0
-1363 -1844 0
-1365 -1847 0
-1366 -1848 0
-1367 -1849 0
-1368 -1850 0
-1363 -1851 0
-1366 -1855 0
-1367 -1856 0
-1368 -1857 0
-1363 -1858 0
-1365 -1861 0
-1366 -1862 0
-1367 -1863 0
-1368 -1864 0
-1363 -1899 0
-1364 -1900 0
-1365 -1901 0
-1366 -1902 0
-1367 -1903 0
-1368 -1904 0
-1363 -1905 0
-1365 -1907 0
-1366 -1909 0
-1368 -1910 0
-1365 -1933 0
-1366 -1934 0
-1367 -1935 0
-1368 -1936 0
-1366 -1940 0
-1367 -1941 0
-1368 -1942 0
-1370 -1412 0
-1371 -1414 0
-1375 -1416 0
-1369 -1424 0
-1370 -1425 0
-1371 -1427 0
-1373 -1429 0
-1375 -1430 0
-1369 -1443 0
-1371 -1445 0
-1372 -1446 0
-1375 -1448 0
-1372 -1458 0
-1373 -1460 0
-1374 -1461 0
-1375 -1462 0
-1372 -1466 0
-1374 -1467 0
-1375 -1468 0
-1371 -1487 0
-1373 -1489 0
-1374 -1490 0
-1375 -1491 0
-1371 -1494 0
-1372 -1495 0
-1374 -1497 0
-1375 -1498 0
-1370 -1510 0
-1373 -1512 0
-1375 -1513 0
-1372 -1517 0
-1373 -1518 0
-1375 -1519 0
-1370 -1528 0
-1372 -1529 0
-1375 -1531 0
-1371 -1542 0
-1372 -1543 0
-1375 -1545 0
-1371 -1562 0
-1373 -1564 0
-1375 -1565 0
-1369 -1575 0
-1371 -1578 0
-1375 -1580 0
-1372 -1589 0
-1373 -1591 0
-1375 -1592 0
-1370 -1594 0
-1372 -1596 0
-1373 -1597 0
-1374 -1598 0
-1375 -1599 0
-1371 -1636 0
-1372 -1637 0
-1374 -1638 0
-1375 -1639 0
-1370 -1647 0
-1371 -1649 0
-1372 -1650 0
-1373 -1652 0
-1374 -1653 0
-1375 -1654 0
-1369 -1661 0
-1371 -1664 0
-1372 -1665 0
-1374 -1666 0
-1375 -1667 0
-1370 -1688 0
-1372 -1690 0
-1373 -1692 0
-1375 -1693 0
-1369 -1701 0
-1370 -1703 0
-1372 -1705 0
-1375 -1706 0
-1370 -1717 0
-1371 -1719 0
-1375 -1721 0
-1369 -1729 0
-1370 -1730 0
-1371 -1732 0
-1373 -1734 0
-1375 -1735 0
-1369 -1736 0
-1371 -1739 0
-1372 -1740 0
-1373 -1741 0
-1375 -1742 0
-1369 -1750 0
-1371 -1752 0
-1372 -1753 0
-1375 -1755 0
-1370 -1756 0
-1371 -1758 0
-1372 -1759 0
-1373 -1760 0
-1375 -1761 0
-1371 -1796 0
-1374 -1798 0
-1375 -1799 0
-1371 -1819 0
-1372 -1820 0
-1373 -1822 0
-1375 -1823 0
-1370 -1824 0
-1371 -1825 0
-1372 -1826 0
-1374 -1828 0
-1375 -1829 0
-1371 -1837 0
-1372 -1838 0
-1373 -1840 0
-1374 -1841 0
-1375 -1842 0
-1373 -1855 0
-1374 -1856 0
-1375 -1857 0
-1372 -1861 0
-1373 -1862 0
-1374 -1863 0
-1375 -1864 0
-1370 -1900 0
-1372 -1901 0
-1373 -1902 0
-1374 -1903 0
-1375 -1904 0
-1369 -1911 0
-1372 -1913 0
-1373 -1915 0
-1374 -1916 0
-1375 -1917 0
-1371 -1927 0
-1373 -1928 0
-1374 -1929 0
-1375 -1930 0
-1369 -1937 0
-1371 -1938 0
-1373 -1940 0
-1374 -1941 0
-1375 -1942 0
-1371 -1944 0
-1372 -1945 0
-1373 -1947 0
-1374 -1948 0
-1375 -1949 0
-1377 -1412 0
-1378 -1413 0
-1380 -1415 0
-1382 -1416 0
-1376 -1417 0
-1377 -1418 0
-1378 -1419 0
-1379 -1420 0
-1380 -1421 0
-1381 -1422 0
-1382 -1423 0
-1376 -1437 0
-1380 -1439 0
-1381 -1441 0
-1382 -1442 0
-1378 -1450 0
-1379 -1452 0
-1380 -1453 0
-1381 -1455 0
-1382 -1456 0
-1379 -1458 0
-1380 -1459 0
-1381 -1461 0
-1382 -1462 0
-1378 -1472 0
-1379 -1474 0
-1380 -1475 0
-1382 -1477 0
-1378 -1480 0
-1379 -1481 0
-1380 -1482 0
-1381 -1483 0
-1382 -1484 0
-1379 -1495 0
-1380 -1496 0
-1381 -1497 0
-1382 -1498 0
-1377 -1501 0
-1378 -1502 0
-1379 -1504 0
-1380 -1505 0
-1381 -1506 0
-1382 -1507 0
-1380 -1523 0
-1381 -1524 0
-1382 -1525 0
-1377 -1528 0
-1379 -1529 0
-1380 -1530 0
-1382 -1531 0
-1378 -1534 0
-1380 -1535 0
-1381 -1537 0
-1382 -1538 0
-1378 -1561 0
-1380 -1563 0
-1382 -1565 0
-1376 -1566 0
-1378 -1569 0
-1379 -1570 0
-1380 -1571 0
-1381 -1573 0
-1382 -1574 0
-1378 -1582 0
-1380 -1584 0
-1381 -1585 0
-1382 -1586 0
-1377 -1601 0
-1379 -1603 0
-1380 -1604 0
-1382 -1606 0
-1378 -1641 0
-1380 -1643 0
-1382 -1645 0
-1377 -1647 0
-1378 -1648 0
-1379 -1650 0
-1380 -1651 0
-1381 -1653 0
-1382 -1654 0
-1376 -1668 0
-1379 -1671 0
-1380 -1672 0
-1382 -1674 0
-1377 -1688 0
-1378 -1689 0
-1379 -1690 0
-1380 -1691 0
-1382 -1693 0
-1376 -1707 0
-1377 -1709 0
-1379 -1711 0
-1380 -1712 0
-1381 -1714 0
-1382 -1715 0
-1377 -1717 0
-1378 -1718 0
-1380 -1720 0
-1382 -1721 0
-1376 -1722 0
-1377 -1723 0
-1378 -1724 0
-1379 -1725 0
-1380 -1726 0
-1381 -1727 0
-1382 -1728 0
-1376 -1743 0
-1378 -1745 0
-1380 -1747 0
-1381 -1748 0
-1382 -1749 0
-1376 -1750 0
-1378 -1751 0
-1379 -1753 0
-1380 -1754 0
-1382 -1755 0
-1377 -1762 0
-1378 -1763 0
-1380 -1764 0
-1381 -1766 0
-1382 -1767 0
-1378 -1781 0
-1379 -1783 0
-1380 -1784 0
-1381 -1786 0
-1382 -1787 0
-1379 -1790 0
-1381 -1792 0
-1382 -1793 0
-1378 -1813 0
-1381 -1816 0
-1382 -1817 0
-1377 -1830 0
-1378 -1831 0
-1379 -1833 0
-1382 -1835 0
-1379 -1847 0
-1381 -1849 0
-1382 -1850 0
-1378 -1860 0
-1379 -1861 0
-1381 -1863 0
-1382 -1864 0
-1377 -1900 0
-1379 -1901 0
-1381 -1903 0
-1382 -1904 0
-1376 -1918 0
-1378 -1920 0
-1379 -1922 0
-1382 -1924 0
-1378 -1926 0
-1381 -1929 0
-1382 -1930 0
-1376 -1931 0
-1378 -1932 0
-1379 -1933 0
-1381 -1935 0
-1382 -1936 0
-1386 -1407 0
-1387 -1408 0
-1388 -1409 0
-1389 -1410 0
-1383 -1424 0
-1386 -1428 0
-1387 -1429 0
-1389 -1430 0
-1385 -1452 0
-1386 -1453 0
-1387 -1454 0
-1388 -1455 0
-1389 -1456 0
-1384 -1463 0
-1385 -1466 0
-1388 -1467 0
-1389 -1468 0
-1385 -1481 0
-1386 -1482 0
-1388 -1483 0
-1389 -1484 0
-1384 -1492 0
-1385 -1495 0
-1386 -1496 0
-1388 -1497 0
-1389 -1498 0
-1384 -1499 0
-1385 -1504 0
-1386 -1505 0
-1388 -1506 0
-1389 -1507 0
-1384 -1520 0
-1386 -1523 0
-1388 -1524 0
-1389 -1525 0
-1384 -1526 0
-1385 -1529 0
-1386 -1530 0
-1389 -1531 0
-1384 -1539 0
-1385 -1543 0
-1386 -1544 0
-1389 -1545 0
-1383 -1546 0
-1386 -1549 0
-1388 -1550 0
-1389 -1551 0
-1384 -1552 0
-1386 -1556 0
-1388 -1557 0
-1389 -1558 0
-1383 -1575 0
-1384 -1576 0
-1386 -1579 0
-1389 -1580 0
-1386 -1584 0
-1388 -1585 0
-1389 -1586 0
-1384 -1607 0
-1385 -1611 0
-1386 -1612 0
-1389 -1613 0
-1385 -1637 0
-1388 -1638 0
-1389 -1639 0
-1384 -1655 0
-1385 -1659 0
-1389 -1660 0
-1383 -1661 0
-1385 -1665 0
-1388 -1666 0
-1389 -1667 0
-1384 -1694 0
-1385 -1698 0
-1388 -1699 0
-1389 -1700 0
-1383 -1701 0
-1384 -1702 0
-1385 -1705 0
-1389 -1706 0
-1384 -1716 0
-1386 -1720 0
-1389 -1721 0
-1383 -1722 0
-1385 -1725 0
-1386 -1726 0
-1388 -1727 0
-1389 -1728 0
-1383 -1743 0
-1384 -1744 0
-1386 -1747 0
-1388 -1748 0
-1389 -1749 0
-1383 -1750 0
-1385 -1753 0
-1386 -1754 0
-1389 -1755 0
-1384 -1768 0
-1385 -1770 0
-1386 -1771 0
-1388 -1772 0
-1389 -1773 0
-1386 -1797 0
-1388 -1798 0
-1389 -1799 0
-1385 -1808 0
-1386 -1809 0
-1388 -1810 0
-1389 -1811 0
-1385 -1826 0
-1386 -1827 0
-1388 -1828 0
-1389 -1829 0
-1384 -1844 0
-1385 -1847 0
-1387 -1848 0
-1388 -1849 0
-1389 -1850 0
-1384 -1858 0
-1385 -1861 0
-1387 -1862 0
-1388 -1863 0
-1389 -1864 0
-1384 -1865 0
-1386 -1867 0
-1387 -1868 0
-1388 -1869 0
-1389 -1870 0
-1384 -1871 0
-1386 -1874 0
-1387 -1875 0
-1388 -1876 0
-1389 -1877 0
-1383 -1892 0
-1384 -1893 0
-1385 -1894 0
-1386 -1895 0
-1387 -1896 0
-1388 -1897 0
-1389 -1898 0
-1384 -1905 0
-1385 -1907 0
-1386 -1908 0
-1387 -1909 0
-1389 -1910 0
-1383 -1911 0
-1384 -1912 0
-1385 -1913 0
-1386 -1914 0
-1387 -1915 0
-1388 -1916 0
-1389 -1917 0
-1384 -1925 0
-1387 -1928 0
-1388 -1929 0
-1389 -1930 0
-1383 -1931 0
-1385 -1933 0
-1387 -1934 0
-1388 -1935 0
-1389 -1936 0
-1385 -1954 0
-1386 -1955 0
-1387 -1956 0
-1388 -1957 0
-1389 -1958 0
-1392 -1406 0
-1395 -1408 0
-1396 -1410 0
-1390 -1417 0
-1392 -1419 0
-1394 -1420 0
-1396 -1423 0
-1391 -1469 0
-1392 -1472 0
-1393 -1473 0
-1394 -1474 0
-1395 -1476 0
-1396 -1477 0
-1393 -1487 0
-1395 -1489 0
-1396 -1491 0
-1391 -1492 0
-1393 -1494 0
-1394 -1495 0
-1396 -1498 0
-1391 -1508 0
-1395 -1512 0
-1396 -1513 0
-1391 -1514 0
-1392 -1516 0
-1394 -1517 0
-1395 -1518 0
-1396 -1519 0
-1391 -1526 0
-1394 -1529 0
-1396 -1531 0
-1391 -1532 0
-1392 -1534 0
-1395 -1536 0
-1396 -1538 0
-1390 -1546 0
-1392 -1548 0
-1396 -1551 0
-1391 -1552 0
-1392 -1555 0
-1396 -1558 0
-1390 -1566 0
-1391 -1567 0
-1392 -1569 0
-1394 -1570 0
-1395 -1572 0
-1396 -1574 0
-1392 -1588 0
-1394 -1589 0
-1395 -1591 0
-1396 -1592 0
-1391 -1614 0
-1393 -1616 0
-1394 -1617 0
-1395 -1618 0
-1396 -1620 0
-1392 -1641 0
-1393 -1642 0
-1395 -1644 0
-1396 -1645 0
-1391 -1655 0
-1392 -1657 0
-1393 -1658 0
-1394 -1659 0
-1396 -1660 0
-1390 -1668 0
-1393 -1670 0
-1394 -1671 0
-1395 -1673 0
-1396 -1674 0
-1391 -1694 0
-1392 -1696 0
-1393 -1697 0
-1394 -1698 0
-1396 -1700 0
-1390 -1707 0
-1391 -1708 0
-1393 -1710 0
-1394 -1711 0
-1395 -1713 0
-1396 -1715 0
-1391 -1716 0
-1392 -1718 0
-1393 -1719 0
-1396 -1721 0
-1390 -1729 0
-1392 -1731 0
-1393 -1732 0
-1395 -1734 0
-1396 -1735 0
-1390 -1736 0
-1391 -1737 0
-1392 -1738 0
-1393 -1739 0
-1394 -1740 0
-1395 -1741 0
-1396 -1742 0
-1390 -1750 0
-1392 -1751 0
-1393 -1752 0
-1394 -1753 0
-1396 -1755 0
-1391 -1774 0
-1392 -1775 0
-1393 -1776 0
-1395 -1777 0
-1396 -1779 0
-1392 -1781 0
-1393 -1782 0
-1394 -1783 0
-1395 -1785 0
-1396 -1787 0
-1393 -1789 0
-1394 -1790 0
-1395 -1791 0
-1396 -1793 0
-1392 -1801 0
-1395 -1803 0
-1396 -1805 0
-1392 -1831 0
-1393 -1832 0
-1394 -1833 0
-1395 -1834 0
-1396 -1835 0
-1392 -1836 0
-1393 -1837 0
-1394 -1838 0
-1395 -1840 0
-1396 -1842 0
-1391 -1851 0
-1392 -1853 0
-1395 -1855 0
-1396 -1857 0
-1391 -1858 0
-1392 -1860 0
-1394 -1861 0
-1395 -1862 0
-1396 -1864 0
-1391 -1865 0
-1395 -1868 0
-1396 -1870 0
-1391 -1871 0
-1393 -1873 0
-1395 -1875 0
-1396 -1877 0
-1390 -1885 0
-1391 -1886 0
-1392 -1887 0
-1393 -1888 0
-1396 -1891 0
-1391 -1905 0
-1393 -1906 0
-1394 -1907 0
-1395 -1909 0
-1396 -1910 0
-1390 -1918 0
-1391 -1919 0
-1392 -1920 0
-1393 -1921 0
-1394 -1922 0
-1395 -1923 0
-1396 -1924 0
-1391 -1925 0
-1392 -1926 0
-1393 -1927 0
-1395 -1928 0
-1396 -1930 0
-1390 -1937 0
-1393 -1938 0
-1395 -1940 0
-1396 -1942 0
-1397 -1406 0
-1400 -1407 0
-1401 -1408 0
-1402 -1409 0
-1403 -1410 0
-1397 -1413 0
-1398 -1414 0
-1400 -1415 0
-1403 -1416 0
-1397 -1419 0
-1399 -1420 0
-1400 -1421 0
-1402 -1422 0
-1403 -1423 0
-1397 -1444 0
-1398 -1445 0
-1399 -1446 0
-1400 -1447 0
-1403 -1448 0
-1397 -1450 0
-1398 -1451 0
-1399 -1452 0
-1400 -1453 0
-1401 -1454 0
-1402 -1455 0
-1403 -1456 0
-1397 -1480 0
-1399 -1481 0
-1400 -1482 0
-1402 -1483 0
-1403 -1484 0
-1397 -1502 0
-1398 -1503 0
-1399 -1504 0
-1400 -1505 0
-1402 -1506 0
-1403 -1507 0
-1397 -1516 0
-1399 -1517 0
-1401 -1518 0
-1403 -1519 0
-1397 -1541 0
-1398 -1542 0
-1399 -1543 0
-1400 -1544 0
-1403 -1545 0
-1397 -1548 0
-1400 -1549 0
-1402 -1550 0
-1403 -1551 0
-1397 -1555 0
-1400 -1556 0
-1402 -1557 0
-1403 -1558 0
-1397 -1561 0
-1398 -1562 0
-1400 -1563 0
-1401 -1564 0
-1403 -1565 0
-1397 -1569 0
-1399 -1570 0
-1400 -1571 0
-1401 -1572 0
-1402 -1573 0
-1403 -1574 0
-1397 -1588 0
-1399 -1589 0
-1400 -1590 0
-1401 -1591 0
-1403 -1592 0
-1397 -1635 0
-1398 -1636 0
-1399 -1637 0
-1402 -1638 0
-1403 -1639 0
-1397 -1718 0
-1398 -1719 0
-1400 -1720 0
-1403 -1721 0
-1397 -1724 0
-1399 -1725 0
-1400 -1726 0
-1402 -1727 0
-1403 -1728 0
-1397 -1738 0
-1398 -1739 0
-1399 -1740 0
-1401 -1741 0
-1403 -1742 0
-1397 -1757 0
-1398 -1758 0
-1399 -1759 0
-1401 -1760 0
-1403 -1761 0
-1397 -1769 0
-1399 -1770 0
-1400 -1771 0
-1402 -1772 0
-1403 -1773 0
-1397 -1781 0
-1398 -1782 0
-1399 -1783 0
-1400 -1784 0
-1401 -1785 0
-1402 -1786 0
-1403 -1787 0
-1398 -1789 0
-1399 -1790 0
-1401 -1791 0
-1402 -1792 0
-1403 -1793 0
-1398 -1807 0
-1399 -1808 0
-1400 -1809 0
-1402 -1810 0
-1403 -1811 0
-1398 -1819 0
-1399 -1820 0
-1400 -1821 0
-1401 -1822 0
-1403 -1823 0
-1397 -1836 0
-1398 -1837 0
-1399 -1838 0
-1400 -1839 0
-1401 -1840 0
-1402 -1841 0
-1403 -1842 0
-1398 -1846 0
-1399 -1847 0
-1401 -1848 0
-1402 -1849 0
-1403 -1850 0
-1400 -1867 0
-1401 -1868 0
-1402 -1869 0
-1403 -1870 0
-1398 -1873 0
-1400 -1874 0
-1401 -1875 0
-1402 -1876 0
-1403 -1877 0
-1399 -1894 0
-1400 -1895 0
-1401 -1896 0
-1402 -1897 0
-1403 -1898 0
-1397 -1926 0
-1398 -1927 0
-1401 -1928 0
-1402 -1929 0
-1403 -1930 0
-1397 -1932 0
-1399 -1933 0
-1401 -1934 0
-1402 -1935 0
-1403 -1936 0
-1397 -1943 0
-1398 -1944 0
-1399 -1945 0
-1400 -1946 0
-1401 -1947 0
-1402 -1948 0
-1403 -1949 0
-1397 -1952 0
-1398 -1953 0
-1399 -1954 0
-1400 -1955 0
-1401 -1956 0
-1402 -1957 0
-1403 -1958 0
-1407 -1459 0
-1408 -1460 0
-1409 -1461 0
-1410 -1462 0
-1409 -1467 0
-1410 -1468 0
-1406 -1472 0
-1407 -1475 0
-1408 -1476 0
-1410 -1477 0
-1406 -1480 0
-1407 -1482 0
-1409 -1483 0
-1410 -1484 0
-1407 -1488 0
-1408 -1489 0
-1409 -1490 0
-1410 -1491 0
-1407 -1496 0
-1409 -1497 0
-1410 -1498 0
-1405 -1501 0
-1406 -1502 0
-1407 -1505 0
-1409 -1506 0
-1410 -1507 0
-1405 -1510 0
-1407 -1511 0
-1408 -1512 0
-1410 -1513 0
-1405 -1528 0
-1407 -1530 0
-1410 -1531 0
-1405 -1554 0
-1406 -1555 0
-1407 -1556 0
-1409 -1557 0
-1410 -1558 0
-1406 -1609 0
-1407 -1612 0
-1410 -1613 0
-1408 -1618 0
-1409 -1619 0
-1410 -1620 0
-1408 -1625 0
-1410 -1626 0
-1406 -1635 0
-1409 -1638 0
-1410 -1639 0
-1406 -1641 0
-1407 -1643 0
-1408 -1644 0
-1410 -1645 0
-1406 -1657 0
-1410 -1660 0
-1406 -1663 0
-1409 -1666 0
-1410 -1667 0
-1407 -1672 0
-1408 -1673 0
-1410 -1674 0
-1406 -1676 0
-1407 -1678 0
-1408 -1679 0
-1410 -1680 0
-1408 -1684 0
-1409 -1685 0
-1410 -1686 0
-1405 -1695 0
-1406 -1696 0
-1409 -1699 0
-1410 -1700 0
-1405 -1703 0
-1406 -1704 0
-1410 -1706 0
-1405 -1709 0
-1407 -1712 0
-1408 -1713 0
-1409 -1714 0
-1410 -1715 0
-1405 -1717 0
-1406 -1718 0
-1407 -1720 0
-1410 -1721 0
-1405 -1723 0
-1406 -1724 0
-1407 -1726 0
-1409 -1727 0
-1410 -1728 0
-1405 -1730 0
-1406 -1731 0
-1407 -1733 0
-1408 -1734 0
-1410 -1735 0
-1405 -1756 0
-1406 -1757 0
-1408 -1760 0
-1410 -1761 0
-1405 -1762 0
-1406 -1763 0
-1407 -1764 0
-1408 -1765 0
-1409 -1766 0
-1410 -1767 0
-1408 -1791 0
-1409 -1792 0
-1410 -1793 0
-1406 -1795 0
-1407 -1797 0
-1409 -1798 0
-1410 -1799 0
-1405 -1800 0
-1406 -1801 0
-1407 -1802 0
-1408 -1803 0
-1409 -1804 0
-1410 -1805 0
-1405 -1806 0
-1407 -1809 0
-1409 -1810 0
-1410 -1811 0
-1406 -1836 0
-1407 -1839 0
-1408 -1840 0
-1409 -1841 0
-1410 -1842 0
-1406 -1880 0
-1407 -1882 0
-1409 -1883 0
-1410 -1884 0
-1406 -1887 0
-1407 -1889 0
-1409 -1890 0
-1410 -1891 0
-1407 -1895 0
-1408 -1896 0
-1409 -1897 0
-1410 -1898 0
-1411 -1463 0
-1416 -1468 0
-1411 -1469 0
-1413 -1472 0
-1414 -1473 0
-1415 -1475 0
-1416 -1477 0
-1411 -1492 0
-1414 -1494 0
-1415 -1496 0
-1416 -1498 0
-1411 -1514 0
-1413 -1516 0
-1416 -1519 0
-1411 -1520 0
-1414 -1522 0
-1415 -1523 0
-1416 -1525 0
-1411 -1526 0
-1412 -1528 0
-1415 -1530 0
-1416 -1531 0
-1411 -1559 0
-1413 -1561 0
-1414 -1562 0
-1415 -1563 0
-1416 -1565 0
-1412 -1594 0
-1413 -1595 0
-1416 -1599 0
-1412 -1601 0
-1414 -1602 0
-1415 -1604 0
-1416 -1606 0
-1414 -1623 0
-1416 -1626 0
-1413 -1635 0
-1414 -1636 0
-1416 -1639 0
-1413 -1641 0
-1414 -1642 0
-1415 -1643 0
-1416 -1645 0
-1412 -1647 0
-1413 -1648 0
-1414 -1649 0
-1415 -1651 0
-1416 -1654 0
-1413 -1663 0
-1414 -1664 0
-1416 -1667 0
-1414 -1670 0
-1415 -1672 0
-1416 -1674 0
-1413 -1676 0
-1415 -1678 0
-1416 -1680 0
-1414 -1682 0
-1416 -1686 0
-1411 -1687 0
-1412 -1688 0
-1413 -1689 0
-1415 -1691 0
-1416 -1693 0
-1411 -1702 0
-1412 -1703 0
-1413 -1704 0
-1416 -1706 0
-1411 -1708 0
-1412 -1709 0
-1414 -1710 0
-1415 -1712 0
-1416 -1715 0
-1411 -1716 0
-1412 -1717 0
-1413 -1718 0
-1414 -1719 0
-1415 -1720 0
-1416 -1721 0
-1411 -1737 0
-1413 -1738 0
-1414 -1739 0
-1416 -1742 0
-1411 -1744 0
-1413 -1745 0
-1414 -1746 0
-1415 -1747 0
-1416 -1749 0
-1411 -1768 0
-1413 -1769 0
-1415 -1771 0
-1416 -1773 0
-1411 -1774 0
-1413 -1775 0
-1414 -1776 0
-1416 -1779 0
-1414 -1789 0
-1416 -1793 0
-1413 -1795 0
-1414 -1796 0
-1415 -1797 0
-1416 -1799 0
-1411 -1812 0
-1413 -1813 0
-1414 -1814 0
-1416 -1817 0
-1411 -1818 0
-1414 -1819 0
-1415 -1821 0
-1416 -1823 0
-1411 -1844 0
-1414 -1846 0
-1416 -1850 0
-1411 -1851 0
-1413 -1853 0
-1415 -1854 0
-1416 -1857 0
-1411 -1865 0
-1415 -1867 0
-1416 -1870 0
-1411 -1871 0
-1412 -1872 0
-1414 -1873 0
-1415 -1874 0
-1416 -1877 0
-1411 -1879 0
-1413 -1880 0
-1415 -1882 0
-1416 -1884 0
-1413 -1932 0
-1416 -1936 0
-1414 -1938 0
-1415 -1939 0
-1416 -1942 0
-1413 -1943 0
-1414 -1944 0
-1415 -1946 0
-1416 -1949 0
-1413 -1952 0
-1414 -1953 0
-1415 -1955 0
-1416 -1958 0
-1420 -1458 0
-1421 -1459 0
-1422 -1461 0
-1423 -1462 0
-1419 -1472 0
-1420 -1474 0
-1421 -1475 0
-1423 -1477 0
-1419 -1480 0
-1420 -1481 0
-1421 -1482 0
-1422 -1483 0
-1423 -1484 0
-1420 -1495 0
-1421 -1496 0
-1422 -1497 0
-1423 -1498 0
-1418 -1501 0
-1419 -1502 0
-1420 -1504 0
-1421 -1505 0
-1422 -1506 0
-1423 -1507 0
-1419 -1516 0
-1420 -1517 0
-1423 -1519 0
-1418 -1528 0
-1420 -1529 0
-1421 -1530 0
-1423 -1531 0
-1417 -1566 0
-1419 -1569 0
-1420 -1570 0
-1421 -1571 0
-1422 -1573 0
-1423 -1574 0
-1418 -1601 0
-1420 -1603 0
-1421 -1604 0
-1423 -1606 0
-1420 -1617 0
-1422 -1619 0
-1423 -1620 0
-1419 -1635 0
-1420 -1637 0
-1422 -1638 0
-1423 -1639 0
-1418 -1647 0
-1419 -1648 0
-1420 -1650 0
-1421 -1651 0
-1422 -1653 0
-1423 -1654 0
-1419 -1657 0
-1420 -1659 0
-1423 -1660 0
-1417 -1668 0
-1420 -1671 0
-1421 -1672 0
-1423 -1674 0
-1420 -1683 0
-1422 -1685 0
-1423 -1686 0
-1418 -1688 0
-1419 -1689 0
-1420 -1690 0
-1421 -1691 0
-1423 -1693 0
-1418 -1695 0
-1419 -1696 0
-1420 -1698 0
-1422 -1699 0
-1423 -1700 0
-1417 -1707 0
-1418 -1709 0
-1420 -1711 0
-1421 -1712 0
-1422 -1714 0
-1423 -1715 0
-1417 -1722 0
-1418 -1723 0
-1419 -1724 0
-1420 -1725 0
-1421 -1726 0
-1422 -1727 0
-1423 -1728 0
-1417 -1736 0
-1419 -1738 0
-1420 -1740 0
-1423 -1742 0
-1417 -1750 0
-1419 -1751 0
-1420 -1753 0
-1421 -1754 0
-1423 -1755 0
-1418 -1756 0
-1419 -1757 0
-1420 -1759 0
-1423 -1761 0
-1419 -1769 0
-1420 -1770 0
-1421 -1771 0
-1422 -1772 0
-1423 -1773 0
-1419 -1795 0
-1421 -1797 0
-1422 -1798 0
-1423 -1799 0
-1418 -1800 0
-1419 -1801 0
-1421 -1802 0
-1422 -1804 0
-1423 -1805 0
-1419 -1813 0
-1422 -1816 0
-1423 -1817 0
-1419 -1853 0
-1421 -1854 0
-1422 -1856 0
-1423 -1857 0
-1421 -1867 0
-1422 -1869 0
-1423 -1870 0
-1418 -1872 0
-1421 -1874 0
-1422 -1876 0
-1423 -1877 0
-1417 -1885 0
-1419 -1887 0
-1421 -1889 0
-1422 -1890 0
-1423 -1891 0
-1419 -1926 0
-1422 -1929 0
-1423 -1930 0
-1417 -1937 0
-1421 -1939 0
-1422 -1941 0
-1423 -1942 0
-1419 -1952 0
-1420 -1954 0
-1421 -1955 0
-1422 -1957 0
-1423 -1958 0
-1428 -1459 0
-1429 -1460 0
-1430 -1462 0
-1430 -1468 0
-1427 -1487 0
-1428 -1488 0
-1429 -1489 0
-1430 -1491 0
-1427 -1494 0
-1428 -1496 0
-1430 -1498 0
-1425 -1510 0
-1428 -1511 0
-1429 -1512 0
-1430 -1513 0
-1427 -1522 0
-1428 -1523 0
-1430 -1525 0
-1425 -1528 0
-1428 -1530 0
-1430 -1531 0
-1424 -1575 0
-1427 -1578 0
-1428 -1579 0
-1430 -1580 0
-1425 -1594 0
-1426 -1595 0
-1429 -1597 0
-1430 -1599 0
-1426 -1609 0
-1427 -1610 0
-1428 -1612 0
-1430 -1613 0
-1426 -1641 0
-1427 -1642 0
-1428 -1643 0
-1429 -1644 0
-1430 -1645 0
-1425 -1647 0
-1426 -1648 0
-1427 -1649 0
-1428 -1651 0
-1429 -1652 0
-1430 -1654 0
-1426 -1657 0
-1427 -1658 0
-1430 -1660 0
-1424 -1661 0
-1426 -1663 0
-1427 -1664 0
-1430 -1667 0
-1426 -1676 0
-1428 -1678 0
-1429 -1679 0
-1430 -1680 0
-1425 -1688 0
-1426 -1689 0
-1428 -1691 0
-1429 -1692 0
-1430 -1693 0
-1425 -1695 0
-1426 -1696 0
-1427 -1697 0
-1430 -1700 0
-1424 -1701 0
-1425 -1703 0
-1426 -1704 0
-1430 -1706 0
-1424 -1729 0
-1425 -1730 0
-1426 -1731 0
-1427 -1732 0
-1428 -1733 0
-1429 -1734 0
-1430 -1735 0
-1424 -1743 0
-1426 -1745 0
-1427 -1746 0
-1428 -1747 0
-1430 -1749 0
-1424 -1750 0
-1426 -1751 0
-1427 -1752 0
-1428 -1754 0
-1430 -1755 0
-1425 -1762 0
-1426 -1763 0
-1428 -1764 0
-1429 -1765 0
-1430 -1767 0
-1426 -1775 0
-1427 -1776 0
-1429 -1777 0
-1430 -1779 0
-1427 -1789 0
-1429 -1791 0
-1430 -1793 0
-1425 -1806 0
-1427 -1807 0
-1428 -1809 0
-1430 -1811 0
-1427 -1819 0
-1428 -1821 0
-1429 -1822 0
-1430 -1823 0
-1426 -1836 0
-1427 -1837 0
-1428 -1839 0
-1429 -1840 0
-1430 -1842 0
-1427 -1846 0
-1429 -1848 0
-1430 -1850 0
-1428 -1867 0
-1429 -1868 0
-1430 -1870 0
-1425 -1872 0
-1427 -1873 0
-1428 -1874 0
-1429 -1875 0
-1430 -1877 0
-1424 -1892 0
-1428 -1895 0
-1429 -1896 0
-1430 -1898 0
-1426 -1926 0
-1427 -1927 0
-1429 -1928 0
-1430 -1930 0
-1424 -1931 0
-1426 -1932 0
-1429 -1934 0
-1430 -1936 0
-1426 -1943 0
-1427 -1944 0
-1428 -1946 0
-1429 -1947 0
-1430 -1949 0
-1433 -1481 0
-1434 -1482 0
-1435 -1483 0
-1436 -1484 0
-1432 -1487 0
-1434 -1488 0
-1435 -1490 0
-1436 -1491 0
-1432 -1494 0
-1433 -1495 0
-1434 -1496 0
-1435 -1497 0
-1436 -1498 0
-1434 -1535 0
-1435 -1537 0
-1436 -1538 0
-1432 -1542 0
-1433 -1543 0
-1434 -1544 0
-1436 -1545 0
-1431 -1554 0
-1434 -1556 0
-1435 -1557 0
-1436 -1558 0
-1432 -1562 0
-1434 -1563 0
-1436 -1565 0
-1431 -1594 0
-1433 -1596 0
-1435 -1598 0
-1436 -1599 0
-1431 -1601 0
-1432 -1602 0
-1433 -1603 0
-1434 -1604 0
-1436 -1606 0
-1432 -1610 0
-1433 -1611 0
-1434 -1612 0
-1436 -1613 0
-1432 -1616 0
-1433 -1617 0
-1435 -1619 0
-1436 -1620 0
-1431 -1629 0
-1432 -1630 0
-1433 -1631 0
-1436 -1633 0
-1432 -1664 0
-1433 -1665 0
-1435 -1666 0
-1436 -1667 0
-1432 -1670 0
-1433 -1671 0
-1434 -1672 0
-1436 -1674 0
-1431 -1688 0
-1433 -1690 0
-1434 -1691 0
-1436 -1693 0
-1431 -1695 0
-1432 -1697 0
-1433 -1698 0
-1435 -1699 0
-1436 -1700 0
-1431 -1723 0
-1433 -1725 0
-1434 -1726 0
-1435 -1727 0
-1436 -1728 0
-1431 -1730 0
-1432 -1732 0
-1434 -1733 0
-1436 -1735 0
-1432 -1739 0
-1433 -1740 0
-1436 -1742 0
-1432 -1746 0
-1434 -1747 0
-1435 -1748 0
-1436 -1749 0
-1432 -1782 0
-1433 -1783 0
-1434 -1784 0
-1435 -1786 0
-1436 -1787 0
-1432 -1789 0
-1433 -1790 0
-1435 -1792 0
-1436 -1793 0
-1432 -1796 0
-1434 -1797 0
-1435 -1798 0
-1436 -1799 0
-1431 -1800 0
-1434 -1802 0
-1435 -1804 0
-1436 -1805 0
-1431 -1806 0
-1432 -1807 0
-1433 -1808 0
-1434 -1809 0
-1435 -1810 0
-1436 -1811 0
-1432 -1814 0
-1435 -1816 0
-1436 -1817 0
-1432 -1819 0
-1433 -1820 0
-1434 -1821 0
-1436 -1823 0
-1431 -1824 0
-1432 -1825 0
-1433 -1826 0
-1434 -1827 0
-1435 -1828 0
-1436 -1829 0
-1431 -1830 0
-1432 -1832 0
-1433 -1833 0
-1436 -1835 0
-1432 -1846 0
-1433 -1847 0
-1435 -1849 0
-1436 -1850 0
-1434 -1854 0
-1435 -1856 0
-1436 -1857 0
-1433 -1861 0
-1435 -1863 0
-1436 -1864 0
-1431 -1872 0
-1432 -1873 0
-1434 -1874 0
-1435 -1876 0
-1436 -1877 0
-1432 -1888 0
-1434 -1889 0
-1435 -1890 0
-1436 -1891 0
-1433 -1894 0
-1434 -1895 0
-1435 -1897 0
-1436 -1898 0
-1433 -1913 0
-1434 -1914 0
-1435 -1916 0
-1436 -1917 0
-1432 -1921 0
-1433 -1922 0
-1436 -1924 0
-1432 -1944 0
-1433 -1945 0
-1434 -1946 0
-1435 -1948 0
-1436 -1949 0
-1441 -1467 0
-1442 -1468 0
-1439 -1482 0
-1441 -1483 0
-1442 -1484 0
-1438 -1494 0
-1439 -1496 0
-1441 -1497 0
-1442 -1498 0
-1440 -1518 0
-1442 -1519 0
-1439 -1535 0
-1440 -1536 0
-1441 -1537 0
-1442 -1538 0
-1438 -1562 0
-1439 -1563 0
-1440 -1564 0
-1442 -1565 0
-1437 -1566 0
-1439 -1571 0
-1440 -1572 0
-1441 -1573 0
-1442 -1574 0
-1440 -1597 0
-1441 -1598 0
-1442 -1599 0
-1438 -1616 0
-1440 -1618 0
-1441 -1619 0
-1442 -1620 0
-1437 -1621 0
-1438 -1623 0
-1440 -1625 0
-1442 -1626 0
-1438 -1630 0
-1440 -1632 0
-1442 -1633 0
-1438 -1642 0
-1439 -1643 0
-1440 -1644 0
-1442 -1645 0
-1438 -1649 0
-1439 -1651 0
-1440 -1652 0
-1441 -1653 0
-1442 -1654 0
-1437 -1668 0
-1438 -1670 0
-1439 -1672 0
-1440 -1673 0
-1442 -1674 0
-1439 -1678 0
-1440 -1679 0
-1442 -1680 0
-1438 -1697 0
-1441 -1699 0
-1442 -1700 0
-1437 -1701 0
-1442 -1706 0
-1438 -1719 0
-1439 -1720 0
-1442 -1721 0
-1437 -1722 0
-1439 -1726 0
-1441 -1727 0
-1442 -1728 0
-1437 -1743 0
-1438 -1746 0
-1439 -1747 0
-1441 -1748 0
-1442 -1749 0
-1437 -1750 0
-1438 -1752 0
-1439 -1754 0
-1442 -1755 0
-1439 -1771 0
-1441 -1772 0
-1442 -1773 0
-1438 -1796 0
-1439 -1797 0
-1441 -1798 0
-1442 -1799 0
-1439 -1802 0
-1440 -1803 0
-1441 -1804 0
-1442 -1805 0
-1438 -1819 0
-1439 -1821 0
-1440 -1822 0
-1442 -1823 0
-1438 -1832 0
-1440 -1834 0
-1442 -1835 0
-1438 -1846 0
-1440 -1848 0
-1441 -1849 0
-1442 -1850 0
-1440 -1862 0
-1441 -1863 0
-1442 -1864 0
-1439 -1867 0
-1440 -1868 0
-1441 -1869 0
-1442 -1870 0
-1439 -1882 0
-1441 -1883 0
-1442 -1884 0
-1437 -1885 0
-1438 -1888 0
-1439 -1889 0
-1441 -1890 0
-1442 -1891 0
-1440 -1902 0
-1441 -1903 0
-1442 -1904 0
-1437 -1918 0
-1438 -1921 0
-1440 -1923 0
-1442 -1924 0
-1437 -1937 0
-1438 -1938 0
-1439 -1939 0
-1440 -1940 0
-1441 -1941 0
-1442 -1942 0
-1438 -1944 0
-1439 -1946 0
-1440 -1947 0
-1441 -1948 0
-1442 -1949 0
-1438 -1953 0
-1439 -1955 0
-1440 -1956 0
-1441 -1957 0
-1442 -1958 0
-1444 -1472 0
-1445 -1473 0
-1446 -1474 0
-1447 -1475 0
-1448 -1477 0
-1445 -1487 0
-1447 -1488 0
-1448 -1491 0
-1445 -1494 0
-1446 -1495 0
-1447 -1496 0
-1448 -1498 0
-1445 -1522 0
-1447 -1523 0
-1448 -1525 0
-1444 -1541 0
-1445 -1542 0
-1446 -1543 0
-1447 -1544 0
-1448 -1545 0
-1444 -1561 0
-1445 -1562 0
-1447 -1563 0
-1448 -1565 0
-1443 -1575 0
-1445 -1578 0
-1447 -1579 0
-1448 -1580 0
-1445 -1602 0
-1446 -1603 0
-1447 -1604 0
-1448 -1606 0
-1444 -1609 0
-1445 -1610 0
-1446 -1611 0
-1447 -1612 0
-1448 -1613 0
-1443 -1621 0
-1445 -1623 0
-1446 -1624 0
-1448 -1626 0
-1445 -1630 0
-1446 -1631 0
-1448 -1633 0
-1444 -1635 0
-1445 -1636 0
-1446 -1637 0
-1448 -1639 0
-1444 -1648 0
-1445 -1649 0
-1446 -1650 0
-1447 -1651 0
-1448 -1654 0
-1443 -1661 0
-1444 -1663 0
-1445 -1664 0
-1446 -1665 0
-1448 -1667 0
-1445 -1682 0
-1446 -1683 0
-1448 -1686 0
-1444 -1696 0
-1445 -1697 0
-1446 -1698 0
-1448 -1700 0
-1443 -1707 0
-1445 -1710 0
-1446 -1711 0
-1447 -1712 0
-1448 -1715 0
-1444 -1718 0
-1445 -1719 0
-1447 -1720 0
-1448 -1721 0
-1443 -1729 0
-1444 -1731 0
-1445 -1732 0
-1447 -1733 0
-1448 -1735 0
-1443 -1736 0
-1444 -1738 0
-1445 -1739 0
-1446 -1740 0
-1448 -1742 0
-1443 -1750 0
-1444 -1751 0
-1445 -1752 0
-1446 -1753 0
-1447 -1754 0
-1448 -1755 0
-1444 -1775 0
-1445 -1776 0
-1448 -1779 0
-1444 -1781 0
-1445 -1782 0
-1446 -1783 0
-1447 -1784 0
-1448 -1787 0
-1445 -1789 0
-1446 -1790 0
-1448 -1793 0
-1445 -1807 0
-1446 -1808 0
-1447 -1809 0
-1448 -1811 0
-1444 -1813 0
-1445 -1814 0
-1448 -1817 0
-1445 -1825 0
-1446 -1826 0
-1447 -1827 0
-1448 -1829 0
-1444 -1853 0
-1447 -1854 0
-1448 -1857 0
-1444 -1860 0
-1446 -1861 0
-1448 -1864 0
-1447 -1867 0
-1448 -1870 0
-1444 -1880 0
-1446 -1881 0
-1447 -1882 0
-1448 -1884 0
-1443 -1892 0
-1446 -1894 0
-1447 -1895 0
-1448 -1898 0
-1446 -1901 0
-1448 -1904 0
-1443 -1911 0
-1446 -1913 0
-1447 -1914 0
-1448 -1917 0
-1443 -1931 0
-1444 -1932 0
-1446 -1933 0
-1448 -1936 0
-1450 -1472 0
-1451 -1473 0
-1452 -1474 0
-1453 -1475 0
-1454 -1476 0
-1456 -1477 0
-1451 -1522 0
-1453 -1523 0
-1455 -1524 0
-1456 -1525 0
-1451 -1602 0
-1452 -1603 0
-1453 -1604 0
-1454 -1605 0
-1456 -1606 0
-1450 -1609 0
-1451 -1610 0
-1452 -1611 0
-1453 -1612 0
-1456 -1613 0
-1451 -1623 0
-1452 -1624 0
-1454 -1625 0
-1456 -1626 0
-1451 -1630 0
-1452 -1631 0
-1454 -1632 0
-1456 -1633 0
-1450 -1641 0
-1451 -1642 0
-1453 -1643 0
-1454 -1644 0
-1456 -1645 0
-1450 -1657 0
-1451 -1658 0
-1452 -1659 0
-1456 -1660 0
-1451 -1670 0
-1452 -1671 0
-1453 -1672 0
-1454 -1673 0
-1456 -1674 0
-1450 -1676 0
-1452 -1677 0
-1453 -1678 0
-1454 -1679 0
-1456 -1680 0
-1450 -1696 0
-1451 -1697 0
-1452 -1698 0
-1455 -1699 0
-1456 -1700 0
-1451 -1710 0
-1452 -1711 0
-1453 -1712 0
-1454 -1713 0
-1455 -1714 0
-1456 -1715 0
-1450 -1745 0
-1451 -1746 0
-1453 -1747 0
-1455 -1748 0
-1456 -1749 0
-1450 -1763 0
-1453 -1764 0
-1454 -1765 0
-1455 -1766 0
-1456 -1767 0
-1450 -1769 0
-1452 -1770 0
-1453 -1771 0
-1455 -1772 0
-1456 -1773 0
-1450 -1781 0
-1451 -1782 0
-1452 -1783 0
-1453 -1784 0
-1454 -1785 0
-1455 -1786 0
-1456 -1787 0
-1450 -1795 0
-1451 -1796 0
-1453 -1797 0
-1455 -1798 0
-1456 -1799 0
-1451 -1819 0
-1452 -1820 0
-1453 -1821 0
-1454 -1822 0
-1456 -1823 0
-1451 -1825 0
-1452 -1826 0
-1453 -1827 0
-1455 -1828 0
-1456 -1829 0
-1450 -1836 0
-1451 -1837 0
-1452 -1838 0
-1453 -1839 0
-1454 -1840 0
-1455 -1841 0
-1456 -1842 0
-1450 -1853 0
-1453 -1854 0
-1454 -1855 0
-1455 -1856 0
-1456 -1857 0
-1450 -1860 0
-1452 -1861 0
-1454 -1862 0
-1455 -1863 0
-1456 -1864 0
-1452 -1901 0
-1454 -1902 0
-1455 -1903 0
-1456 -1904 0
-1452 -1913 0
-1453 -1914 0
-1454 -1915 0
-1455 -1916 0
-1456 -1917 0
-1450 -1926 0
-1451 -1927 0
-1454 -1928 0
-1455 -1929 0
-1456 -1930 0
-1451 -1938 0
-1453 -1939 0
-1454 -1940 0
-1455 -1941 0
-1456 -1942 0
-1450 -1943 0
-1451 -1944 0
-1452 -1945 0
-1453 -1946 0
-1454 -1947 0
-1455 -1948 0
-1456 -1949 0
-1450 -1952 0
-1451 -1953 0
-1452 -1954 0
-1453 -1955 0
-1454 -1956 0
-1455 -1957 0
-1456 -1958 0
-1459 -1563 0
-1460 -1564 0
-1462 -1565 0
-1458 -1659 0
-1462 -1660 0
-1458 -1698 0
-1461 -1699 0
-1462 -1700 0
-1459 -1720 0
-1462 -1721 0
-1458 -1740 0
-1460 -1741 0
-1462 -1742 0
-1459 -1747 0
-1461 -1748 0
-1462 -1749 0
-1458 -1770 0
-1459 -1771 0
-1461 -1772 0
-1462 -1773 0
-1460 -1777 0
-1461 -1778 0
-1462 -1779 0
-1458 -1783 0
-1459 -1784 0
-1460 -1785 0
-1461 -1786 0
-1462 -1787 0
-1460 -1815 0
-1461 -1816 0
-1462 -1817 0
-1458 -1820 0
-1459 -1821 0
-1460 -1822 0
-1462 -1823 0
-1458 -1838 0
-1459 -1839 0
-1460 -1840 0
-1461 -1841 0
-1462 -1842 0
-1458 -1881 0
-1459 -1882 0
-1461 -1883 0
-1462 -1884 0
-1458 -1907 0
-1459 -1908 0
-1460 -1909 0
-1462 -1910 0
-1460 -1928 0
-1461 -1929 0
-1462 -1930 0
-1463 -1539 0
-1464 -1540 0
-1466 -1543 0
-1468 -1545 0
-1465 -1587 0
-1466 -1589 0
-1468 -1592 0
-1464 -1640 0
-1468 -1645 0
-1463 -1716 0
-1468 -1721 0
-1468 -1735 0
-1463 -1744 0
-1467 -1748 0
-1468 -1749 0
-1467 -1766 0
-1468 -1767 0
-1463 -1774 0
-1467 -1778 0
-1468 -1779 0
-1466 -1808 0
-1467 -1810 0
-1468 -1811 0
-1463 -1818 0
-1466 -1820 0
-1468 -1823 0
-1463 -1879 0
-1466 -1881 0
-1467 -1883 0
-1468 -1884 0
-1463 -1893 0
-1466 -1894 0
-1467 -1897 0
-1468 -1898 0
-1463 -1925 0
-1467 -1929 0
-1468 -1930 0
-1467 -1941 0
-1468 -1942 0
-1466 -1954 0
-1467 -1957 0
-1468 -1958 0
-1469 -1532 0
-1470 -1533 0
-1472 -1534 0
-1475 -1535 0
-1476 -1536 0
-1477 -1538 0
-1471 -1581 0
-1472 -1582 0
-1473 -1583 0
-1475 -1584 0
-1477 -1586 0
-1470 -1634 0
-1472 -1635 0
-1473 -1636 0
-1474 -1637 0
-1477 -1639 0
-1469 -1716 0
-1472 -1718 0
-1473 -1719 0
-1475 -1720 0
-1477 -1721 0
-1472 -1724 0
-1474 -1725 0
-1475 -1726 0
-1477 -1728 0
-1469 -1737 0
-1472 -1738 0
-1473 -1739 0
-1474 -1740 0
-1476 -1741 0
-1477 -1742 0
-1472 -1757 0
-1473 -1758 0
-1474 -1759 0
-1476 -1760 0
-1477 -1761 0
-1469 -1768 0
-1472 -1769 0
-1474 -1770 0
-1475 -1771 0
-1477 -1773 0
-1472 -1781 0
-1473 -1782 0
-1474 -1783 0
-1475 -1784 0
-1476 -1785 0
-1477 -1787 0
-1472 -1801 0
-1475 -1802 0
-1476 -1803 0
-1477 -1805 0
-1469 -1812 0
-1472 -1813 0
-1473 -1814 0
-1476 -1815 0
-1477 -1817 0
-1472 -1836 0
-1473 -1837 0
-1474 -1838 0
-1475 -1839 0
-1476 -1840 0
-1477 -1842 0
-1469 -1879 0
-1472 -1880 0
-1474 -1881 0
-1475 -1882 0
-1477 -1884 0
-1469 -1886 0
-1472 -1887 0
-1473 -1888 0
-1475 -1889 0
-1477 -1891 0
-1469 -1925 0
-1472 -1926 0
-1473 -1927 0
-1476 -1928 0
-1477 -1930 0
-1472 -1932 0
-1474 -1933 0
-1476 -1934 0
-1477 -1936 0
-1472 -1943 0
-1473 -1944 0
-1474 -1945 0
-1475 -1946 0
-1476 -1947 0
-1477 -1949 0
-1478 -1521 0
-1482 -1523 0
-1483 -1524 0
-1484 -1525 0
-1478 -1615 0
-1481 -1617 0
-1483 -1619 0
-1484 -1620 0
-1479 -1681 0
-1481 -1683 0
-1483 -1685 0
-1484 -1686 0
-1480 -1696 0
-1481 -1698 0
-1483 -1699 0
-1484 -1700 0
-1481 -1711 0
-1482 -1712 0
-1483 -1714 0
-1484 -1715 0
-1480 -1745 0
-1482 -1747 0
-1483 -1748 0
-1484 -1749 0
-1480 -1763 0
-1482 -1764 0
-1483 -1766 0
-1484 -1767 0
-1480 -1769 0
-1481 -1770 0
-1482 -1771 0
-1483 -1772 0
-1484 -1773 0
-1480 -1781 0
-1481 -1783 0
-1482 -1784 0
-1483 -1786 0
-1484 -1787 0
-1481 -1820 0
-1482 -1821 0
-1484 -1823 0
-1480 -1831 0
-1481 -1833 0
-1484 -1835 0
-1481 -1907 0
-1482 -1908 0
-1484 -1910 0
-1480 -1920 0
-1481 -1922 0
-1484 -1924 0
-1485 -1515 0
-1489 -1518 0
-1491 -1519 0
-1485 -1608 0
-1487 -1610 0
-1488 -1612 0
-1491 -1613 0
-1486 -1675 0
-1488 -1678 0
-1489 -1679 0
-1491 -1680 0
-1487 -1697 0
-1490 -1699 0
-1491 -1700 0
-1491 -1706 0
-1487 -1739 0
-1489 -1741 0
-1491 -1742 0
-1487 -1758 0
-1489 -1760 0
-1491 -1761 0
-1487 -1776 0
-1489 -1777 0
-1490 -1778 0
-1491 -1779 0
-1487 -1814 0
-1489 -1815 0
-1490 -1816 0
-1491 -1817 0
-1487 -1825 0
-1488 -1827 0
-1490 -1828 0
-1491 -1829 0
-1487 -1837 0
-1488 -1839 0
-1489 -1840 0
-1490 -1841 0
-1491 -1842 0
-1487 -1906 0
-1488 -1908 0
-1489 -1909 0
-1491 -1910 0
-1488 -1914 0
-1489 -1915 0
-1490 -1916 0
-1491 -1917 0
-1487 -1944 0
-1488 -1946 0
-1489 -1947 0
-1490 -1948 0
-1491 -1949 0
-1494 -1758 0
-1495 -1759 0
-1498 -1761 0
-1496 -1764 0
-1497 -1766 0
-1498 -1767 0
-1492 -1768 0
-1495 -1770 0
-1496 -1771 0
-1497 -1772 0
-1498 -1773 0
-1492 -1774 0
-1494 -1776 0
-1497 -1778 0
-1498 -1779 0
-1494 -1782 0
-1495 -1783 0
-1496 -1784 0
-1497 -1786 0
-1498 -1787 0
-1494 -1944 0
-1495 -1945 0
-1496 -1946 0
-1497 -1948 0
-1498 -1949 0
-1499 -1614 0
-1500 -1615 0
-1503 -1616 0
-1504 -1617 0
-1506 -1619 0
-1507 -1620 0
-1500 -1640 0
-1502 -1641 0
-1503 -1642 0
-1505 -1643 0
-1507 -1645 0
-1499 -1655 0
-1502 -1657 0
-1503 -1658 0
-1504 -1659 0
-1507 -1660 0
-1503 -1670 0
-1504 -1671 0
-1505 -1672 0
-1507 -1674 0
-1503 -1682 0
-1504 -1683 0
-1506 -1685 0
-1507 -1686 0
-1499 -1744 0
-1502 -1745 0
-1503 -1746 0
-1505 -1747 0
-1506 -1748 0
-1507 -1749 0
-1499 -1774 0
-1502 -1775 0
-1503 -1776 0
-1506 -1778 0
-1507 -1779 0
-1502 -1781 0
-1503 -1782 0
-1504 -1783 0
-1505 -1784 0
-1506 -1786 0
-1507 -1787 0
-1502 -1795 0
-1503 -1796 0
-1505 -1797 0
-1506 -1798 0
-1507 -1799 0
-1499 -1818 0
-1503 -1819 0
-1504 -1820 0
-1505 -1821 0
-1507 -1823 0
-1501 -1830 0
-1502 -1831 0
-1503 -1832 0
-1504 -1833 0
-1507 -1835 0
-1502 -1836 0
-1503 -1837 0
-1504 -1838 0
-1505 -1839 0
-1506 -1841 0
-1507 -1842 0
-1499 -1905 0
-1503 -1906 0
-1504 -1907 0
-1505 -1908 0
-1507 -1910 0
-1499 -1919 0
-1502 -1920 0
-1503 -1921 0
-1504 -1922 0
-1507 -1924 0
-1499 -1925 0
-1502 -1926 0
-1503 -1927 0
-1506 -1929 0
-1507 -1930 0
-1503 -1938 0
-1505 -1939 0
-1506 -1941 0
-1507 -1942 0
-1502 -1952 0
-1503 -1953 0
-1504 -1954 0
-1505 -1955 0
-1506 -1957 0
-1507 -1958 0
-1508 -1607 0
-1509 -1608 0
-1511 -1612 0
-1513 -1613 0
-1509 -1634 0
-1513 -1639 0
-1508 -1655 0
-1513 -1660 0
-1513 -1667 0
-1511 -1678 0
-1512 -1679 0
-1513 -1680 0
-1508 -1737 0
-1512 -1741 0
-1513 -1742 0
-1508 -1768 0
-1511 -1771 0
-1513 -1773 0
-1512 -1791 0
-1513 -1793 0
-1508 -1812 0
-1512 -1815 0
-1513 -1817 0
-1510 -1824 0
-1511 -1827 0
-1513 -1829 0
-1508 -1905 0
-1511 -1908 0
-1512 -1909 0
-1513 -1910 0
-1508 -1912 0
-1511 -1914 0
-1512 -1915 0
-1513 -1917 0
-1508 -1925 0
-1512 -1928 0
-1513 -1930 0
-1512 -1934 0
-1513 -1936 0
-1511 -1946 0
-1512 -1947 0
-1513 -1949 0
-1516 -1588 0
-1517 -1589 0
-1518 -1591 0
-1519 -1592 0
-1515 -1600 0
-1517 -1603 0
-1518 -1605 0
-1519 -1606 0
-1515 -1640 0
-1516 -1641 0
-1518 -1644 0
-1519 -1645 0
-1516 -1648 0
-1517 -1650 0
-1518 -1652 0
-1519 -1654 0
-1517 -1671 0
-1518 -1673 0
-1519 -1674 0
-1517 -1683 0
-1518 -1684 0
-1519 -1686 0
-1516 -1731 0
-1518 -1734 0
-1519 -1735 0
-1516 -1763 0
-1518 -1765 0
-1519 -1767 0
-1516 -1781 0
-1517 -1783 0
-1518 -1785 0
-1519 -1787 0
-1516 -1795 0
-1519 -1799 0
-1517 -1808 0
-1519 -1811 0
-1516 -1831 0
-1517 -1833 0
-1518 -1834 0
-1519 -1835 0
-1514 -1851 0
-1515 -1852 0
-1516 -1853 0
-1518 -1855 0
-1519 -1857 0
-1514 -1865 0
-1518 -1868 0
-1519 -1870 0
-1514 -1893 0
-1517 -1894 0
-1518 -1896 0
-1519 -1898 0
-1514 -1899 0
-1517 -1901 0
-1518 -1902 0
-1519 -1904 0
-1514 -1919 0
-1516 -1920 0
-1517 -1922 0
-1518 -1923 0
-1519 -1924 0
-1514 -1925 0
-1516 -1926 0
-1518 -1928 0
-1519 -1930 0
-1516 -1932 0
-1517 -1933 0
-1518 -1934 0
-1519 -1936 0
-1516 -1943 0
-1517 -1945 0
-1518 -1947 0
-1519 -1949 0
-1522 -1583 0
-1523 -1584 0
-1524 -1585 0
-1525 -1586 0
-1521 -1593 0
-1524 -1598 0
-1525 -1599 0
-1521 -1634 0
-1522 -1636 0
-1524 -1638 0
-1525 -1639 0
-1522 -1649 0
-1523 -1651 0
-1524 -1653 0
-1525 -1654 0
-1522 -1664 0
-1524 -1666 0
-1525 -1667 0
-1523 -1678 0
-1525 -1680 0
-1523 -1726 0
-1524 -1727 0
-1525 -1728 0
-1522 -1758 0
-1525 -1761 0
-1522 -1789 0
-1524 -1792 0
-1525 -1793 0
-1523 -1802 0
-1524 -1804 0
-1525 -1805 0
-1522 -1825 0
-1523 -1827 0
-1524 -1828 0
-1525 -1829 0
-1522 -1837 0
-1523 -1839 0
-1524 -1841 0
-1525 -1842 0
-1520 -1844 0
-1521 -1845 0
-1522 -1846 0
-1524 -1849 0
-1525 -1850 0
-1520 -1865 0
-1523 -1867 0
-1524 -1869 0
-1525 -1870 0
-1520 -1886 0
-1522 -1888 0
-1523 -1889 0
-1524 -1890 0
-1525 -1891 0
-1520 -1899 0
-1524 -1903 0
-1525 -1904 0
-1520 -1912 0
-1523 -1914 0
-1524 -1916 0
-1525 -1917 0
-1520 -1925 0
-1522 -1927 0
-1524 -1929 0
-1525 -1930 0
-1522 -1938 0
-1523 -1939 0
-1524 -1941 0
-1525 -1942 0
-1522 -1953 0
-1523 -1955 0
-1524 -1957 0
-1525 -1958 0
-1529 -1637 0
-1531 -1639 0
-1530 -1643 0
-1531 -1645 0
-1529 -1783 0
-1530 -1784 0
-1531 -1787 0
-1529 -1838 0
-1530 -1839 0
-1531 -1842 0
-1526 -1925 0
-1531 -1930 0
-1529 -1933 0
-1531 -1936 0
-1530 -1939 0
-1531 -1942 0
-1529 -1945 0
-1530 -1946 0
-1531 -1949 0
-1529 -1954 0
-1530 -1955 0
-1531 -1958 0
-1533 -1600 0
-1535 -1604 0
-1536 -1605 0
-1538 -1606 0
-1532 -1614 0
-1533 -1615 0
-1536 -1618 0
-1537 -1619 0
-1538 -1620 0
-1533 -1622 0
-1536 -1625 0
-1538 -1626 0
-1532 -1627 0
-1536 -1632 0
-1538 -1633 0
-1535 -1672 0
-1536 -1673 0
-1538 -1674 0
-1534 -1676 0
-1535 -1678 0
-1536 -1679 0
-1538 -1680 0
-1532 -1708 0
-1535 -1712 0
-1536 -1713 0
-1537 -1714 0
-1538 -1715 0
-1534 -1763 0
-1535 -1764 0
-1536 -1765 0
-1537 -1766 0
-1538 -1767 0
-1532 -1774 0
-1534 -1775 0
-1536 -1777 0
-1537 -1778 0
-1538 -1779 0
-1534 -1795 0
-1535 -1797 0
-1537 -1798 0
-1538 -1799 0
-1535 -1827 0
-1537 -1828 0
-1538 -1829 0
-1532 -1851 0
-1533 -1852 0
-1534 -1853 0
-1535 -1854 0
-1536 -1855 0
-1537 -1856 0
-1538 -1857 0
-1532 -1858 0
-1534 -1860 0
-1536 -1862 0
-1537 -1863 0
-1538 -1864 0
-1532 -1899 0
-1536 -1902 0
-1537 -1903 0
-1538 -1904 0
-1532 -1905 0
-1535 -1908 0
-1536 -1909 0
-1538 -1910 0
-1532 -1912 0
-1535 -1914 0
-1536 -1915 0
-1537 -1916 0
-1538 -1917 0
-1535 -1939 0
-1536 -1940 0
-1537 -1941 0
-1538 -1942 0
-1534 -1943 0
-1535 -1946 0
-1536 -1947 0
-1537 -1948 0
-1538 -1949 0
-1534 -1952 0
-1535 -1955 0
-1536 -1956 0
-1537 -1957 0
-1538 -1958 0
-1540 -1593 0
-1541 -1595 0
-1543 -1596 0
-1545 -1599 0
-1539 -1607 0
-1540 -1608 0
-1541 -1609 0
-1542 -1610 0
-1543 -1611 0
-1544 -1612 0
-1545 -1613 0
-1540 -1622 0
-1542 -1623 0
-1543 -1624 0
-1545 -1626 0
-1539 -1627 0
-1542 -1630 0
-1543 -1631 0
-1545 -1633 0
-1541 -1663 0
-1542 -1664 0
-1543 -1665 0
-1545 -1667 0
-1542 -1682 0
-1543 -1683 0
-1545 -1686 0
-1539 -1702 0
-1541 -1704 0
-1543 -1705 0
-1545 -1706 0
-1541 -1757 0
-1542 -1758 0
-1543 -1759 0
-1545 -1761 0
-1539 -1768 0
-1541 -1769 0
-1543 -1770 0
-1544 -1771 0
-1545 -1773 0
-1542 -1789 0
-1543 -1790 0
-1545 -1793 0
-1541 -1831 0
-1542 -1832 0
-1543 -1833 0
-1545 -1835 0
-1541 -1836 0
-1542 -1837 0
-1543 -1838 0
-1544 -1839 0
-1545 -1842 0
-1539 -1844 0
-1540 -1845 0
-1542 -1846 0
-1543 -1847 0
-1545 -1850 0
-1539 -1858 0
-1541 -1860 0
-1543 -1861 0
-1545 -1864 0
-1539 -1899 0
-1543 -1901 0
-1545 -1904 0
-1539 -1905 0
-1542 -1906 0
-1543 -1907 0
-1544 -1908 0
-1545 -1910 0
-1539 -1919 0
-1541 -1920 0
-1542 -1921 0
-1543 -1922 0
-1545 -1924 0
-1541 -1932 0
-1543 -1933 0
-1545 -1936 0
-1547 -1608 0
-1548 -1609 0
-1549 -1612 0
-1551 -1613 0
-1547 -1615 0
-1550 -1619 0
-1551 -1620 0
-1551 -1633 0
-1548 -1657 0
-1551 -1660 0
-1548 -1676 0
-1549 -1678 0
-1551 -1680 0
-1550 -1685 0
-1551 -1686 0
-1548 -1696 0
-1550 -1699 0
-1551 -1700 0
-1548 -1769 0
-1549 -1771 0
-1550 -1772 0
-1551 -1773 0
-1548 -1775 0
-1550 -1778 0
-1551 -1779 0
-1549 -1827 0
-1550 -1828 0
-1551 -1829 0
-1548 -1831 0
-1551 -1835 0
-1548 -1836 0
-1549 -1839 0
-1550 -1841 0
-1551 -1842 0
-1548 -1860 0
-1550 -1863 0
-1551 -1864 0
-1550 -1903 0
-1551 -1904 0
-1546 -1911 0
-1549 -1914 0
-1550 -1916 0
-1551 -1917 0
-1546 -1918 0
-1548 -1920 0
-1551 -1924 0
-1548 -1926 0
-1550 -1929 0
-1551 -1930 0
-1548 -1943 0
-1549 -1946 0
-1550 -1948 0
-1551 -1949 0
-1552 -1607 0
-1555 -1609 0
-1556 -1612 0
-1558 -1613 0
-1552 -1614 0
-1557 -1619 0
-1558 -1620 0
-1558 -1626 0
-1553 -1675 0
-1555 -1676 0
-1556 -1678 0
-1558 -1680 0
-1553 -1681 0
-1557 -1685 0
-1558 -1686 0
-1552 -1768 0
-1555 -1769 0
-1556 -1771 0
-1557 -1772 0
-1558 -1773 0
-1552 -1774 0
-1555 -1775 0
-1557 -1778 0
-1558 -1779 0
-1554 -1824 0
-1556 -1827 0
-1557 -1828 0
-1558 -1829 0
-1554 -1830 0
-1555 -1831 0
-1558 -1835 0
-1555 -1836 0
-1556 -1839 0
-1557 -1841 0
-1558 -1842 0
-1552 -1905 0
-1556 -1908 0
-1558 -1910 0
-1552 -1912 0
-1556 -1914 0
-1557 -1916 0
-1558 -1917 0
-1552 -1919 0
-1555 -1920 0
-1558 -1924 0
-1555 -1943 0
-1556 -1946 0
-1557 -1948 0
-1558 -1949 0
-1561 -1595 0
-1564 -1597 0
-1565 -1599 0
-1562 -1602 0
-1563 -1604 0
-1564 -1605 0
-1565 -1606 0
-1562 -1623 0
-1564 -1625 0
-1565 -1626 0
-1560 -1675 0
-1561 -1676 0
-1563 -1678 0
-1564 -1679 0
-1565 -1680 0
-1560 -1681 0
-1562 -1682 0
-1564 -1684 0
-1565 -1686 0
-1561 -1757 0
-1562 -1758 0
-1564 -1760 0
-1565 -1761 0
-1561 -1763 0
-1563 -1764 0
-1564 -1765 0
-1565 -1767 0
-1562 -1825 0
-1563 -1827 0
-1565 -1829 0
-1561 -1831 0
-1562 -1832 0
-1564 -1834 0
-1565 -1835 0
-1559 -1844 0
-1562 -1846 0
-1564 -1848 0
-1565 -1850 0
-1559 -1851 0
-1561 -1853 0
-1563 -1854 0
-1564 -1855 0
-1565 -1857 0
-1559 -1899 0
-1564 -1902 0
-1565 -1904 0
-1559 -1912 0
-1563 -1914 0
-1564 -1915 0
-1565 -1917 0
-1559 -1919 0
-1561 -1920 0
-1562 -1921 0
-1564 -1923 0
-1565 -1924 0
-1561 -1932 0
-1564 -1934 0
-1565 -1936 0
-1562 -1938 0
-1563 -1939 0
-1564 -1940 0
-1565 -1942 0
-1561 -1952 0
-1562 -1953 0
-1563 -1955 0
-1564 -1956 0
-1565 -1958 0
-1570 -1603 0
-1571 -1604 0
-1572 -1605 0
-1574 -1606 0
-1567 -1614 0
-1570 -1617 0
-1572 -1618 0
-1573 -1619 0
-1574 -1620 0
-1569 -1641 0
-1571 -1643 0
-1572 -1644 0
-1574 -1645 0
-1568 -1681 0
-1570 -1683 0
-1572 -1684 0
-1573 -1685 0
-1574 -1686 0
-1569 -1763 0
-1571 -1764 0
-1572 -1765 0
-1573 -1766 0
-1574 -1767 0
-1567 -1774 0
-1569 -1775 0
-1572 -1777 0
-1573 -1778 0
-1574 -1779 0
-1569 -1781 0
-1570 -1783 0
-1571 -1784 0
-1572 -1785 0
-1573 -1786 0
-1574 -1787 0
-1569 -1831 0
-1570 -1833 0
-1572 -1834 0
-1574 -1835 0
-1567 -1851 0
-1569 -1853 0
-1571 -1854 0
-1572 -1855 0
-1573 -1856 0
-1574 -1857 0
-1567 -1899 0
-1570 -1901 0
-1572 -1902 0
-1573 -1903 0
-1574 -1904 0
-1567 -1905 0
-1570 -1907 0
-1571 -1908 0
-1572 -1909 0
-1574 -1910 0
-1566 -1918 0
-1567 -1919 0
-1569 -1920 0
-1570 -1922 0
-1572 -1923 0
-1574 -1924 0
-1567 -1925 0
-1569 -1926 0
-1572 -1928 0
-1573 -1929 0
-1574 -1930 0
-1566 -1937 0
-1571 -1939 0
-1572 -1940 0
-1573 -1941 0
-1574 -1942 0
-1569 -1943 0
-1570 -1945 0
-1571 -1946 0
-1572 -1947 0
-1573 -1948 0
-1574 -1949 0
-1569 -1952 0
-1570 -1954 0
-1571 -1955 0
-1572 -1956 0
-1573 -1957 0
-1574 -1958 0
-1580 -1599 0
-1576 -1607 0
-1578 -1610 0
-1579 -1612 0
-1580 -1613 0
-1578 -1636 0
-1580 -1639 0
-1577 -1675 0
-1579 -1678 0
-1580 -1680 0
-1578 -1758 0
-1580 -1761 0
-1576 -1768 0
-1579 -1771 0
-1580 -1773 0
-1578 -1825 0
-1579 -1827 0
-1580 -1829 0
-1578 -1837 0
-1579 -1839 0
-1580 -1842 0
-1576 -1844 0
-1578 -1846 0
-1580 -1850 0
-1576 -1899 0
-1580 -1904 0
-1576 -1905 0
-1578 -1906 0
-1579 -1908 0
-1580 -1910 0
-1575 -1911 0
-1576 -1912 0
-1579 -1914 0
-1580 -1917 0
-1576 -1925 0
-1578 -1927 0
-1580 -1930 0
-1575 -1931 0
-1580 -1936 0
-1583 -1602 0
-1584 -1604 0
-1586 -1606 0
-1582 -1609 0
-1583 -1610 0
-1584 -1612 0
-1586 -1613 0
-1583 -1623 0
-1586 -1626 0
-1581 -1628 0
-1583 -1630 0
-1586 -1633 0
-1582 -1641 0
-1583 -1642 0
-1584 -1643 0
-1586 -1645 0
-1581 -1656 0
-1582 -1657 0
-1583 -1658 0
-1586 -1660 0
-1581 -1669 0
-1583 -1670 0
-1584 -1672 0
-1586 -1674 0
-1581 -1681 0
-1583 -1682 0
-1585 -1685 0
-1586 -1686 0
-1582 -1696 0
-1583 -1697 0
-1585 -1699 0
-1586 -1700 0
-1583 -1710 0
-1584 -1712 0
-1585 -1714 0
-1586 -1715 0
-1582 -1745 0
-1583 -1746 0
-1584 -1747 0
-1585 -1748 0
-1586 -1749 0
-1582 -1775 0
-1583 -1776 0
-1585 -1778 0
-1586 -1779 0
-1581 -1794 0
-1582 -1795 0
-1583 -1796 0
-1584 -1797 0
-1585 -1798 0
-1586 -1799 0
-1583 -1819 0
-1584 -1821 0
-1586 -1823 0
-1583 -1825 0
-1584 -1827 0
-1585 -1828 0
-1586 -1829 0
-1582 -1836 0
-1583 -1837 0
-1584 -1839 0
-1585 -1841 0
-1586 -1842 0
-1582 -1853 0
-1584 -1854 0
-1585 -1856 0
-1586 -1857 0
-1581 -1859 0
-1582 -1860 0
-1585 -1863 0
-1586 -1864 0
-1585 -1903 0
-1586 -1904 0
-1584 -1914 0
-1585 -1916 0
-1586 -1917 0
-1582 -1926 0
-1583 -1927 0
-1585 -1929 0
-1586 -1930 0
-1583 -1938 0
-1584 -1939 0
-1585 -1941 0
-1586 -1942 0
-1582 -1952 0
-1583 -1953 0
-1584 -1955 0
-1585 -1957 0
-1586 -1958 0
-1588 -1595 0
-1589 -1596 0
-1591 -1597 0
-1592 -1599 0
-1589 -1617 0
-1591 -1618 0
-1592 -1620 0
-1589 -1624 0
-1591 -1625 0
-1592 -1626 0
-1587 -1628 0
-1589 -1631 0
-1591 -1632 0
-1592 -1633 0
-1588 -1635 0
-1589 -1637 0
-1592 -1639 0
-1587 -1656 0
-1588 -1657 0
-1589 -1659 0
-1592 -1660 0
-1587 -1662 0
-1588 -1663 0
-1589 -1665 0
-1592 -1667 0
-1587 -1675 0
-1588 -1676 0
-1589 -1677 0
-1590 -1678 0
-1591 -1679 0
-1592 -1680 0
-1588 -1696 0
-1589 -1698 0
-1592 -1700 0
-1588 -1704 0
-1589 -1705 0
-1592 -1706 0
-1588 -1738 0
-1589 -1740 0
-1591 -1741 0
-1592 -1742 0
-1588 -1769 0
-1589 -1770 0
-1590 -1771 0
-1592 -1773 0
-1587 -1788 0
-1589 -1790 0
-1591 -1791 0
-1592 -1793 0
-1588 -1813 0
-1591 -1815 0
-1592 -1817 0
-1588 -1831 0
-1589 -1833 0
-1591 -1834 0
-1592 -1835 0
-1589 -1847 0
-1591 -1848 0
-1592 -1850 0
-1587 -1859 0
-1588 -1860 0
-1589 -1861 0
-1591 -1862 0
-1592 -1864 0
-1589 -1901 0
-1591 -1902 0
-1592 -1904 0
-1588 -1920 0
-1589 -1922 0
-1591 -1923 0
-1592 -1924 0
-1588 -1926 0
-1591 -1928 0
-1592 -1930 0
-1588 -1932 0
-1589 -1933 0
-1591 -1934 0
-1592 -1936 0
-1588 -1943 0
-1589 -1945 0
-1590 -1946 0
-1591 -1947 0
-1592 -1949 0
-1595 -1745 0
-1598 -1748 0
-1599 -1749 0
-1595 -1775 0
-1597 -1777 0
-1598 -1778 0
-1599 -1779 0
-1595 -1781 0
-1596 -1783 0
-1597 -1785 0
-1598 -1786 0
-1599 -1787 0
-1595 -1795 0
-1598 -1798 0
-1599 -1799 0
-1594 -1806 0
-1596 -1808 0
-1598 -1810 0
-1599 -1811 0
-1595 -1813 0
-1597 -1815 0
-1598 -1816 0
-1599 -1817 0
-1595 -1880 0
-1596 -1881 0
-1598 -1883 0
-1599 -1884 0
-1596 -1894 0
-1597 -1896 0
-1598 -1897 0
-1599 -1898 0
-1595 -1952 0
-1596 -1954 0
-1597 -1956 0
-1598 -1957 0
-1599 -1958 0
-1602 -1739 0
-1603 -1740 0
-1605 -1741 0
-1606 -1742 0
-1603 -1770 0
-1604 -1771 0
-1606 -1773 0
-1602 -1789 0
-1603 -1790 0
-1605 -1791 0
-1606 -1793 0
-1601 -1800 0
-1604 -1802 0
-1605 -1803 0
-1606 -1805 0
-1602 -1819 0
-1603 -1820 0
-1604 -1821 0
-1605 -1822 0
-1606 -1823 0
-1602 -1837 0
-1603 -1838 0
-1604 -1839 0
-1605 -1840 0
-1606 -1842 0
-1603 -1881 0
-1604 -1882 0
-1606 -1884 0
-1602 -1888 0
-1604 -1889 0
-1606 -1891 0
-1609 -1731 0
-1610 -1732 0
-1612 -1733 0
-1613 -1735 0
-1609 -1763 0
-1612 -1764 0
-1613 -1767 0
-1609 -1781 0
-1610 -1782 0
-1611 -1783 0
-1612 -1784 0
-1613 -1787 0
-1609 -1795 0
-1610 -1796 0
-1612 -1797 0
-1613 -1799 0
-1609 -1801 0
-1612 -1802 0
-1613 -1805 0
-1607 -1818 0
-1610 -1819 0
-1611 -1820 0
-1612 -1821 0
-1613 -1823 0
-1607 -1851 0
-1608 -1852 0
-1609 -1853 0
-1612 -1854 0
-1613 -1857 0
-1607 -1865 0
-1612 -1867 0
-1613 -1870 0
-1607 -1871 0
-1610 -1873 0
-1612 -1874 0
-1613 -1877 0
-1607 -1879 0
-1609 -1880 0
-1611 -1881 0
-1612 -1882 0
-1613 -1884 0
-1607 -1886 0
-1609 -1887 0
-1610 -1888 0
-1612 -1889 0
-1613 -1891 0
-1610 -1938 0
-1612 -1939 0
-1613 -1942 0
-1617 -1725 0
-1619 -1727 0
-1620 -1728 0
-1616 -1758 0
-1617 -1759 0
-1618 -1760 0
-1620 -1761 0
-1616 -1789 0
-1617 -1790 0
-1618 -1791 0
-1619 -1792 0
-1620 -1793 0
-1616 -1807 0
-1617 -1808 0
-1619 -1810 0
-1620 -1811 0
-1614 -1812 0
-1616 -1814 0
-1618 -1815 0
-1619 -1816 0
-1620 -1817 0
-1614 -1844 0
-1615 -1845 0
-1616 -1846 0
-1617 -1847 0
-1618 -1848 0
-1619 -1849 0
-1620 -1850 0
-1614 -1865 0
-1618 -1868 0
-1619 -1869 0
-1620 -1870 0
-1614 -1871 0
-1616 -1873 0
-1618 -1875 0
-1619 -1876 0
-1620 -1877 0
-1614 -1879 0
-1617 -1881 0
-1619 -1883 0
-1620 -1884 0
-1614 -1893 0
-1617 -1894 0
-1618 -1896 0
-1619 -1897 0
-1620 -1898 0
-1617 -1933 0
-1618 -1934 0
-1619 -1935 0
-1620 -1936 0
-1616 -1944 0
-1617 -1945 0
-1618 -1947 0
-1619 -1948 0
-1620 -1949 0
-1616 -1953 0
-1617 -1954 0
-1618 -1956 0
-1619 -1957 0
-1620 -1958 0
-1623 -1719 0
-1626 -1721 0
-1623 -1782 0
-1624 -1783 0
-1625 -1785 0
-1626 -1787 0
-1625 -1803 0
-1626 -1805 0
-1623 -1807 0
-1624 -1808 0
-1626 -1811 0
-1623 -1814 0
-1625 -1815 0
-1626 -1817 0
-1623 -1819 0
-1624 -1820 0
-1625 -1822 0
-1626 -1823 0
-1625 -1868 0
-1626 -1870 0
-1623 -1873 0
-1625 -1875 0
-1626 -1877 0
-1621 -1885 0
-1623 -1888 0
-1626 -1891 0
-1621 -1892 0
-1624 -1894 0
-1625 -1896 0
-1626 -1898 0
-1623 -1927 0
-1625 -1928 0
-1626 -1930 0
-1623 -1953 0
-1624 -1954 0
-1625 -1956 0
-1626 -1958 0
-1630 -1782 0
-1631 -1783 0
-1632 -1785 0
-1633 -1787 0
-1629 -1800 0
-1632 -1803 0
-1633 -1805 0
-1629 -1806 0
-1630 -1807 0
-1631 -1808 0
-1633 -1811 0
-1627 -1812 0
-1630 -1814 0
-1632 -1815 0
-1633 -1817 0
-1627 -1818 0
-1630 -1819 0
-1631 -1820 0
-1632 -1822 0
-1633 -1823 0
-1627 -1879 0
-1631 -1881 0
-1633 -1884 0
-1627 -1886 0
-1630 -1888 0
-1633 -1891 0
-1627 -1893 0
-1631 -1894 0
-1632 -1896 0
-1633 -1898 0
-1630 -1953 0
-1631 -1954 0
-1632 -1956 0
-1633 -1958 0
-1636 -1682 0
-1637 -1683 0
-1638 -1685 0
-1639 -1686 0
-1636 -1710 0
-1637 -1711 0
-1638 -1714 0
-1639 -1715 0
-1635 -1763 0
-1638 -1766 0
-1639 -1767 0
-1635 -1775 0
-1636 -1776 0
-1638 -1778 0
-1639 -1779 0
-1635 -1795 0
-1636 -1796 0
-1638 -1798 0
-1639 -1799 0
-1636 -1807 0
-1637 -1808 0
-1638 -1810 0
-1639 -1811 0
-1636 -1819 0
-1637 -1820 0
-1639 -1823 0
-1635 -1831 0
-1636 -1832 0
-1637 -1833 0
-1639 -1835 0
-1634 -1852 0
-1635 -1853 0
-1638 -1856 0
-1639 -1857 0
-1635 -1860 0
-1637 -1861 0
-1638 -1863 0
-1639 -1864 0
-1636 -1873 0
-1638 -1876 0
-1639 -1877 0
-1637 -1894 0
-1638 -1897 0
-1639 -1898 0
-1635 -1920 0
-1636 -1921 0
-1637 -1922 0
-1639 -1924 0
-1635 -1952 0
-1636 -1953 0
-1637 -1954 0
-1638 -1957 0
-1639 -1958 0
-1641 -1676 0
-1643 -1678 0
-1644 -1679 0
-1645 -1680 0
-1641 -1704 0
-1645 -1706 0
-1641 -1757 0
-1642 -1758 0
-1644 -1760 0
-1645 -1761 0
-1641 -1769 0
-1643 -1771 0
-1645 -1773 0
-1642 -1789 0
-1644 -1791 0
-1645 -1793 0
-1641 -1801 0
-1643 -1802 0
-1644 -1803 0
-1645 -1805 0
-1641 -1813 0
-1642 -1814 0
-1644 -1815 0
-1645 -1817 0
-1642 -1825 0
-1643 -1827 0
-1645 -1829 0
-1640 -1845 0
-1642 -1846 0
-1644 -1848 0
-1645 -1850 0
-1641 -1860 0
-1644 -1862 0
-1645 -1864 0
-1642 -1873 0
-1643 -1874 0
-1644 -1875 0
-1645 -1877 0
-1641 -1887 0
-1642 -1888 0
-1643 -1889 0
-1645 -1891 0
-1643 -1914 0
-1644 -1915 0
-1645 -1917 0
-1641 -1943 0
-1642 -1944 0
-1643 -1946 0
-1644 -1947 0
-1645 -1949 0
-1648 -1769 0
-1650 -1770 0
-1651 -1771 0
-1653 -1772 0
-1654 -1773 0
-1648 -1775 0
-1649 -1776 0
-1652 -1777 0
-1653 -1778 0
-1654 -1779 0
-1648 -1813 0
-1649 -1814 0
-1652 -1815 0
-1653 -1816 0
-1654 -1817 0
-1649 -1819 0
-1650 -1820 0
-1651 -1821 0
-1652 -1822 0
-1654 -1823 0
-1657 -1757 0
-1658 -1758 0
-1659 -1759 0
-1660 -1761 0
-1657 -1763 0
-1660 -1767 0
-1657 -1801 0
-1660 -1805 0
-1658 -1807 0
-1659 -1808 0
-1660 -1811 0
-1655 -1844 0
-1658 -1846 0
-1659 -1847 0
-1660 -1850 0
-1655 -1851 0
-1657 -1853 0
-1660 -1857 0
-1655 -1871 0
-1658 -1873 0
-1660 -1877 0
-1655 -1886 0
-1657 -1887 0
-1658 -1888 0
-1660 -1891 0
-1655 -1893 0
-1659 -1894 0
-1660 -1898 0
-1657 -1943 0
-1658 -1944 0
-1659 -1945 0
-1660 -1949 0
-1657 -1952 0
-1658 -1953 0
-1659 -1954 0
-1660 -1958 0
-1663 -1763 0
-1666 -1766 0
-1667 -1767 0
-1663 -1775 0
-1664 -1776 0
-1666 -1778 0
-1667 -1779 0
-1663 -1781 0
-1664 -1782 0
-1665 -1783 0
-1666 -1786 0
-1667 -1787 0
-1664 -1807 0
-1665 -1808 0
-1666 -1810 0
-1667 -1811 0
-1664 -1819 0
-1665 -1820 0
-1667 -1823 0
-1663 -1853 0
-1666 -1856 0
-1667 -1857 0
-1664 -1873 0
-1666 -1876 0
-1667 -1877 0
-1663 -1880 0
-1665 -1881 0
-1666 -1883 0
-1667 -1884 0
-1661 -1892 0
-1665 -1894 0
-1666 -1897 0
-1667 -1898 0
-1663 -1952 0
-1664 -1953 0
-1665 -1954 0
-1666 -1957 0
-1667 -1958 0
-1670 -1758 0
-1671 -1759 0
-1673 -1760 0
-1674 -1761 0
-1671 -1770 0
-1672 -1771 0
-1674 -1773 0
-1672 -1802 0
-1673 -1803 0
-1674 -1805 0
-1670 -1814 0
-1673 -1815 0
-1674 -1817 0
-1670 -1846 0
-1671 -1847 0
-1673 -1848 0
-1674 -1850 0
-1670 -1873 0
-1672 -1874 0
-1673 -1875 0
-1674 -1877 0
-1671 -1881 0
-1672 -1882 0
-1674 -1884 0
-1668 -1885 0
-1670 -1888 0
-1672 -1889 0
-1674 -1891 0
-1670 -1944 0
-1671 -1945 0
-1672 -1946 0
-1673 -1947 0
-1674 -1949 0
-1676 -1718 0
-1678 -1720 0
-1680 -1721 0
-1676 -1731 0
-1678 -1733 0
-1679 -1734 0
-1680 -1735 0
-1676 -1745 0
-1678 -1747 0
-1680 -1749 0
-1676 -1781 0
-1677 -1783 0
-1678 -1784 0
-1679 -1785 0
-1680 -1787 0
-1675 -1794 0
-1676 -1795 0
-1678 -1797 0
-1680 -1799 0
-1676 -1801 0
-1678 -1802 0
-1679 -1803 0
-1680 -1805 0
-1676 -1813 0
-1679 -1815 0
-1680 -1817 0
-1676 -1853 0
-1678 -1854 0
-1679 -1855 0
-1680 -1857 0
-1675 -1866 0
-1678 -1867 0
-1679 -1868 0
-1680 -1870 0
-1678 -1874 0
-1679 -1875 0
-1680 -1877 0
-1676 -1887 0
-1678 -1889 0
-1680 -1891 0
-1676 -1926 0
-1679 -1928 0
-1680 -1930 0
-1678 -1939 0
-1679 -1940 0
-1680 -1942 0
-1682 -1719 0
-1686 -1721 0
-1683 -1725 0
-1685 -1727 0
-1686 -1728 0
-1682 -1739 0
-1683 -1740 0
-1684 -1741 0
-1686 -1742 0
-1681 -1788 0
-1682 -1789 0
-1683 -1790 0
-1684 -1791 0
-1685 -1792 0
-1686 -1793 0
-1682 -1807 0
-1683 -1808 0
-1685 -1810 0
-1686 -1811 0
-1682 -1819 0
-1683 -1820 0
-1684 -1822 0
-1686 -1823 0
-1682 -1837 0
-1683 -1838 0
-1684 -1840 0
-1685 -1841 0
-1686 -1842 0
-1682 -1846 0
-1683 -1847 0
-1684 -1848 0
-1685 -1849 0
-1686 -1850 0
-1681 -1866 0
-1684 -1868 0
-1685 -1869 0
-1686 -1870 0
-1682 -1873 0
-1684 -1875 0
-1685 -1876 0
-1686 -1877 0
-1683 -1894 0
-1684 -1896 0
-1685 -1897 0
-1686 -1898 0
-1682 -1927 0
-1684 -1928 0
-1685 -1929 0
-1686 -1930 0
-1683 -1933 0
-1684 -1934 0
-1685 -1935 0
-1686 -1936 0
-1682 -1953 0
-1683 -1954 0
-1684 -1956 0
-1685 -1957 0
-1686 -1958 0
-1690 -1790 0
-1692 -1791 0
-1693 -1793 0
-1689 -1795 0
-1691 -1797 0
-1693 -1799 0
-1687 -1812 0
-1689 -1813 0
-1692 -1815 0
-1693 -1817 0
-1687 -1818 0
-1690 -1820 0
-1691 -1821 0
-1692 -1822 0
-1693 -1823 0
-1689 -1836 0
-1690 -1838 0
-1691 -1839 0
-1692 -1840 0
-1693 -1842 0
-1689 -1952 0
-1690 -1954 0
-1691 -1955 0
-1692 -1956 0
-1693 -1958 0
-1697 -1789 0
-1698 -1790 0
-1699 -1792 0
-1700 -1793 0
-1696 -1795 0
-1697 -1796 0
-1699 -1798 0
-1700 -1799 0
-1695 -1800 0
-1696 -1801 0
-1699 -1804 0
-1700 -1805 0
-1695 -1806 0
-1697 -1807 0
-1698 -1808 0
-1699 -1810 0
-1700 -1811 0
-1694 -1844 0
-1697 -1846 0
-1698 -1847 0
-1699 -1849 0
-1700 -1850 0
-1694 -1851 0
-1696 -1853 0
-1699 -1856 0
-1700 -1857 0
-1694 -1865 0
-1699 -1869 0
-1700 -1870 0
-1694 -1886 0
-1696 -1887 0
-1697 -1888 0
-1699 -1890 0
-1700 -1891 0
-1694 -1893 0
-1698 -1894 0
-1699 -1897 0
-1700 -1898 0
-1696 -1932 0
-1698 -1933 0
-1699 -1935 0
-1700 -1936 0
-1697 -1938 0
-1699 -1941 0
-1700 -1942 0
-1696 -1943 0
-1697 -1944 0
-1698 -1945 0
-1699 -1948 0
-1700 -1949 0
-1704 -1781 0
-1705 -1783 0
-1706 -1787 0
-1704 -1795 0
-1706 -1799 0
-1703 -1806 0
-1705 -1808 0
-1706 -1811 0
-1702 -1818 0
-1705 -1820 0
-1706 -1823 0
-1702 -1851 0
-1704 -1853 0
-1706 -1857 0
-1702 -1865 0
-1706 -1870 0
-1702 -1879 0
-1704 -1880 0
-1705 -1881 0
-1706 -1884 0
-1701 -1892 0
-1702 -1893 0
-1705 -1894 0
-1706 -1898 0
-1702 -1925 0
-1704 -1926 0
-1706 -1930 0
-1701 -1937 0
-1706 -1942 0
-1710 -1789 0
-1711 -1790 0
-1713 -1791 0
-1714 -1792 0
-1715 -1793 0
-1709 -1800 0
-1712 -1802 0
-1713 -1803 0
-1714 -1804 0
-1715 -1805 0
-1708 -1812 0
-1710 -1814 0
-1713 -1815 0
-1714 -1816 0
-1715 -1817 0
-1710 -1837 0
-1711 -1838 0
-1712 -1839 0
-1713 -1840 0
-1714 -1841 0
-1715 -1842 0
-1708 -1844 0
-1710 -1846 0
-1711 -1847 0
-1713 -1848 0
-1714 -1849 0
-1715 -1850 0
-1708 -1865 0
-1712 -1867 0
-1713 -1868 0
-1714 -1869 0
-1715 -1870 0
-1708 -1879 0
-1711 -1881 0
-1712 -1882 0
-1714 -1883 0
-1715 -1884 0
-1707 -1885 0
-1708 -1886 0
-1710 -1888 0
-1712 -1889 0
-1714 -1890 0
-1715 -1891 0
-1708 -1925 0
-1710 -1927 0
-1713 -1928 0
-1714 -1929 0
-1715 -1930 0
-1707 -1931 0
-1711 -1933 0
-1713 -1934 0
-1714 -1935 0
-1715 -1936 0
-1710 -1944 0
-1711 -1945 0
-1712 -1946 0
-1713 -1947 0
-1714 -1948 0
-1715 -1949 0
-1710 -1953 0
-1711 -1954 0
-1712 -1955 0
-1713 -1956 0
-1714 -1957 0
-1715 -1958 0
-1719 -1789 0
-1721 -1793 0
-1718 -1795 0
-1719 -1796 0
-1720 -1797 0
-1721 -1799 0
-1717 -1824 0
-1719 -1825 0
-1720 -1827 0
-1721 -1829 0
-1717 -1830 0
-1718 -1831 0
-1719 -1832 0
-1721 -1835 0
-1716 -1844 0
-1719 -1846 0
-1721 -1850 0
-1716 -1851 0
-1718 -1853 0
-1720 -1854 0
-1721 -1857 0
-1716 -1858 0
-1718 -1860 0
-1721 -1864 0
-1716 -1912 0
-1720 -1914 0
-1721 -1917 0
-1716 -1919 0
-1718 -1920 0
-1719 -1921 0
-1721 -1924 0
-1718 -1943 0
-1719 -1944 0
-1720 -1946 0
-1721 -1949 0
-1718 -1952 0
-1719 -1953 0
-1720 -1955 0
-1721 -1958 0
-1724 -1775 0
-1727 -1778 0
-1728 -1779 0
-1724 -1795 0
-1726 -1797 0
-1727 -1798 0
-1728 -1799 0
-1725 -1820 0
-1726 -1821 0
-1728 -1823 0
-1723 -1830 0
-1724 -1831 0
-1725 -1833 0
-1728 -1835 0
-1724 -1853 0
-1726 -1854 0
-1727 -1856 0
-1728 -1857 0
-1724 -1860 0
-1725 -1861 0
-1727 -1863 0
-1728 -1864 0
-1725 -1907 0
-1726 -1908 0
-1728 -1910 0
-1722 -1918 0
-1724 -1920 0
-1725 -1922 0
-1728 -1924 0
-1724 -1952 0
-1725 -1954 0
-1726 -1955 0
-1727 -1957 0
-1728 -1958 0
-1731 -1769 0
-1733 -1771 0
-1735 -1773 0
-1732 -1789 0
-1734 -1791 0
-1735 -1793 0
-1731 -1813 0
-1732 -1814 0
-1734 -1815 0
-1735 -1817 0
-1730 -1824 0
-1732 -1825 0
-1733 -1827 0
-1735 -1829 0
-1731 -1836 0
-1732 -1837 0
-1733 -1839 0
-1734 -1840 0
-1735 -1842 0
-1732 -1846 0
-1734 -1848 0
-1735 -1850 0
-1731 -1860 0
-1734 -1862 0
-1735 -1864 0
-1732 -1906 0
-1733 -1908 0
-1734 -1909 0
-1735 -1910 0
-1729 -1911 0
-1733 -1914 0
-1734 -1915 0
-1735 -1917 0
-1731 -1943 0
-1732 -1944 0
-1733 -1946 0
-1734 -1947 0
-1735 -1949 0
-1738 -1763 0
-1741 -1765 0
-1742 -1767 0
-1738 -1795 0
-1739 -1796 0
-1742 -1799 0
-1739 -1807 0
-1740 -1808 0
-1742 -1811 0
-1738 -1831 0
-1739 -1832 0
-1740 -1833 0
-1741 -1834 0
-1742 -1835 0
-1737 -1844 0
-1739 -1846 0
-1740 -1847 0
-1741 -1848 0
-1742 -1850 0
-1737 -1858 0
-1738 -1860 0
-1740 -1861 0
-1741 -1862 0
-1742 -1864 0
-1737 -1865 0
-1741 -1868 0
-1742 -1870 0
-1737 -1871 0
-1739 -1873 0
-1741 -1875 0
-1742 -1877 0
-1736 -1892 0
-1737 -1893 0
-1740 -1894 0
-1741 -1896 0
-1742 -1898 0
-1737 -1899 0
-1740 -1901 0
-1741 -1902 0
-1742 -1904 0
-1736 -1918 0
-1737 -1919 0
-1738 -1920 0
-1739 -1921 0
-1740 -1922 0
-1741 -1923 0
-1742 -1924 0
-1736 -1937 0
-1739 -1938 0
-1741 -1940 0
-1742 -1942 0
-1738 -1943 0
-1739 -1944 0
-1740 -1945 0
-1741 -1947 0
-1742 -1949 0
-1745 -1757 0
-1746 -1758 0
-1749 -1761 0
-1746 -1789 0
-1748 -1792 0
-1749 -1793 0
-1745 -1801 0
-1747 -1802 0
-1748 -1804 0
-1749 -1805 0
-1746 -1825 0
-1747 -1827 0
-1748 -1828 0
-1749 -1829 0
-1744 -1851 0
-1745 -1853 0
-1747 -1854 0
-1748 -1856 0
-1749 -1857 0
-1744 -1858 0
-1745 -1860 0
-1748 -1863 0
-1749 -1864 0
-1744 -1865 0
-1747 -1867 0
-1748 -1869 0
-1749 -1870 0
-1744 -1871 0
-1746 -1873 0
-1747 -1874 0
-1748 -1876 0
-1749 -1877 0
-1743 -1885 0
-1744 -1886 0
-1745 -1887 0
-1746 -1888 0
-1747 -1889 0
-1748 -1890 0
-1749 -1891 0
-1744 -1899 0
-1748 -1903 0
-1749 -1904 0
-1743 -1911 0
-1744 -1912 0
-1747 -1914 0
-1748 -1916 0
-1749 -1917 0
-1743 -1931 0
-1745 -1932 0
-1748 -1935 0
-1749 -1936 0
-1745 -1952 0
-1746 -1953 0
-1747 -1955 0
-1748 -1957 0
-1749 -1958 0
-1752 -1846 0
-1753 -1847 0
-1755 -1850 0
-1751 -1853 0
-1754 -1854 0
-1755 -1857 0
-1751 -1860 0
-1753 -1861 0
-1755 -1864 0
-1754 -1867 0
-1755 -1870 0
-1752 -1873 0
-1754 -1874 0
-1755 -1877 0
-1751 -1880 0
-1753 -1881 0
-1754 -1882 0
-1755 -1884 0
-1753 -1901 0
-1755 -1904 0
-1752 -1906 0
-1753 -1907 0
-1754 -1908 0
-1755 -1910 0
-1751 -1926 0
-1752 -1927 0
-1755 -1930 0
-1751 -1943 0
-1752 -1944 0
-1753 -1945 0
-1754 -1946 0
-1755 -1949 0
-1751 -1952 0
-1752 -1953 0
-1753 -1954 0
-1754 -1955 0
-1755 -1958 0
-1758 -1789 0
-1759 -1790 0
-1760 -1791 0
-1761 -1793 0
-1756 -1806 0
-1758 -1807 0
-1759 -1808 0
-1761 -1811 0
-1757 -1813 0
-1758 -1814 0
-1760 -1815 0
-1761 -1817 0
-1756 -1830 0
-1757 -1831 0
-1758 -1832 0
-1759 -1833 0
-1760 -1834 0
-1761 -1835 0
-1757 -1836 0
-1758 -1837 0
-1759 -1838 0
-1760 -1840 0
-1761 -1842 0
-1757 -1853 0
-1760 -1855 0
-1761 -1857 0
-1757 -1860 0
-1759 -1861 0
-1760 -1862 0
-1761 -1864 0
-1760 -1868 0
-1761 -1870 0
-1757 -1880 0
-1759 -1881 0
-1761 -1884 0
-1759 -1894 0
-1760 -1896 0
-1761 -1898 0
-1758 -1906 0
-1759 -1907 0
-1760 -1909 0
-1761 -1910 0
-1757 -1920 0
-1758 -1921 0
-1759 -1922 0
-1760 -1923 0
-1761 -1924 0
-1757 -1926 0
-1758 -1927 0
-1760 -1928 0
-1761 -1930 0
-1758 -1938 0
-1760 -1940 0
-1761 -1942 0
-1763 -1795 0
-1764 -1797 0
-1766 -1798 0
-1767 -1799 0
-1762 -1800 0
-1763 -1801 0
-1764 -1802 0
-1765 -1803 0
-1766 -1804 0
-1767 -1805 0
-1764 -1821 0
-1765 -1822 0
-1767 -1823 0
-1762 -1824 0
-1764 -1827 0
-1766 -1828 0
-1767 -1829 0
-1765 -1848 0
-1766 -1849 0
-1767 -1850 0
-1763 -1860 0
-1765 -1862 0
-1766 -1863 0
-1767 -1864 0
-1764 -1867 0
-1765 -1868 0
-1766 -1869 0
-1767 -1870 0
-1763 -1880 0
-1764 -1882 0
-1766 -1883 0
-1767 -1884 0
-1763 -1887 0
-1764 -1889 0
-1766 -1890 0
-1767 -1891 0
-1764 -1908 0
-1765 -1909 0
-1767 -1910 0
-1764 -1914 0
-1765 -1915 0
-1766 -1916 0
-1767 -1917 0
-1763 -1926 0
-1765 -1928 0
-1766 -1929 0
-1767 -1930 0
-1763 -1932 0
-1765 -1934 0
-1766 -1935 0
-1767 -1936 0
-1763 -1952 0
-1764 -1955 0
-1765 -1956 0
-1766 -1957 0
-1767 -1958 0
-1770 -1790 0
-1772 -1792 0
-1773 -1793 0
-1769 -1801 0
-1771 -1802 0
-1772 -1804 0
-1773 -1805 0
-1768 -1818 0
-1770 -1820 0
-1771 -1821 0
-1773 -1823 0
-1769 -1831 0
-1770 -1833 0
-1773 -1835 0
-1768 -1844 0
-1770 -1847 0
-1772 -1849 0
-1773 -1850 0
-1768 -1858 0
-1769 -1860 0
-1770 -1861 0
-1772 -1863 0
-1773 -1864 0
-1768 -1871 0
-1771 -1874 0
-1772 -1876 0
-1773 -1877 0
-1768 -1879 0
-1769 -1880 0
-1770 -1881 0
-1771 -1882 0
-1772 -1883 0
-1773 -1884 0
-1768 -1886 0
-1769 -1887 0
-1771 -1889 0
-1772 -1890 0
-1773 -1891 0
-1768 -1899 0
-1770 -1901 0
-1772 -1903 0
-1773 -1904 0
-1768 -1919 0
-1769 -1920 0
-1770 -1922 0
-1773 -1924 0
-1768 -1925 0
-1769 -1926 0
-1772 -1929 0
-1773 -1930 0
-1769 -1932 0
-1770 -1933 0
-1772 -1935 0
-1773 -1936 0
-1775 -1795 0
-1776 -1796 0
-1778 -1798 0
-1779 -1799 0
-1776 -1807 0
-1778 -1810 0
-1779 -1811 0
-1774 -1812 0
-1775 -1813 0
-1776 -1814 0
-1777 -1815 0
-1778 -1816 0
-1779 -1817 0
-1776 -1825 0
-1778 -1828 0
-1779 -1829 0
-1775 -1836 0
-1776 -1837 0
-1777 -1840 0
-1778 -1841 0
-1779 -1842 0
-1774 -1851 0
-1775 -1853 0
-1777 -1855 0
-1778 -1856 0
-1779 -1857 0
-1774 -1858 0
-1775 -1860 0
-1777 -1862 0
-1778 -1863 0
-1779 -1864 0
-1774 -1871 0
-1776 -1873 0
-1777 -1875 0
-1778 -1876 0
-1779 -1877 0
-1774 -1879 0
-1775 -1880 0
-1778 -1883 0
-1779 -1884 0
-1774 -1893 0
-1777 -1896 0
-1778 -1897 0
-1779 -1898 0
-1774 -1899 0
-1777 -1902 0
-1778 -1903 0
-1779 -1904 0
-1774 -1912 0
-1777 -1915 0
-1778 -1916 0
-1779 -1917 0
-1774 -1925 0
-1775 -1926 0
-1776 -1927 0
-1777 -1928 0
-1778 -1929 0
-1779 -1930 0
-1776 -1938 0
-1777 -1940 0
-1778 -1941 0
-1779 -1942 0
-1775 -1943 0
-1776 -1944 0
-1777 -1947 0
-1778 -1948 0
-1779 -1949 0
-1781 -1795 0
-1782 -1796 0
-1784 -1797 0
-1786 -1798 0
-1787 -1799 0
-1781 -1801 0
-1784 -1802 0
-1785 -1803 0
-1786 -1804 0
-1787 -1805 0
-1781 -1813 0
-1782 -1814 0
-1785 -1815 0
-1786 -1816 0
-1787 -1817 0
-1781 -1831 0
-1782 -1832 0
-1783 -1833 0
-1785 -1834 0
-1787 -1835 0
-1781 -1836 0
-1782 -1837 0
-1783 -1838 0
-1784 -1839 0
-1785 -1840 0
-1786 -1841 0
-1787 -1842 0
-1781 -1853 0
-1784 -1854 0
-1785 -1855 0
-1786 -1856 0
-1787 -1857 0
-1784 -1867 0
-1785 -1868 0
-1786 -1869 0
-1787 -1870 0
-1782 -1873 0
-1784 -1874 0
-1785 -1875 0
-1786 -1876 0
-1787 -1877 0
-1781 -1887 0
-1782 -1888 0
-1784 -1889 0
-1786 -1890 0
-1787 -1891 0
-1783 -1901 0
-1785 -1902 0
-1786 -1903 0
-1787 -1904 0
-1782 -1906 0
-1783 -1907 0
-1784 -1908 0
-1785 -1909 0
-1787 -1910 0
-1781 -1920 0
-1782 -1921 0
-1783 -1922 0
-1785 -1923 0
-1787 -1924 0
-1781 -1932 0
-1783 -1933 0
-1785 -1934 0
-1786 -1935 0
-1787 -1936 0
-1781 -1943 0
-1782 -1944 0
-1783 -1945 0
-1784 -1946 0
-1785 -1947 0
-1786 -1948 0
-1787 -1949 0
-1781 -1952 0
-1782 -1953 0
-1783 -1954 0
-1784 -1955 0
-1785 -1956 0
-1786 -1957 0
-1787 -1958 0
-1791 -1855 0
-1792 -1856 0
-1793 -1857 0
-1789 -1873 0
-1791 -1875 0
-1792 -1876 0
-1793 -1877 0
-1790 -1881 0
-1792 -1883 0
-1793 -1884 0
-1790 -1894 0
-1791 -1896 0
-1792 -1897 0
-1793 -1898 0
-1790 -1901 0
-1791 -1902 0
-1792 -1903 0
-1793 -1904 0
-1789 -1906 0
-1790 -1907 0
-1791 -1909 0
-1793 -1910 0
-1789 -1921 0
-1790 -1922 0
-1791 -1923 0
-1793 -1924 0
-1789 -1927 0
-1791 -1928 0
-1792 -1929 0
-1793 -1930 0
-1789 -1938 0
-1791 -1940 0
-1792 -1941 0
-1793 -1942 0
-1789 -1944 0
-1790 -1945 0
-1791 -1947 0
-1792 -1948 0
-1793 -1949 0
-1796 -1846 0
-1798 -1849 0
-1799 -1850 0
-1796 -1873 0
-1797 -1874 0
-1798 -1876 0
-1799 -1877 0
-1795 -1880 0
-1797 -1882 0
-1798 -1883 0
-1799 -1884 0
-1795 -1887 0
-1796 -1888 0
-1797 -1889 0
-1798 -1890 0
-1799 -1891 0
-1798 -1903 0
-1799 -1904 0
-1796 -1906 0
-1797 -1908 0
-1799 -1910 0
-1797 -1914 0
-1798 -1916 0
-1799 -1917 0
-1795 -1926 0
-1796 -1927 0
-1798 -1929 0
-1799 -1930 0
-1795 -1932 0
-1798 -1935 0
-1799 -1936 0
-1800 -1830 0
-1801 -1831 0
-1803 -1834 0
-1805 -1835 0
-1801 -1853 0
-1802 -1854 0
-1803 -1855 0
-1804 -1856 0
-1805 -1857 0
-1801 -1860 0
-1803 -1862 0
-1804 -1863 0
-1805 -1864 0
-1800 -1900 0
-1803 -1902 0
-1804 -1903 0
-1805 -1904 0
-1802 -1914 0
-1803 -1915 0
-1804 -1916 0
-1805 -1917 0
-1801 -1926 0
-1803 -1928 0
-1804 -1929 0
-1805 -1930 0
-1802 -1939 0
-1803 -1940 0
-1804 -1941 0
-1805 -1942 0
-1801 -1943 0
-1802 -1946 0
-1803 -1947 0
-1804 -1948 0
-1805 -1949 0
-1806 -1824 0
-1807 -1825 0
-1808 -1826 0
-1809 -1827 0
-1810 -1828 0
-1811 -1829 0
-1807 -1837 0
-1808 -1838 0
-1809 -1839 0
-1810 -1841 0
-1811 -1842 0
-1807 -1846 0
-1808 -1847 0
-1810 -1849 0
-1811 -1850 0
-1808 -1861 0
-1810 -1863 0
-1811 -1864 0
-1806 -1900 0
-1808 -1901 0
-1810 -1903 0
-1811 -1904 0
-1807 -1921 0
-1808 -1922 0
-1811 -1924 0
-1807 -1927 0
-1810 -1929 0
-1811 -1930 0
-1808 -1933 0
-1810 -1935 0
-1811 -1936 0
-1813 -1831 0
-1814 -1832 0
-1815 -1834 0
-1817 -1835 0
-1812 -1844 0
-1814 -1846 0
-1815 -1848 0
-1816 -1849 0
-1817 -1850 0
-1812 -1858 0
-1813 -1860 0
-1815 -1862 0
-1816 -1863 0
-1817 -1864 0
-1812 -1865 0
-1815 -1868 0
-1816 -1869 0
-1817 -1870 0
-1812 -1871 0
-1814 -1873 0
-1815 -1875 0
-1816 -1876 0
-1817 -1877 0
-1812 -1893 0
-1815 -1896 0
-1816 -1897 0
-1817 -1898 0
-1812 -1905 0
-1814 -1906 0
-1815 -1909 0
-1817 -1910 0
-1812 -1912 0
-1815 -1915 0
-1816 -1916 0
-1817 -1917 0
-1812 -1925 0
-1813 -1926 0
-1814 -1927 0
-1815 -1928 0
-1816 -1929 0
-1817 -1930 0
-1813 -1932 0
-1815 -1934 0
-1816 -1935 0
-1817 -1936 0
-1813 -1952 0
-1814 -1953 0
-1815 -1956 0
-1816 -1957 0
-1817 -1958 0
-1819 -1825 0
-1820 -1826 0
-1821 -1827 0
-1823 -1829 0
-1818 -1851 0
-1821 -1854 0
-1822 -1855 0
-1823 -1857 0
-1818 -1858 0
-1820 -1861 0
-1822 -1862 0
-1823 -1864 0
-1818 -1865 0
-1821 -1867 0
-1822 -1868 0
-1823 -1870 0
-1818 -1871 0
-1819 -1873 0
-1821 -1874 0
-1822 -1875 0
-1823 -1877 0
-1818 -1886 0
-1819 -1888 0
-1821 -1889 0
-1823 -1891 0
-1818 -1905 0
-1819 -1906 0
-1820 -1907 0
-1821 -1908 0
-1822 -1909 0
-1823 -1910 0
-1818 -1919 0
-1819 -1921 0
-1820 -1922 0
-1822 -1923 0
-1823 -1924 0
-1818 -1925 0
-1819 -1927 0
-1822 -1928 0
-1823 -1930 0
-1819 -1938 0
-1821 -1939 0
-1822 -1940 0
-1823 -1942 0
-1827 -1854 0
-1828 -1856 0
-1829 -1857 0
-1827 -1867 0
-1828 -1869 0
-1829 -1870 0
-1824 -1872 0
-1825 -1873 0
-1827 -1874 0
-1828 -1876 0
-1829 -1877 0
-1825 -1888 0
-1827 -1889 0
-1828 -1890 0
-1829 -1891 0
-1825 -1927 0
-1828 -1929 0
-1829 -1930 0
-1825 -1938 0
-1827 -1939 0
-1828 -1941 0
-1829 -1942 0
-1825 -1953 0
-1826 -1954 0
-1827 -1955 0
-1828 -1957 0
-1829 -1958 0
-1832 -1846 0
-1833 -1847 0
-1834 -1848 0
-1835 -1850 0
-1834 -1868 0
-1835 -1870 0
-1830 -1872 0
-1832 -1873 0
-1834 -1875 0
-1835 -1877 0
-1833 -1894 0
-1834 -1896 0
-1835 -1898 0
-1831 -1926 0
-1832 -1927 0
-1834 -1928 0
-1835 -1930 0
-1831 -1932 0
-1833 -1933 0
-1834 -1934 0
-1835 -1936 0
-1831 -1943 0
-1832 -1944 0
-1833 -1945 0
-1834 -1947 0
-1835 -1949 0
-1837 -1846 0
-1838 -1847 0
-1840 -1848 0
-1841 -1849 0
-1842 -1850 0
-1836 -1860 0
-1838 -1861 0
-1840 -1862 0
-1841 -1863 0
-1842 -1864 0
-1839 -1867 0
-1840 -1868 0
-1841 -1869 0
-1842 -1870 0
-1836 -1880 0
-1838 -1881 0
-1839 -1882 0
-1841 -1883 0
-1842 -1884 0
-1836 -1887 0
-1837 -1888 0
-1839 -1889 0
-1841 -1890 0
-1842 -1891 0
-1838 -1901 0
-1840 -1902 0
-1841 -1903 0
-1842 -1904 0
-1836 -1920 0
-1837 -1921 0
-1838 -1922 0
-1840 -1923 0
-1842 -1924 0
-1837 -1938 0
-1839 -1939 0
-1840 -1940 0
-1841 -1941 0
-1842 -1942 0
-1836 -1943 0
-1837 -1944 0
-1838 -1945 0
-1839 -1946 0
-1840 -1947 0
-1841 -1948 0
-1842 -1949 0
-1836 -1952 0
-1837 -1953 0
-1838 -1954 0
-1839 -1955 0
-1840 -1956 0
-1841 -1957 0
-1842 -1958 0
-1879 -1912 0
-1881 -1913 0
-1882 -1914 0
-1883 -1916 0
-1884 -1917 0
-1879 -1919 0
-1880 -1920 0
-1881 -1922 0
-1884 -1924 0
-1880 -1943 0
-1881 -1945 0
-1882 -1946 0
-1883 -1948 0
-1884 -1949 0
-1886 -1905 0
-1888 -1906 0
-1889 -1908 0
-1891 -1910 0
-1885 -1918 0
-1886 -1919 0
-1887 -1920 0
-1888 -1921 0
-1891 -1924 0
-1893 -1905 0
-1894 -1907 0
-1895 -1908 0
-1896 -1909 0
-1898 -1910 0
-1892 -1911 0
-1893 -1912 0
-1894 -1913 0
-1895 -1914 0
-1896 -1915 0
-1897 -1916 0
-1898 -1917 0
-1894 -1945 0
-1895 -1946 0
-1896 -1947 0
-1897 -1948 0
-1898 -1949 0
-1906 -1953 0
-1907 -1954 0
-1908 -1955 0
-1909 -1956 0
-1910 -1958 0
-1913 -1954 0
-1914 -1955 0
-1915 -1956 0
-1916 -1957 0
-1917 -1958 0
-1943 -1952 0
-1944 -1953 0
-1945 -1954 0
-1946 -1955 0
-1947 -1956 0
-1948 -1957 0
-1949 -1958 0
