c q00r00-s012 canonical compact 12-color CNF
c Variables are ordered by ascending vertex then ascending allowed color.
c Greedy clique order is descending degree then ascending vertex.
p cnf 1959 68900
1 0
2 3 4 5 6 7 0
-2 -3 0
-2 -4 0
-2 -5 0
-2 -6 0
-2 -7 0
-3 -4 0
-3 -5 0
-3 -6 0
-3 -7 0
-4 -5 0
-4 -6 0
-4 -7 0
-5 -6 0
-5 -7 0
-6 -7 0
8 9 10 11 12 13 14 0
-8 -9 0
-8 -10 0
-8 -11 0
-8 -12 0
-8 -13 0
-8 -14 0
-9 -10 0
-9 -11 0
-9 -12 0
-9 -13 0
-9 -14 0
-10 -11 0
-10 -12 0
-10 -13 0
-10 -14 0
-11 -12 0
-11 -13 0
-11 -14 0
-12 -13 0
-12 -14 0
-13 -14 0
15 16 17 18 19 20 21 0
-15 -16 0
-15 -17 0
-15 -18 0
-15 -19 0
-15 -20 0
-15 -21 0
-16 -17 0
-16 -18 0
-16 -19 0
-16 -20 0
-16 -21 0
-17 -18 0
-17 -19 0
-17 -20 0
-17 -21 0
-18 -19 0
-18 -20 0
-18 -21 0
-19 -20 0
-19 -21 0
-20 -21 0
22 23 24 25 26 27 0
-22 -23 0
-22 -24 0
-22 -25 0
-22 -26 0
-22 -27 0
-23 -24 0
-23 -25 0
-23 -26 0
-23 -27 0
-24 -25 0
-24 -26 0
-24 -27 0
-25 -26 0
-25 -27 0
-26 -27 0
28 29 30 31 32 33 34 0
-28 -29 0
-28 -30 0
-28 -31 0
-28 -32 0
-28 -33 0
-28 -34 0
-29 -30 0
-29 -31 0
-29 -32 0
-29 -33 0
-29 -34 0
-30 -31 0
-30 -32 0
-30 -33 0
-30 -34 0
-31 -32 0
-31 -33 0
-31 -34 0
-32 -33 0
-32 -34 0
-33 -34 0
35 36 37 38 39 40 41 0
-35 -36 0
-35 -37 0
-35 -38 0
-35 -39 0
-35 -40 0
-35 -41 0
-36 -37 0
-36 -38 0
-36 -39 0
-36 -40 0
-36 -41 0
-37 -38 0
-37 -39 0
-37 -40 0
-37 -41 0
-38 -39 0
-38 -40 0
-38 -41 0
-39 -40 0
-39 -41 0
-40 -41 0
42 43 44 45 46 47 48 0
-42 -43 0
-42 -44 0
-42 -45 0
-42 -46 0
-42 -47 0
-42 -48 0
-43 -44 0
-43 -45 0
-43 -46 0
-43 -47 0
-43 -48 0
-44 -45 0
-44 -46 0
-44 -47 0
-44 -48 0
-45 -46 0
-45 -47 0
-45 -48 0
-46 -47 0
-46 -48 0
-47 -48 0
49 50 51 52 53 54 0
-49 -50 0
-49 -51 0
-49 -52 0
-49 -53 0
-49 -54 0
-50 -51 0
-50 -52 0
-50 -53 0
-50 -54 0
-51 -52 0
-51 -53 0
-51 -54 0
-52 -53 0
-52 -54 0
-53 -54 0
55 56 57 58 59 60 61 0
-55 -56 0
-55 -57 0
-55 -58 0
-55 -59 0
-55 -60 0
-55 -61 0
-56 -57 0
-56 -58 0
-56 -59 0
-56 -60 0
-56 -61 0
-57 -58 0
-57 -59 0
-57 -60 0
-57 -61 0
-58 -59 0
-58 -60 0
-58 -61 0
-59 -60 0
-59 -61 0
-60 -61 0
62 63 64 65 66 67 0
-62 -63 0
-62 -64 0
-62 -65 0
-62 -66 0
-62 -67 0
-63 -64 0
-63 -65 0
-63 -66 0
-63 -67 0
-64 -65 0
-64 -66 0
-64 -67 0
-65 -66 0
-65 -67 0
-66 -67 0
68 69 70 71 72 73 74 0
-68 -69 0
-68 -70 0
-68 -71 0
-68 -72 0
-68 -73 0
-68 -74 0
-69 -70 0
-69 -71 0
-69 -72 0
-69 -73 0
-69 -74 0
-70 -71 0
-70 -72 0
-70 -73 0
-70 -74 0
-71 -72 0
-71 -73 0
-71 -74 0
-72 -73 0
-72 -74 0
-73 -74 0
75 76 77 78 79 80 0
-75 -76 0
-75 -77 0
-75 -78 0
-75 -79 0
-75 -80 0
-76 -77 0
-76 -78 0
-76 -79 0
-76 -80 0
-77 -78 0
-77 -79 0
-77 -80 0
-78 -79 0
-78 -80 0
-79 -80 0
81 82 83 84 85 86 0
-81 -82 0
-81 -83 0
-81 -84 0
-81 -85 0
-81 -86 0
-82 -83 0
-82 -84 0
-82 -85 0
-82 -86 0
-83 -84 0
-83 -85 0
-83 -86 0
-84 -85 0
-84 -86 0
-85 -86 0
87 88 89 90 91 92 93 0
-87 -88 0
-87 -89 0
-87 -90 0
-87 -91 0
-87 -92 0
-87 -93 0
-88 -89 0
-88 -90 0
-88 -91 0
-88 -92 0
-88 -93 0
-89 -90 0
-89 -91 0
-89 -92 0
-89 -93 0
-90 -91 0
-90 -92 0
-90 -93 0
-91 -92 0
-91 -93 0
-92 -93 0
94 0
95 96 97 98 99 100 0
-95 -96 0
-95 -97 0
-95 -98 0
-95 -99 0
-95 -100 0
-96 -97 0
-96 -98 0
-96 -99 0
-96 -100 0
-97 -98 0
-97 -99 0
-97 -100 0
-98 -99 0
-98 -100 0
-99 -100 0
101 102 103 104 105 106 107 0
-101 -102 0
-101 -103 0
-101 -104 0
-101 -105 0
-101 -106 0
-101 -107 0
-102 -103 0
-102 -104 0
-102 -105 0
-102 -106 0
-102 -107 0
-103 -104 0
-103 -105 0
-103 -106 0
-103 -107 0
-104 -105 0
-104 -106 0
-104 -107 0
-105 -106 0
-105 -107 0
-106 -107 0
108 109 110 111 112 113 0
-108 -109 0
-108 -110 0
-108 -111 0
-108 -112 0
-108 -113 0
-109 -110 0
-109 -111 0
-109 -112 0
-109 -113 0
-110 -111 0
-110 -112 0
-110 -113 0
-111 -112 0
-111 -113 0
-112 -113 0
114 115 116 117 118 119 0
-114 -115 0
-114 -116 0
-114 -117 0
-114 -118 0
-114 -119 0
-115 -116 0
-115 -117 0
-115 -118 0
-115 -119 0
-116 -117 0
-116 -118 0
-116 -119 0
-117 -118 0
-117 -119 0
-118 -119 0
120 121 122 123 124 125 126 0
-120 -121 0
-120 -122 0
-120 -123 0
-120 -124 0
-120 -125 0
-120 -126 0
-121 -122 0
-121 -123 0
-121 -124 0
-121 -125 0
-121 -126 0
-122 -123 0
-122 -124 0
-122 -125 0
-122 -126 0
-123 -124 0
-123 -125 0
-123 -126 0
-124 -125 0
-124 -126 0
-125 -126 0
127 128 129 130 131 132 133 0
-127 -128 0
-127 -129 0
-127 -130 0
-127 -131 0
-127 -132 0
-127 -133 0
-128 -129 0
-128 -130 0
-128 -131 0
-128 -132 0
-128 -133 0
-129 -130 0
-129 -131 0
-129 -132 0
-129 -133 0
-130 -131 0
-130 -132 0
-130 -133 0
-131 -132 0
-131 -133 0
-132 -133 0
134 135 136 137 138 139 140 141 142 0
-134 -135 0
-134 -136 0
-134 -137 0
-134 -138 0
-134 -139 0
-134 -140 0
-134 -141 0
-134 -142 0
-135 -136 0
-135 -137 0
-135 -138 0
-135 -139 0
-135 -140 0
-135 -141 0
-135 -142 0
-136 -137 0
-136 -138 0
-136 -139 0
-136 -140 0
-136 -141 0
-136 -142 0
-137 -138 0
-137 -139 0
-137 -140 0
-137 -141 0
-137 -142 0
-138 -139 0
-138 -140 0
-138 -141 0
-138 -142 0
-139 -140 0
-139 -141 0
-139 -142 0
-140 -141 0
-140 -142 0
-141 -142 0
143 144 145 146 147 148 149 150 151 152 0
-143 -144 0
-143 -145 0
-143 -146 0
-143 -147 0
-143 -148 0
-143 -149 0
-143 -150 0
-143 -151 0
-143 -152 0
-144 -145 0
-144 -146 0
-144 -147 0
-144 -148 0
-144 -149 0
-144 -150 0
-144 -151 0
-144 -152 0
-145 -146 0
-145 -147 0
-145 -148 0
-145 -149 0
-145 -150 0
-145 -151 0
-145 -152 0
-146 -147 0
-146 -148 0
-146 -149 0
-146 -150 0
-146 -151 0
-146 -152 0
-147 -148 0
-147 -149 0
-147 -150 0
-147 -151 0
-147 -152 0
-148 -149 0
-148 -150 0
-148 -151 0
-148 -152 0
-149 -150 0
-149 -151 0
-149 -152 0
-150 -151 0
-150 -152 0
-151 -152 0
153 154 155 156 157 158 159 0
-153 -154 0
-153 -155 0
-153 -156 0
-153 -157 0
-153 -158 0
-153 -159 0
-154 -155 0
-154 -156 0
-154 -157 0
-154 -158 0
-154 -159 0
-155 -156 0
-155 -157 0
-155 -158 0
-155 -159 0
-156 -157 0
-156 -158 0
-156 -159 0
-157 -158 0
-157 -159 0
-158 -159 0
160 161 162 163 164 165 166 167 168 169 0
-160 -161 0
-160 -162 0
-160 -163 0
-160 -164 0
-160 -165 0
-160 -166 0
-160 -167 0
-160 -168 0
-160 -169 0
-161 -162 0
-161 -163 0
-161 -164 0
-161 -165 0
-161 -166 0
-161 -167 0
-161 -168 0
-161 -169 0
-162 -163 0
-162 -164 0
-162 -165 0
-162 -166 0
-162 -167 0
-162 -168 0
-162 -169 0
-163 -164 0
-163 -165 0
-163 -166 0
-163 -167 0
-163 -168 0
-163 -169 0
-164 -165 0
-164 -166 0
-164 -167 0
-164 -168 0
-164 -169 0
-165 -166 0
-165 -167 0
-165 -168 0
-165 -169 0
-166 -167 0
-166 -168 0
-166 -169 0
-167 -168 0
-167 -169 0
-168 -169 0
170 171 172 173 174 175 176 177 178 0
-170 -171 0
-170 -172 0
-170 -173 0
-170 -174 0
-170 -175 0
-170 -176 0
-170 -177 0
-170 -178 0
-171 -172 0
-171 -173 0
-171 -174 0
-171 -175 0
-171 -176 0
-171 -177 0
-171 -178 0
-172 -173 0
-172 -174 0
-172 -175 0
-172 -176 0
-172 -177 0
-172 -178 0
-173 -174 0
-173 -175 0
-173 -176 0
-173 -177 0
-173 -178 0
-174 -175 0
-174 -176 0
-174 -177 0
-174 -178 0
-175 -176 0
-175 -177 0
-175 -178 0
-176 -177 0
-176 -178 0
-177 -178 0
179 180 181 182 183 184 185 0
-179 -180 0
-179 -181 0
-179 -182 0
-179 -183 0
-179 -184 0
-179 -185 0
-180 -181 0
-180 -182 0
-180 -183 0
-180 -184 0
-180 -185 0
-181 -182 0
-181 -183 0
-181 -184 0
-181 -185 0
-182 -183 0
-182 -184 0
-182 -185 0
-183 -184 0
-183 -185 0
-184 -185 0
186 187 188 189 190 191 192 0
-186 -187 0
-186 -188 0
-186 -189 0
-186 -190 0
-186 -191 0
-186 -192 0
-187 -188 0
-187 -189 0
-187 -190 0
-187 -191 0
-187 -192 0
-188 -189 0
-188 -190 0
-188 -191 0
-188 -192 0
-189 -190 0
-189 -191 0
-189 -192 0
-190 -191 0
-190 -192 0
-191 -192 0
193 194 195 196 197 198 199 200 201 0
-193 -194 0
-193 -195 0
-193 -196 0
-193 -197 0
-193 -198 0
-193 -199 0
-193 -200 0
-193 -201 0
-194 -195 0
-194 -196 0
-194 -197 0
-194 -198 0
-194 -199 0
-194 -200 0
-194 -201 0
-195 -196 0
-195 -197 0
-195 -198 0
-195 -199 0
-195 -200 0
-195 -201 0
-196 -197 0
-196 -198 0
-196 -199 0
-196 -200 0
-196 -201 0
-197 -198 0
-197 -199 0
-197 -200 0
-197 -201 0
-198 -199 0
-198 -200 0
-198 -201 0
-199 -200 0
-199 -201 0
-200 -201 0
202 203 204 205 206 207 208 0
-202 -203 0
-202 -204 0
-202 -205 0
-202 -206 0
-202 -207 0
-202 -208 0
-203 -204 0
-203 -205 0
-203 -206 0
-203 -207 0
-203 -208 0
-204 -205 0
-204 -206 0
-204 -207 0
-204 -208 0
-205 -206 0
-205 -207 0
-205 -208 0
-206 -207 0
-206 -208 0
-207 -208 0
209 210 211 212 213 214 215 0
-209 -210 0
-209 -211 0
-209 -212 0
-209 -213 0
-209 -214 0
-209 -215 0
-210 -211 0
-210 -212 0
-210 -213 0
-210 -214 0
-210 -215 0
-211 -212 0
-211 -213 0
-211 -214 0
-211 -215 0
-212 -213 0
-212 -214 0
-212 -215 0
-213 -214 0
-213 -215 0
-214 -215 0
216 217 218 219 220 221 0
-216 -217 0
-216 -218 0
-216 -219 0
-216 -220 0
-216 -221 0
-217 -218 0
-217 -219 0
-217 -220 0
-217 -221 0
-218 -219 0
-218 -220 0
-218 -221 0
-219 -220 0
-219 -221 0
-220 -221 0
222 223 224 225 226 227 0
-222 -223 0
-222 -224 0
-222 -225 0
-222 -226 0
-222 -227 0
-223 -224 0
-223 -225 0
-223 -226 0
-223 -227 0
-224 -225 0
-224 -226 0
-224 -227 0
-225 -226 0
-225 -227 0
-226 -227 0
228 229 230 231 232 233 234 235 236 0
-228 -229 0
-228 -230 0
-228 -231 0
-228 -232 0
-228 -233 0
-228 -234 0
-228 -235 0
-228 -236 0
-229 -230 0
-229 -231 0
-229 -232 0
-229 -233 0
-229 -234 0
-229 -235 0
-229 -236 0
-230 -231 0
-230 -232 0
-230 -233 0
-230 -234 0
-230 -235 0
-230 -236 0
-231 -232 0
-231 -233 0
-231 -234 0
-231 -235 0
-231 -236 0
-232 -233 0
-232 -234 0
-232 -235 0
-232 -236 0
-233 -234 0
-233 -235 0
-233 -236 0
-234 -235 0
-234 -236 0
-235 -236 0
237 238 239 240 241 242 243 244 245 0
-237 -238 0
-237 -239 0
-237 -240 0
-237 -241 0
-237 -242 0
-237 -243 0
-237 -244 0
-237 -245 0
-238 -239 0
-238 -240 0
-238 -241 0
-238 -242 0
-238 -243 0
-238 -244 0
-238 -245 0
-239 -240 0
-239 -241 0
-239 -242 0
-239 -243 0
-239 -244 0
-239 -245 0
-240 -241 0
-240 -242 0
-240 -243 0
-240 -244 0
-240 -245 0
-241 -242 0
-241 -243 0
-241 -244 0
-241 -245 0
-242 -243 0
-242 -244 0
-242 -245 0
-243 -244 0
-243 -245 0
-244 -245 0
246 247 248 249 250 251 252 0
-246 -247 0
-246 -248 0
-246 -249 0
-246 -250 0
-246 -251 0
-246 -252 0
-247 -248 0
-247 -249 0
-247 -250 0
-247 -251 0
-247 -252 0
-248 -249 0
-248 -250 0
-248 -251 0
-248 -252 0
-249 -250 0
-249 -251 0
-249 -252 0
-250 -251 0
-250 -252 0
-251 -252 0
253 254 255 256 257 258 0
-253 -254 0
-253 -255 0
-253 -256 0
-253 -257 0
-253 -258 0
-254 -255 0
-254 -256 0
-254 -257 0
-254 -258 0
-255 -256 0
-255 -257 0
-255 -258 0
-256 -257 0
-256 -258 0
-257 -258 0
259 260 261 262 263 264 0
-259 -260 0
-259 -261 0
-259 -262 0
-259 -263 0
-259 -264 0
-260 -261 0
-260 -262 0
-260 -263 0
-260 -264 0
-261 -262 0
-261 -263 0
-261 -264 0
-262 -263 0
-262 -264 0
-263 -264 0
265 266 267 268 269 270 0
-265 -266 0
-265 -267 0
-265 -268 0
-265 -269 0
-265 -270 0
-266 -267 0
-266 -268 0
-266 -269 0
-266 -270 0
-267 -268 0
-267 -269 0
-267 -270 0
-268 -269 0
-268 -270 0
-269 -270 0
271 272 273 274 275 276 277 0
-271 -272 0
-271 -273 0
-271 -274 0
-271 -275 0
-271 -276 0
-271 -277 0
-272 -273 0
-272 -274 0
-272 -275 0
-272 -276 0
-272 -277 0
-273 -274 0
-273 -275 0
-273 -276 0
-273 -277 0
-274 -275 0
-274 -276 0
-274 -277 0
-275 -276 0
-275 -277 0
-276 -277 0
278 279 280 281 282 283 0
-278 -279 0
-278 -280 0
-278 -281 0
-278 -282 0
-278 -283 0
-279 -280 0
-279 -281 0
-279 -282 0
-279 -283 0
-280 -281 0
-280 -282 0
-280 -283 0
-281 -282 0
-281 -283 0
-282 -283 0
284 285 286 287 288 289 290 0
-284 -285 0
-284 -286 0
-284 -287 0
-284 -288 0
-284 -289 0
-284 -290 0
-285 -286 0
-285 -287 0
-285 -288 0
-285 -289 0
-285 -290 0
-286 -287 0
-286 -288 0
-286 -289 0
-286 -290 0
-287 -288 0
-287 -289 0
-287 -290 0
-288 -289 0
-288 -290 0
-289 -290 0
291 292 293 294 295 296 0
-291 -292 0
-291 -293 0
-291 -294 0
-291 -295 0
-291 -296 0
-292 -293 0
-292 -294 0
-292 -295 0
-292 -296 0
-293 -294 0
-293 -295 0
-293 -296 0
-294 -295 0
-294 -296 0
-295 -296 0
297 298 299 300 301 302 303 0
-297 -298 0
-297 -299 0
-297 -300 0
-297 -301 0
-297 -302 0
-297 -303 0
-298 -299 0
-298 -300 0
-298 -301 0
-298 -302 0
-298 -303 0
-299 -300 0
-299 -301 0
-299 -302 0
-299 -303 0
-300 -301 0
-300 -302 0
-300 -303 0
-301 -302 0
-301 -303 0
-302 -303 0
304 305 306 307 308 309 310 0
-304 -305 0
-304 -306 0
-304 -307 0
-304 -308 0
-304 -309 0
-304 -310 0
-305 -306 0
-305 -307 0
-305 -308 0
-305 -309 0
-305 -310 0
-306 -307 0
-306 -308 0
-306 -309 0
-306 -310 0
-307 -308 0
-307 -309 0
-307 -310 0
-308 -309 0
-308 -310 0
-309 -310 0
311 312 313 314 315 316 0
-311 -312 0
-311 -313 0
-311 -314 0
-311 -315 0
-311 -316 0
-312 -313 0
-312 -314 0
-312 -315 0
-312 -316 0
-313 -314 0
-313 -315 0
-313 -316 0
-314 -315 0
-314 -316 0
-315 -316 0
317 318 319 320 321 322 323 0
-317 -318 0
-317 -319 0
-317 -320 0
-317 -321 0
-317 -322 0
-317 -323 0
-318 -319 0
-318 -320 0
-318 -321 0
-318 -322 0
-318 -323 0
-319 -320 0
-319 -321 0
-319 -322 0
-319 -323 0
-320 -321 0
-320 -322 0
-320 -323 0
-321 -322 0
-321 -323 0
-322 -323 0
324 325 326 327 328 329 0
-324 -325 0
-324 -326 0
-324 -327 0
-324 -328 0
-324 -329 0
-325 -326 0
-325 -327 0
-325 -328 0
-325 -329 0
-326 -327 0
-326 -328 0
-326 -329 0
-327 -328 0
-327 -329 0
-328 -329 0
330 331 332 333 334 335 336 337 338 0
-330 -331 0
-330 -332 0
-330 -333 0
-330 -334 0
-330 -335 0
-330 -336 0
-330 -337 0
-330 -338 0
-331 -332 0
-331 -333 0
-331 -334 0
-331 -335 0
-331 -336 0
-331 -337 0
-331 -338 0
-332 -333 0
-332 -334 0
-332 -335 0
-332 -336 0
-332 -337 0
-332 -338 0
-333 -334 0
-333 -335 0
-333 -336 0
-333 -337 0
-333 -338 0
-334 -335 0
-334 -336 0
-334 -337 0
-334 -338 0
-335 -336 0
-335 -337 0
-335 -338 0
-336 -337 0
-336 -338 0
-337 -338 0
339 340 341 342 343 344 345 0
-339 -340 0
-339 -341 0
-339 -342 0
-339 -343 0
-339 -344 0
-339 -345 0
-340 -341 0
-340 -342 0
-340 -343 0
-340 -344 0
-340 -345 0
-341 -342 0
-341 -343 0
-341 -344 0
-341 -345 0
-342 -343 0
-342 -344 0
-342 -345 0
-343 -344 0
-343 -345 0
-344 -345 0
346 347 348 349 350 351 352 353 354 0
-346 -347 0
-346 -348 0
-346 -349 0
-346 -350 0
-346 -351 0
-346 -352 0
-346 -353 0
-346 -354 0
-347 -348 0
-347 -349 0
-347 -350 0
-347 -351 0
-347 -352 0
-347 -353 0
-347 -354 0
-348 -349 0
-348 -350 0
-348 -351 0
-348 -352 0
-348 -353 0
-348 -354 0
-349 -350 0
-349 -351 0
-349 -352 0
-349 -353 0
-349 -354 0
-350 -351 0
-350 -352 0
-350 -353 0
-350 -354 0
-351 -352 0
-351 -353 0
-351 -354 0
-352 -353 0
-352 -354 0
-353 -354 0
355 356 357 358 359 360 0
-355 -356 0
-355 -357 0
-355 -358 0
-355 -359 0
-355 -360 0
-356 -357 0
-356 -358 0
-356 -359 0
-356 -360 0
-357 -358 0
-357 -359 0
-357 -360 0
-358 -359 0
-358 -360 0
-359 -360 0
361 362 363 364 365 366 367 368 369 0
-361 -362 0
-361 -363 0
-361 -364 0
-361 -365 0
-361 -366 0
-361 -367 0
-361 -368 0
-361 -369 0
-362 -363 0
-362 -364 0
-362 -365 0
-362 -366 0
-362 -367 0
-362 -368 0
-362 -369 0
-363 -364 0
-363 -365 0
-363 -366 0
-363 -367 0
-363 -368 0
-363 -369 0
-364 -365 0
-364 -366 0
-364 -367 0
-364 -368 0
-364 -369 0
-365 -366 0
-365 -367 0
-365 -368 0
-365 -369 0
-366 -367 0
-366 -368 0
-366 -369 0
-367 -368 0
-367 -369 0
-368 -369 0
370 371 372 373 374 375 0
-370 -371 0
-370 -372 0
-370 -373 0
-370 -374 0
-370 -375 0
-371 -372 0
-371 -373 0
-371 -374 0
-371 -375 0
-372 -373 0
-372 -374 0
-372 -375 0
-373 -374 0
-373 -375 0
-374 -375 0
376 377 378 379 380 381 382 0
-376 -377 0
-376 -378 0
-376 -379 0
-376 -380 0
-376 -381 0
-376 -382 0
-377 -378 0
-377 -379 0
-377 -380 0
-377 -381 0
-377 -382 0
-378 -379 0
-378 -380 0
-378 -381 0
-378 -382 0
-379 -380 0
-379 -381 0
-379 -382 0
-380 -381 0
-380 -382 0
-381 -382 0
383 384 385 386 387 388 0
-383 -384 0
-383 -385 0
-383 -386 0
-383 -387 0
-383 -388 0
-384 -385 0
-384 -386 0
-384 -387 0
-384 -388 0
-385 -386 0
-385 -387 0
-385 -388 0
-386 -387 0
-386 -388 0
-387 -388 0
389 390 391 392 393 394 395 0
-389 -390 0
-389 -391 0
-389 -392 0
-389 -393 0
-389 -394 0
-389 -395 0
-390 -391 0
-390 -392 0
-390 -393 0
-390 -394 0
-390 -395 0
-391 -392 0
-391 -393 0
-391 -394 0
-391 -395 0
-392 -393 0
-392 -394 0
-392 -395 0
-393 -394 0
-393 -395 0
-394 -395 0
396 397 398 399 400 401 0
-396 -397 0
-396 -398 0
-396 -399 0
-396 -400 0
-396 -401 0
-397 -398 0
-397 -399 0
-397 -400 0
-397 -401 0
-398 -399 0
-398 -400 0
-398 -401 0
-399 -400 0
-399 -401 0
-400 -401 0
402 403 404 405 406 407 408 0
-402 -403 0
-402 -404 0
-402 -405 0
-402 -406 0
-402 -407 0
-402 -408 0
-403 -404 0
-403 -405 0
-403 -406 0
-403 -407 0
-403 -408 0
-404 -405 0
-404 -406 0
-404 -407 0
-404 -408 0
-405 -406 0
-405 -407 0
-405 -408 0
-406 -407 0
-406 -408 0
-407 -408 0
409 410 411 412 413 414 0
-409 -410 0
-409 -411 0
-409 -412 0
-409 -413 0
-409 -414 0
-410 -411 0
-410 -412 0
-410 -413 0
-410 -414 0
-411 -412 0
-411 -413 0
-411 -414 0
-412 -413 0
-412 -414 0
-413 -414 0
415 416 417 418 419 420 421 0
-415 -416 0
-415 -417 0
-415 -418 0
-415 -419 0
-415 -420 0
-415 -421 0
-416 -417 0
-416 -418 0
-416 -419 0
-416 -420 0
-416 -421 0
-417 -418 0
-417 -419 0
-417 -420 0
-417 -421 0
-418 -419 0
-418 -420 0
-418 -421 0
-419 -420 0
-419 -421 0
-420 -421 0
422 423 424 425 426 427 428 429 430 431 0
-422 -423 0
-422 -424 0
-422 -425 0
-422 -426 0
-422 -427 0
-422 -428 0
-422 -429 0
-422 -430 0
-422 -431 0
-423 -424 0
-423 -425 0
-423 -426 0
-423 -427 0
-423 -428 0
-423 -429 0
-423 -430 0
-423 -431 0
-424 -425 0
-424 -426 0
-424 -427 0
-424 -428 0
-424 -429 0
-424 -430 0
-424 -431 0
-425 -426 0
-425 -427 0
-425 -428 0
-425 -429 0
-425 -430 0
-425 -431 0
-426 -427 0
-426 -428 0
-426 -429 0
-426 -430 0
-426 -431 0
-427 -428 0
-427 -429 0
-427 -430 0
-427 -431 0
-428 -429 0
-428 -430 0
-428 -431 0
-429 -430 0
-429 -431 0
-430 -431 0
432 433 434 435 436 437 0
-432 -433 0
-432 -434 0
-432 -435 0
-432 -436 0
-432 -437 0
-433 -434 0
-433 -435 0
-433 -436 0
-433 -437 0
-434 -435 0
-434 -436 0
-434 -437 0
-435 -436 0
-435 -437 0
-436 -437 0
438 439 440 441 442 443 444 0
-438 -439 0
-438 -440 0
-438 -441 0
-438 -442 0
-438 -443 0
-438 -444 0
-439 -440 0
-439 -441 0
-439 -442 0
-439 -443 0
-439 -444 0
-440 -441 0
-440 -442 0
-440 -443 0
-440 -444 0
-441 -442 0
-441 -443 0
-441 -444 0
-442 -443 0
-442 -444 0
-443 -444 0
445 446 447 448 449 450 451 0
-445 -446 0
-445 -447 0
-445 -448 0
-445 -449 0
-445 -450 0
-445 -451 0
-446 -447 0
-446 -448 0
-446 -449 0
-446 -450 0
-446 -451 0
-447 -448 0
-447 -449 0
-447 -450 0
-447 -451 0
-448 -449 0
-448 -450 0
-448 -451 0
-449 -450 0
-449 -451 0
-450 -451 0
452 453 454 455 456 457 458 0
-452 -453 0
-452 -454 0
-452 -455 0
-452 -456 0
-452 -457 0
-452 -458 0
-453 -454 0
-453 -455 0
-453 -456 0
-453 -457 0
-453 -458 0
-454 -455 0
-454 -456 0
-454 -457 0
-454 -458 0
-455 -456 0
-455 -457 0
-455 -458 0
-456 -457 0
-456 -458 0
-457 -458 0
459 460 461 462 463 464 465 466 467 0
-459 -460 0
-459 -461 0
-459 -462 0
-459 -463 0
-459 -464 0
-459 -465 0
-459 -466 0
-459 -467 0
-460 -461 0
-460 -462 0
-460 -463 0
-460 -464 0
-460 -465 0
-460 -466 0
-460 -467 0
-461 -462 0
-461 -463 0
-461 -464 0
-461 -465 0
-461 -466 0
-461 -467 0
-462 -463 0
-462 -464 0
-462 -465 0
-462 -466 0
-462 -467 0
-463 -464 0
-463 -465 0
-463 -466 0
-463 -467 0
-464 -465 0
-464 -466 0
-464 -467 0
-465 -466 0
-465 -467 0
-466 -467 0
468 469 470 471 472 473 474 0
-468 -469 0
-468 -470 0
-468 -471 0
-468 -472 0
-468 -473 0
-468 -474 0
-469 -470 0
-469 -471 0
-469 -472 0
-469 -473 0
-469 -474 0
-470 -471 0
-470 -472 0
-470 -473 0
-470 -474 0
-471 -472 0
-471 -473 0
-471 -474 0
-472 -473 0
-472 -474 0
-473 -474 0
475 476 477 478 479 480 0
-475 -476 0
-475 -477 0
-475 -478 0
-475 -479 0
-475 -480 0
-476 -477 0
-476 -478 0
-476 -479 0
-476 -480 0
-477 -478 0
-477 -479 0
-477 -480 0
-478 -479 0
-478 -480 0
-479 -480 0
481 482 483 484 485 486 487 488 489 0
-481 -482 0
-481 -483 0
-481 -484 0
-481 -485 0
-481 -486 0
-481 -487 0
-481 -488 0
-481 -489 0
-482 -483 0
-482 -484 0
-482 -485 0
-482 -486 0
-482 -487 0
-482 -488 0
-482 -489 0
-483 -484 0
-483 -485 0
-483 -486 0
-483 -487 0
-483 -488 0
-483 -489 0
-484 -485 0
-484 -486 0
-484 -487 0
-484 -488 0
-484 -489 0
-485 -486 0
-485 -487 0
-485 -488 0
-485 -489 0
-486 -487 0
-486 -488 0
-486 -489 0
-487 -488 0
-487 -489 0
-488 -489 0
490 491 492 493 494 495 496 0
-490 -491 0
-490 -492 0
-490 -493 0
-490 -494 0
-490 -495 0
-490 -496 0
-491 -492 0
-491 -493 0
-491 -494 0
-491 -495 0
-491 -496 0
-492 -493 0
-492 -494 0
-492 -495 0
-492 -496 0
-493 -494 0
-493 -495 0
-493 -496 0
-494 -495 0
-494 -496 0
-495 -496 0
497 498 499 500 501 502 0
-497 -498 0
-497 -499 0
-497 -500 0
-497 -501 0
-497 -502 0
-498 -499 0
-498 -500 0
-498 -501 0
-498 -502 0
-499 -500 0
-499 -501 0
-499 -502 0
-500 -501 0
-500 -502 0
-501 -502 0
503 504 505 506 507 508 0
-503 -504 0
-503 -505 0
-503 -506 0
-503 -507 0
-503 -508 0
-504 -505 0
-504 -506 0
-504 -507 0
-504 -508 0
-505 -506 0
-505 -507 0
-505 -508 0
-506 -507 0
-506 -508 0
-507 -508 0
509 510 511 512 513 514 515 0
-509 -510 0
-509 -511 0
-509 -512 0
-509 -513 0
-509 -514 0
-509 -515 0
-510 -511 0
-510 -512 0
-510 -513 0
-510 -514 0
-510 -515 0
-511 -512 0
-511 -513 0
-511 -514 0
-511 -515 0
-512 -513 0
-512 -514 0
-512 -515 0
-513 -514 0
-513 -515 0
-514 -515 0
516 517 518 519 520 521 0
-516 -517 0
-516 -518 0
-516 -519 0
-516 -520 0
-516 -521 0
-517 -518 0
-517 -519 0
-517 -520 0
-517 -521 0
-518 -519 0
-518 -520 0
-518 -521 0
-519 -520 0
-519 -521 0
-520 -521 0
522 523 524 525 526 527 528 0
-522 -523 0
-522 -524 0
-522 -525 0
-522 -526 0
-522 -527 0
-522 -528 0
-523 -524 0
-523 -525 0
-523 -526 0
-523 -527 0
-523 -528 0
-524 -525 0
-524 -526 0
-524 -527 0
-524 -528 0
-525 -526 0
-525 -527 0
-525 -528 0
-526 -527 0
-526 -528 0
-527 -528 0
529 530 531 532 533 534 535 0
-529 -530 0
-529 -531 0
-529 -532 0
-529 -533 0
-529 -534 0
-529 -535 0
-530 -531 0
-530 -532 0
-530 -533 0
-530 -534 0
-530 -535 0
-531 -532 0
-531 -533 0
-531 -534 0
-531 -535 0
-532 -533 0
-532 -534 0
-532 -535 0
-533 -534 0
-533 -535 0
-534 -535 0
536 537 538 539 540 541 542 543 544 0
-536 -537 0
-536 -538 0
-536 -539 0
-536 -540 0
-536 -541 0
-536 -542 0
-536 -543 0
-536 -544 0
-537 -538 0
-537 -539 0
-537 -540 0
-537 -541 0
-537 -542 0
-537 -543 0
-537 -544 0
-538 -539 0
-538 -540 0
-538 -541 0
-538 -542 0
-538 -543 0
-538 -544 0
-539 -540 0
-539 -541 0
-539 -542 0
-539 -543 0
-539 -544 0
-540 -541 0
-540 -542 0
-540 -543 0
-540 -544 0
-541 -542 0
-541 -543 0
-541 -544 0
-542 -543 0
-542 -544 0
-543 -544 0
545 546 547 548 549 550 551 0
-545 -546 0
-545 -547 0
-545 -548 0
-545 -549 0
-545 -550 0
-545 -551 0
-546 -547 0
-546 -548 0
-546 -549 0
-546 -550 0
-546 -551 0
-547 -548 0
-547 -549 0
-547 -550 0
-547 -551 0
-548 -549 0
-548 -550 0
-548 -551 0
-549 -550 0
-549 -551 0
-550 -551 0
552 553 554 555 556 557 558 0
-552 -553 0
-552 -554 0
-552 -555 0
-552 -556 0
-552 -557 0
-552 -558 0
-553 -554 0
-553 -555 0
-553 -556 0
-553 -557 0
-553 -558 0
-554 -555 0
-554 -556 0
-554 -557 0
-554 -558 0
-555 -556 0
-555 -557 0
-555 -558 0
-556 -557 0
-556 -558 0
-557 -558 0
559 560 561 562 563 564 565 0
-559 -560 0
-559 -561 0
-559 -562 0
-559 -563 0
-559 -564 0
-559 -565 0
-560 -561 0
-560 -562 0
-560 -563 0
-560 -564 0
-560 -565 0
-561 -562 0
-561 -563 0
-561 -564 0
-561 -565 0
-562 -563 0
-562 -564 0
-562 -565 0
-563 -564 0
-563 -565 0
-564 -565 0
566 567 568 569 570 571 0
-566 -567 0
-566 -568 0
-566 -569 0
-566 -570 0
-566 -571 0
-567 -568 0
-567 -569 0
-567 -570 0
-567 -571 0
-568 -569 0
-568 -570 0
-568 -571 0
-569 -570 0
-569 -571 0
-570 -571 0
572 573 574 575 576 577 0
-572 -573 0
-572 -574 0
-572 -575 0
-572 -576 0
-572 -577 0
-573 -574 0
-573 -575 0
-573 -576 0
-573 -577 0
-574 -575 0
-574 -576 0
-574 -577 0
-575 -576 0
-575 -577 0
-576 -577 0
578 579 580 581 582 583 584 585 586 587 0
-578 -579 0
-578 -580 0
-578 -581 0
-578 -582 0
-578 -583 0
-578 -584 0
-578 -585 0
-578 -586 0
-578 -587 0
-579 -580 0
-579 -581 0
-579 -582 0
-579 -583 0
-579 -584 0
-579 -585 0
-579 -586 0
-579 -587 0
-580 -581 0
-580 -582 0
-580 -583 0
-580 -584 0
-580 -585 0
-580 -586 0
-580 -587 0
-581 -582 0
-581 -583 0
-581 -584 0
-581 -585 0
-581 -586 0
-581 -587 0
-582 -583 0
-582 -584 0
-582 -585 0
-582 -586 0
-582 -587 0
-583 -584 0
-583 -585 0
-583 -586 0
-583 -587 0
-584 -585 0
-584 -586 0
-584 -587 0
-585 -586 0
-585 -587 0
-586 -587 0
588 589 590 591 592 593 0
-588 -589 0
-588 -590 0
-588 -591 0
-588 -592 0
-588 -593 0
-589 -590 0
-589 -591 0
-589 -592 0
-589 -593 0
-590 -591 0
-590 -592 0
-590 -593 0
-591 -592 0
-591 -593 0
-592 -593 0
594 595 596 597 598 599 0
-594 -595 0
-594 -596 0
-594 -597 0
-594 -598 0
-594 -599 0
-595 -596 0
-595 -597 0
-595 -598 0
-595 -599 0
-596 -597 0
-596 -598 0
-596 -599 0
-597 -598 0
-597 -599 0
-598 -599 0
600 601 602 603 604 605 0
-600 -601 0
-600 -602 0
-600 -603 0
-600 -604 0
-600 -605 0
-601 -602 0
-601 -603 0
-601 -604 0
-601 -605 0
-602 -603 0
-602 -604 0
-602 -605 0
-603 -604 0
-603 -605 0
-604 -605 0
606 607 608 609 610 611 0
-606 -607 0
-606 -608 0
-606 -609 0
-606 -610 0
-606 -611 0
-607 -608 0
-607 -609 0
-607 -610 0
-607 -611 0
-608 -609 0
-608 -610 0
-608 -611 0
-609 -610 0
-609 -611 0
-610 -611 0
612 613 614 615 616 617 618 0
-612 -613 0
-612 -614 0
-612 -615 0
-612 -616 0
-612 -617 0
-612 -618 0
-613 -614 0
-613 -615 0
-613 -616 0
-613 -617 0
-613 -618 0
-614 -615 0
-614 -616 0
-614 -617 0
-614 -618 0
-615 -616 0
-615 -617 0
-615 -618 0
-616 -617 0
-616 -618 0
-617 -618 0
619 620 621 622 623 624 625 0
-619 -620 0
-619 -621 0
-619 -622 0
-619 -623 0
-619 -624 0
-619 -625 0
-620 -621 0
-620 -622 0
-620 -623 0
-620 -624 0
-620 -625 0
-621 -622 0
-621 -623 0
-621 -624 0
-621 -625 0
-622 -623 0
-622 -624 0
-622 -625 0
-623 -624 0
-623 -625 0
-624 -625 0
626 627 628 629 630 631 632 633 634 0
-626 -627 0
-626 -628 0
-626 -629 0
-626 -630 0
-626 -631 0
-626 -632 0
-626 -633 0
-626 -634 0
-627 -628 0
-627 -629 0
-627 -630 0
-627 -631 0
-627 -632 0
-627 -633 0
-627 -634 0
-628 -629 0
-628 -630 0
-628 -631 0
-628 -632 0
-628 -633 0
-628 -634 0
-629 -630 0
-629 -631 0
-629 -632 0
-629 -633 0
-629 -634 0
-630 -631 0
-630 -632 0
-630 -633 0
-630 -634 0
-631 -632 0
-631 -633 0
-631 -634 0
-632 -633 0
-632 -634 0
-633 -634 0
635 636 637 638 639 640 641 0
-635 -636 0
-635 -637 0
-635 -638 0
-635 -639 0
-635 -640 0
-635 -641 0
-636 -637 0
-636 -638 0
-636 -639 0
-636 -640 0
-636 -641 0
-637 -638 0
-637 -639 0
-637 -640 0
-637 -641 0
-638 -639 0
-638 -640 0
-638 -641 0
-639 -640 0
-639 -641 0
-640 -641 0
642 643 644 645 646 647 648 0
-642 -643 0
-642 -644 0
-642 -645 0
-642 -646 0
-642 -647 0
-642 -648 0
-643 -644 0
-643 -645 0
-643 -646 0
-643 -647 0
-643 -648 0
-644 -645 0
-644 -646 0
-644 -647 0
-644 -648 0
-645 -646 0
-645 -647 0
-645 -648 0
-646 -647 0
-646 -648 0
-647 -648 0
649 650 651 652 653 654 655 0
-649 -650 0
-649 -651 0
-649 -652 0
-649 -653 0
-649 -654 0
-649 -655 0
-650 -651 0
-650 -652 0
-650 -653 0
-650 -654 0
-650 -655 0
-651 -652 0
-651 -653 0
-651 -654 0
-651 -655 0
-652 -653 0
-652 -654 0
-652 -655 0
-653 -654 0
-653 -655 0
-654 -655 0
656 657 658 659 660 661 0
-656 -657 0
-656 -658 0
-656 -659 0
-656 -660 0
-656 -661 0
-657 -658 0
-657 -659 0
-657 -660 0
-657 -661 0
-658 -659 0
-658 -660 0
-658 -661 0
-659 -660 0
-659 -661 0
-660 -661 0
662 663 664 665 666 667 668 0
-662 -663 0
-662 -664 0
-662 -665 0
-662 -666 0
-662 -667 0
-662 -668 0
-663 -664 0
-663 -665 0
-663 -666 0
-663 -667 0
-663 -668 0
-664 -665 0
-664 -666 0
-664 -667 0
-664 -668 0
-665 -666 0
-665 -667 0
-665 -668 0
-666 -667 0
-666 -668 0
-667 -668 0
669 670 671 672 673 674 0
-669 -670 0
-669 -671 0
-669 -672 0
-669 -673 0
-669 -674 0
-670 -671 0
-670 -672 0
-670 -673 0
-670 -674 0
-671 -672 0
-671 -673 0
-671 -674 0
-672 -673 0
-672 -674 0
-673 -674 0
675 676 677 678 679 680 0
-675 -676 0
-675 -677 0
-675 -678 0
-675 -679 0
-675 -680 0
-676 -677 0
-676 -678 0
-676 -679 0
-676 -680 0
-677 -678 0
-677 -679 0
-677 -680 0
-678 -679 0
-678 -680 0
-679 -680 0
681 682 683 684 685 686 687 0
-681 -682 0
-681 -683 0
-681 -684 0
-681 -685 0
-681 -686 0
-681 -687 0
-682 -683 0
-682 -684 0
-682 -685 0
-682 -686 0
-682 -687 0
-683 -684 0
-683 -685 0
-683 -686 0
-683 -687 0
-684 -685 0
-684 -686 0
-684 -687 0
-685 -686 0
-685 -687 0
-686 -687 0
688 689 690 691 692 693 694 695 696 0
-688 -689 0
-688 -690 0
-688 -691 0
-688 -692 0
-688 -693 0
-688 -694 0
-688 -695 0
-688 -696 0
-689 -690 0
-689 -691 0
-689 -692 0
-689 -693 0
-689 -694 0
-689 -695 0
-689 -696 0
-690 -691 0
-690 -692 0
-690 -693 0
-690 -694 0
-690 -695 0
-690 -696 0
-691 -692 0
-691 -693 0
-691 -694 0
-691 -695 0
-691 -696 0
-692 -693 0
-692 -694 0
-692 -695 0
-692 -696 0
-693 -694 0
-693 -695 0
-693 -696 0
-694 -695 0
-694 -696 0
-695 -696 0
697 698 699 700 701 702 703 0
-697 -698 0
-697 -699 0
-697 -700 0
-697 -701 0
-697 -702 0
-697 -703 0
-698 -699 0
-698 -700 0
-698 -701 0
-698 -702 0
-698 -703 0
-699 -700 0
-699 -701 0
-699 -702 0
-699 -703 0
-700 -701 0
-700 -702 0
-700 -703 0
-701 -702 0
-701 -703 0
-702 -703 0
704 705 706 707 708 709 0
-704 -705 0
-704 -706 0
-704 -707 0
-704 -708 0
-704 -709 0
-705 -706 0
-705 -707 0
-705 -708 0
-705 -709 0
-706 -707 0
-706 -708 0
-706 -709 0
-707 -708 0
-707 -709 0
-708 -709 0
710 711 712 713 714 715 716 0
-710 -711 0
-710 -712 0
-710 -713 0
-710 -714 0
-710 -715 0
-710 -716 0
-711 -712 0
-711 -713 0
-711 -714 0
-711 -715 0
-711 -716 0
-712 -713 0
-712 -714 0
-712 -715 0
-712 -716 0
-713 -714 0
-713 -715 0
-713 -716 0
-714 -715 0
-714 -716 0
-715 -716 0
717 718 719 720 721 722 723 0
-717 -718 0
-717 -719 0
-717 -720 0
-717 -721 0
-717 -722 0
-717 -723 0
-718 -719 0
-718 -720 0
-718 -721 0
-718 -722 0
-718 -723 0
-719 -720 0
-719 -721 0
-719 -722 0
-719 -723 0
-720 -721 0
-720 -722 0
-720 -723 0
-721 -722 0
-721 -723 0
-722 -723 0
724 725 726 727 728 729 0
-724 -725 0
-724 -726 0
-724 -727 0
-724 -728 0
-724 -729 0
-725 -726 0
-725 -727 0
-725 -728 0
-725 -729 0
-726 -727 0
-726 -728 0
-726 -729 0
-727 -728 0
-727 -729 0
-728 -729 0
730 731 732 733 734 735 0
-730 -731 0
-730 -732 0
-730 -733 0
-730 -734 0
-730 -735 0
-731 -732 0
-731 -733 0
-731 -734 0
-731 -735 0
-732 -733 0
-732 -734 0
-732 -735 0
-733 -734 0
-733 -735 0
-734 -735 0
736 737 738 739 740 741 0
-736 -737 0
-736 -738 0
-736 -739 0
-736 -740 0
-736 -741 0
-737 -738 0
-737 -739 0
-737 -740 0
-737 -741 0
-738 -739 0
-738 -740 0
-738 -741 0
-739 -740 0
-739 -741 0
-740 -741 0
742 0
743 744 745 746 747 748 0
-743 -744 0
-743 -745 0
-743 -746 0
-743 -747 0
-743 -748 0
-744 -745 0
-744 -746 0
-744 -747 0
-744 -748 0
-745 -746 0
-745 -747 0
-745 -748 0
-746 -747 0
-746 -748 0
-747 -748 0
749 750 751 752 753 754 755 0
-749 -750 0
-749 -751 0
-749 -752 0
-749 -753 0
-749 -754 0
-749 -755 0
-750 -751 0
-750 -752 0
-750 -753 0
-750 -754 0
-750 -755 0
-751 -752 0
-751 -753 0
-751 -754 0
-751 -755 0
-752 -753 0
-752 -754 0
-752 -755 0
-753 -754 0
-753 -755 0
-754 -755 0
756 757 758 759 760 761 0
-756 -757 0
-756 -758 0
-756 -759 0
-756 -760 0
-756 -761 0
-757 -758 0
-757 -759 0
-757 -760 0
-757 -761 0
-758 -759 0
-758 -760 0
-758 -761 0
-759 -760 0
-759 -761 0
-760 -761 0
762 763 764 765 766 767 0
-762 -763 0
-762 -764 0
-762 -765 0
-762 -766 0
-762 -767 0
-763 -764 0
-763 -765 0
-763 -766 0
-763 -767 0
-764 -765 0
-764 -766 0
-764 -767 0
-765 -766 0
-765 -767 0
-766 -767 0
768 769 770 771 772 773 0
-768 -769 0
-768 -770 0
-768 -771 0
-768 -772 0
-768 -773 0
-769 -770 0
-769 -771 0
-769 -772 0
-769 -773 0
-770 -771 0
-770 -772 0
-770 -773 0
-771 -772 0
-771 -773 0
-772 -773 0
774 775 776 777 778 779 780 0
-774 -775 0
-774 -776 0
-774 -777 0
-774 -778 0
-774 -779 0
-774 -780 0
-775 -776 0
-775 -777 0
-775 -778 0
-775 -779 0
-775 -780 0
-776 -777 0
-776 -778 0
-776 -779 0
-776 -780 0
-777 -778 0
-777 -779 0
-777 -780 0
-778 -779 0
-778 -780 0
-779 -780 0
781 782 783 784 785 786 0
-781 -782 0
-781 -783 0
-781 -784 0
-781 -785 0
-781 -786 0
-782 -783 0
-782 -784 0
-782 -785 0
-782 -786 0
-783 -784 0
-783 -785 0
-783 -786 0
-784 -785 0
-784 -786 0
-785 -786 0
787 788 789 790 791 792 0
-787 -788 0
-787 -789 0
-787 -790 0
-787 -791 0
-787 -792 0
-788 -789 0
-788 -790 0
-788 -791 0
-788 -792 0
-789 -790 0
-789 -791 0
-789 -792 0
-790 -791 0
-790 -792 0
-791 -792 0
793 794 795 796 797 798 799 0
-793 -794 0
-793 -795 0
-793 -796 0
-793 -797 0
-793 -798 0
-793 -799 0
-794 -795 0
-794 -796 0
-794 -797 0
-794 -798 0
-794 -799 0
-795 -796 0
-795 -797 0
-795 -798 0
-795 -799 0
-796 -797 0
-796 -798 0
-796 -799 0
-797 -798 0
-797 -799 0
-798 -799 0
800 801 802 803 804 805 0
-800 -801 0
-800 -802 0
-800 -803 0
-800 -804 0
-800 -805 0
-801 -802 0
-801 -803 0
-801 -804 0
-801 -805 0
-802 -803 0
-802 -804 0
-802 -805 0
-803 -804 0
-803 -805 0
-804 -805 0
806 807 808 809 810 811 812 813 814 0
-806 -807 0
-806 -808 0
-806 -809 0
-806 -810 0
-806 -811 0
-806 -812 0
-806 -813 0
-806 -814 0
-807 -808 0
-807 -809 0
-807 -810 0
-807 -811 0
-807 -812 0
-807 -813 0
-807 -814 0
-808 -809 0
-808 -810 0
-808 -811 0
-808 -812 0
-808 -813 0
-808 -814 0
-809 -810 0
-809 -811 0
-809 -812 0
-809 -813 0
-809 -814 0
-810 -811 0
-810 -812 0
-810 -813 0
-810 -814 0
-811 -812 0
-811 -813 0
-811 -814 0
-812 -813 0
-812 -814 0
-813 -814 0
815 816 817 818 819 820 821 0
-815 -816 0
-815 -817 0
-815 -818 0
-815 -819 0
-815 -820 0
-815 -821 0
-816 -817 0
-816 -818 0
-816 -819 0
-816 -820 0
-816 -821 0
-817 -818 0
-817 -819 0
-817 -820 0
-817 -821 0
-818 -819 0
-818 -820 0
-818 -821 0
-819 -820 0
-819 -821 0
-820 -821 0
822 823 824 825 826 827 828 829 830 0
-822 -823 0
-822 -824 0
-822 -825 0
-822 -826 0
-822 -827 0
-822 -828 0
-822 -829 0
-822 -830 0
-823 -824 0
-823 -825 0
-823 -826 0
-823 -827 0
-823 -828 0
-823 -829 0
-823 -830 0
-824 -825 0
-824 -826 0
-824 -827 0
-824 -828 0
-824 -829 0
-824 -830 0
-825 -826 0
-825 -827 0
-825 -828 0
-825 -829 0
-825 -830 0
-826 -827 0
-826 -828 0
-826 -829 0
-826 -830 0
-827 -828 0
-827 -829 0
-827 -830 0
-828 -829 0
-828 -830 0
-829 -830 0
831 832 833 834 835 836 837 0
-831 -832 0
-831 -833 0
-831 -834 0
-831 -835 0
-831 -836 0
-831 -837 0
-832 -833 0
-832 -834 0
-832 -835 0
-832 -836 0
-832 -837 0
-833 -834 0
-833 -835 0
-833 -836 0
-833 -837 0
-834 -835 0
-834 -836 0
-834 -837 0
-835 -836 0
-835 -837 0
-836 -837 0
838 839 840 841 842 843 844 0
-838 -839 0
-838 -840 0
-838 -841 0
-838 -842 0
-838 -843 0
-838 -844 0
-839 -840 0
-839 -841 0
-839 -842 0
-839 -843 0
-839 -844 0
-840 -841 0
-840 -842 0
-840 -843 0
-840 -844 0
-841 -842 0
-841 -843 0
-841 -844 0
-842 -843 0
-842 -844 0
-843 -844 0
845 846 847 848 849 850 0
-845 -846 0
-845 -847 0
-845 -848 0
-845 -849 0
-845 -850 0
-846 -847 0
-846 -848 0
-846 -849 0
-846 -850 0
-847 -848 0
-847 -849 0
-847 -850 0
-848 -849 0
-848 -850 0
-849 -850 0
851 852 853 854 855 856 857 858 859 860 0
-851 -852 0
-851 -853 0
-851 -854 0
-851 -855 0
-851 -856 0
-851 -857 0
-851 -858 0
-851 -859 0
-851 -860 0
-852 -853 0
-852 -854 0
-852 -855 0
-852 -856 0
-852 -857 0
-852 -858 0
-852 -859 0
-852 -860 0
-853 -854 0
-853 -855 0
-853 -856 0
-853 -857 0
-853 -858 0
-853 -859 0
-853 -860 0
-854 -855 0
-854 -856 0
-854 -857 0
-854 -858 0
-854 -859 0
-854 -860 0
-855 -856 0
-855 -857 0
-855 -858 0
-855 -859 0
-855 -860 0
-856 -857 0
-856 -858 0
-856 -859 0
-856 -860 0
-857 -858 0
-857 -859 0
-857 -860 0
-858 -859 0
-858 -860 0
-859 -860 0
861 862 863 864 865 866 867 0
-861 -862 0
-861 -863 0
-861 -864 0
-861 -865 0
-861 -866 0
-861 -867 0
-862 -863 0
-862 -864 0
-862 -865 0
-862 -866 0
-862 -867 0
-863 -864 0
-863 -865 0
-863 -866 0
-863 -867 0
-864 -865 0
-864 -866 0
-864 -867 0
-865 -866 0
-865 -867 0
-866 -867 0
868 869 870 871 872 873 0
-868 -869 0
-868 -870 0
-868 -871 0
-868 -872 0
-868 -873 0
-869 -870 0
-869 -871 0
-869 -872 0
-869 -873 0
-870 -871 0
-870 -872 0
-870 -873 0
-871 -872 0
-871 -873 0
-872 -873 0
874 875 876 877 878 879 0
-874 -875 0
-874 -876 0
-874 -877 0
-874 -878 0
-874 -879 0
-875 -876 0
-875 -877 0
-875 -878 0
-875 -879 0
-876 -877 0
-876 -878 0
-876 -879 0
-877 -878 0
-877 -879 0
-878 -879 0
880 881 882 883 884 885 0
-880 -881 0
-880 -882 0
-880 -883 0
-880 -884 0
-880 -885 0
-881 -882 0
-881 -883 0
-881 -884 0
-881 -885 0
-882 -883 0
-882 -884 0
-882 -885 0
-883 -884 0
-883 -885 0
-884 -885 0
886 887 888 889 890 891 0
-886 -887 0
-886 -888 0
-886 -889 0
-886 -890 0
-886 -891 0
-887 -888 0
-887 -889 0
-887 -890 0
-887 -891 0
-888 -889 0
-888 -890 0
-888 -891 0
-889 -890 0
-889 -891 0
-890 -891 0
892 893 894 895 896 897 0
-892 -893 0
-892 -894 0
-892 -895 0
-892 -896 0
-892 -897 0
-893 -894 0
-893 -895 0
-893 -896 0
-893 -897 0
-894 -895 0
-894 -896 0
-894 -897 0
-895 -896 0
-895 -897 0
-896 -897 0
898 899 900 901 902 903 0
-898 -899 0
-898 -900 0
-898 -901 0
-898 -902 0
-898 -903 0
-899 -900 0
-899 -901 0
-899 -902 0
-899 -903 0
-900 -901 0
-900 -902 0
-900 -903 0
-901 -902 0
-901 -903 0
-902 -903 0
904 905 906 907 908 909 910 911 912 0
-904 -905 0
-904 -906 0
-904 -907 0
-904 -908 0
-904 -909 0
-904 -910 0
-904 -911 0
-904 -912 0
-905 -906 0
-905 -907 0
-905 -908 0
-905 -909 0
-905 -910 0
-905 -911 0
-905 -912 0
-906 -907 0
-906 -908 0
-906 -909 0
-906 -910 0
-906 -911 0
-906 -912 0
-907 -908 0
-907 -909 0
-907 -910 0
-907 -911 0
-907 -912 0
-908 -909 0
-908 -910 0
-908 -911 0
-908 -912 0
-909 -910 0
-909 -911 0
-909 -912 0
-910 -911 0
-910 -912 0
-911 -912 0
913 914 915 916 917 918 0
-913 -914 0
-913 -915 0
-913 -916 0
-913 -917 0
-913 -918 0
-914 -915 0
-914 -916 0
-914 -917 0
-914 -918 0
-915 -916 0
-915 -917 0
-915 -918 0
-916 -917 0
-916 -918 0
-917 -918 0
919 920 921 922 923 924 925 0
-919 -920 0
-919 -921 0
-919 -922 0
-919 -923 0
-919 -924 0
-919 -925 0
-920 -921 0
-920 -922 0
-920 -923 0
-920 -924 0
-920 -925 0
-921 -922 0
-921 -923 0
-921 -924 0
-921 -925 0
-922 -923 0
-922 -924 0
-922 -925 0
-923 -924 0
-923 -925 0
-924 -925 0
926 927 928 929 930 931 0
-926 -927 0
-926 -928 0
-926 -929 0
-926 -930 0
-926 -931 0
-927 -928 0
-927 -929 0
-927 -930 0
-927 -931 0
-928 -929 0
-928 -930 0
-928 -931 0
-929 -930 0
-929 -931 0
-930 -931 0
932 933 934 935 936 937 0
-932 -933 0
-932 -934 0
-932 -935 0
-932 -936 0
-932 -937 0
-933 -934 0
-933 -935 0
-933 -936 0
-933 -937 0
-934 -935 0
-934 -936 0
-934 -937 0
-935 -936 0
-935 -937 0
-936 -937 0
938 939 940 941 942 943 944 945 946 0
-938 -939 0
-938 -940 0
-938 -941 0
-938 -942 0
-938 -943 0
-938 -944 0
-938 -945 0
-938 -946 0
-939 -940 0
-939 -941 0
-939 -942 0
-939 -943 0
-939 -944 0
-939 -945 0
-939 -946 0
-940 -941 0
-940 -942 0
-940 -943 0
-940 -944 0
-940 -945 0
-940 -946 0
-941 -942 0
-941 -943 0
-941 -944 0
-941 -945 0
-941 -946 0
-942 -943 0
-942 -944 0
-942 -945 0
-942 -946 0
-943 -944 0
-943 -945 0
-943 -946 0
-944 -945 0
-944 -946 0
-945 -946 0
947 948 949 950 951 952 953 0
-947 -948 0
-947 -949 0
-947 -950 0
-947 -951 0
-947 -952 0
-947 -953 0
-948 -949 0
-948 -950 0
-948 -951 0
-948 -952 0
-948 -953 0
-949 -950 0
-949 -951 0
-949 -952 0
-949 -953 0
-950 -951 0
-950 -952 0
-950 -953 0
-951 -952 0
-951 -953 0
-952 -953 0
954 955 956 957 958 959 0
-954 -955 0
-954 -956 0
-954 -957 0
-954 -958 0
-954 -959 0
-955 -956 0
-955 -957 0
-955 -958 0
-955 -959 0
-956 -957 0
-956 -958 0
-956 -959 0
-957 -958 0
-957 -959 0
-958 -959 0
960 961 962 963 964 965 966 967 968 0
-960 -961 0
-960 -962 0
-960 -963 0
-960 -964 0
-960 -965 0
-960 -966 0
-960 -967 0
-960 -968 0
-961 -962 0
-961 -963 0
-961 -964 0
-961 -965 0
-961 -966 0
-961 -967 0
-961 -968 0
-962 -963 0
-962 -964 0
-962 -965 0
-962 -966 0
-962 -967 0
-962 -968 0
-963 -964 0
-963 -965 0
-963 -966 0
-963 -967 0
-963 -968 0
-964 -965 0
-964 -966 0
-964 -967 0
-964 -968 0
-965 -966 0
-965 -967 0
-965 -968 0
-966 -967 0
-966 -968 0
-967 -968 0
969 970 971 972 973 974 975 0
-969 -970 0
-969 -971 0
-969 -972 0
-969 -973 0
-969 -974 0
-969 -975 0
-970 -971 0
-970 -972 0
-970 -973 0
-970 -974 0
-970 -975 0
-971 -972 0
-971 -973 0
-971 -974 0
-971 -975 0
-972 -973 0
-972 -974 0
-972 -975 0
-973 -974 0
-973 -975 0
-974 -975 0
976 977 978 979 980 981 0
-976 -977 0
-976 -978 0
-976 -979 0
-976 -980 0
-976 -981 0
-977 -978 0
-977 -979 0
-977 -980 0
-977 -981 0
-978 -979 0
-978 -980 0
-978 -981 0
-979 -980 0
-979 -981 0
-980 -981 0
982 983 984 985 986 987 988 0
-982 -983 0
-982 -984 0
-982 -985 0
-982 -986 0
-982 -987 0
-982 -988 0
-983 -984 0
-983 -985 0
-983 -986 0
-983 -987 0
-983 -988 0
-984 -985 0
-984 -986 0
-984 -987 0
-984 -988 0
-985 -986 0
-985 -987 0
-985 -988 0
-986 -987 0
-986 -988 0
-987 -988 0
989 990 991 992 993 994 0
-989 -990 0
-989 -991 0
-989 -992 0
-989 -993 0
-989 -994 0
-990 -991 0
-990 -992 0
-990 -993 0
-990 -994 0
-991 -992 0
-991 -993 0
-991 -994 0
-992 -993 0
-992 -994 0
-993 -994 0
995 996 997 998 999 1000 0
-995 -996 0
-995 -997 0
-995 -998 0
-995 -999 0
-995 -1000 0
-996 -997 0
-996 -998 0
-996 -999 0
-996 -1000 0
-997 -998 0
-997 -999 0
-997 -1000 0
-998 -999 0
-998 -1000 0
-999 -1000 0
1001 1002 1003 1004 1005 1006 0
-1001 -1002 0
-1001 -1003 0
-1001 -1004 0
-1001 -1005 0
-1001 -1006 0
-1002 -1003 0
-1002 -1004 0
-1002 -1005 0
-1002 -1006 0
-1003 -1004 0
-1003 -1005 0
-1003 -1006 0
-1004 -1005 0
-1004 -1006 0
-1005 -1006 0
1007 1008 1009 1010 1011 1012 0
-1007 -1008 0
-1007 -1009 0
-1007 -1010 0
-1007 -1011 0
-1007 -1012 0
-1008 -1009 0
-1008 -1010 0
-1008 -1011 0
-1008 -1012 0
-1009 -1010 0
-1009 -1011 0
-1009 -1012 0
-1010 -1011 0
-1010 -1012 0
-1011 -1012 0
1013 1014 1015 1016 1017 1018 0
-1013 -1014 0
-1013 -1015 0
-1013 -1016 0
-1013 -1017 0
-1013 -1018 0
-1014 -1015 0
-1014 -1016 0
-1014 -1017 0
-1014 -1018 0
-1015 -1016 0
-1015 -1017 0
-1015 -1018 0
-1016 -1017 0
-1016 -1018 0
-1017 -1018 0
1019 1020 1021 1022 1023 1024 0
-1019 -1020 0
-1019 -1021 0
-1019 -1022 0
-1019 -1023 0
-1019 -1024 0
-1020 -1021 0
-1020 -1022 0
-1020 -1023 0
-1020 -1024 0
-1021 -1022 0
-1021 -1023 0
-1021 -1024 0
-1022 -1023 0
-1022 -1024 0
-1023 -1024 0
1025 1026 1027 1028 1029 1030 1031 1032 1033 0
-1025 -1026 0
-1025 -1027 0
-1025 -1028 0
-1025 -1029 0
-1025 -1030 0
-1025 -1031 0
-1025 -1032 0
-1025 -1033 0
-1026 -1027 0
-1026 -1028 0
-1026 -1029 0
-1026 -1030 0
-1026 -1031 0
-1026 -1032 0
-1026 -1033 0
-1027 -1028 0
-1027 -1029 0
-1027 -1030 0
-1027 -1031 0
-1027 -1032 0
-1027 -1033 0
-1028 -1029 0
-1028 -1030 0
-1028 -1031 0
-1028 -1032 0
-1028 -1033 0
-1029 -1030 0
-1029 -1031 0
-1029 -1032 0
-1029 -1033 0
-1030 -1031 0
-1030 -1032 0
-1030 -1033 0
-1031 -1032 0
-1031 -1033 0
-1032 -1033 0
1034 1035 1036 1037 1038 1039 0
-1034 -1035 0
-1034 -1036 0
-1034 -1037 0
-1034 -1038 0
-1034 -1039 0
-1035 -1036 0
-1035 -1037 0
-1035 -1038 0
-1035 -1039 0
-1036 -1037 0
-1036 -1038 0
-1036 -1039 0
-1037 -1038 0
-1037 -1039 0
-1038 -1039 0
1040 1041 1042 1043 1044 1045 0
-1040 -1041 0
-1040 -1042 0
-1040 -1043 0
-1040 -1044 0
-1040 -1045 0
-1041 -1042 0
-1041 -1043 0
-1041 -1044 0
-1041 -1045 0
-1042 -1043 0
-1042 -1044 0
-1042 -1045 0
-1043 -1044 0
-1043 -1045 0
-1044 -1045 0
1046 1047 1048 1049 1050 1051 0
-1046 -1047 0
-1046 -1048 0
-1046 -1049 0
-1046 -1050 0
-1046 -1051 0
-1047 -1048 0
-1047 -1049 0
-1047 -1050 0
-1047 -1051 0
-1048 -1049 0
-1048 -1050 0
-1048 -1051 0
-1049 -1050 0
-1049 -1051 0
-1050 -1051 0
1052 1053 1054 1055 1056 1057 1058 0
-1052 -1053 0
-1052 -1054 0
-1052 -1055 0
-1052 -1056 0
-1052 -1057 0
-1052 -1058 0
-1053 -1054 0
-1053 -1055 0
-1053 -1056 0
-1053 -1057 0
-1053 -1058 0
-1054 -1055 0
-1054 -1056 0
-1054 -1057 0
-1054 -1058 0
-1055 -1056 0
-1055 -1057 0
-1055 -1058 0
-1056 -1057 0
-1056 -1058 0
-1057 -1058 0
1059 1060 1061 1062 1063 1064 1065 1066 1067 0
-1059 -1060 0
-1059 -1061 0
-1059 -1062 0
-1059 -1063 0
-1059 -1064 0
-1059 -1065 0
-1059 -1066 0
-1059 -1067 0
-1060 -1061 0
-1060 -1062 0
-1060 -1063 0
-1060 -1064 0
-1060 -1065 0
-1060 -1066 0
-1060 -1067 0
-1061 -1062 0
-1061 -1063 0
-1061 -1064 0
-1061 -1065 0
-1061 -1066 0
-1061 -1067 0
-1062 -1063 0
-1062 -1064 0
-1062 -1065 0
-1062 -1066 0
-1062 -1067 0
-1063 -1064 0
-1063 -1065 0
-1063 -1066 0
-1063 -1067 0
-1064 -1065 0
-1064 -1066 0
-1064 -1067 0
-1065 -1066 0
-1065 -1067 0
-1066 -1067 0
1068 1069 1070 1071 1072 1073 1074 0
-1068 -1069 0
-1068 -1070 0
-1068 -1071 0
-1068 -1072 0
-1068 -1073 0
-1068 -1074 0
-1069 -1070 0
-1069 -1071 0
-1069 -1072 0
-1069 -1073 0
-1069 -1074 0
-1070 -1071 0
-1070 -1072 0
-1070 -1073 0
-1070 -1074 0
-1071 -1072 0
-1071 -1073 0
-1071 -1074 0
-1072 -1073 0
-1072 -1074 0
-1073 -1074 0
1075 1076 1077 1078 1079 1080 1081 0
-1075 -1076 0
-1075 -1077 0
-1075 -1078 0
-1075 -1079 0
-1075 -1080 0
-1075 -1081 0
-1076 -1077 0
-1076 -1078 0
-1076 -1079 0
-1076 -1080 0
-1076 -1081 0
-1077 -1078 0
-1077 -1079 0
-1077 -1080 0
-1077 -1081 0
-1078 -1079 0
-1078 -1080 0
-1078 -1081 0
-1079 -1080 0
-1079 -1081 0
-1080 -1081 0
1082 1083 1084 1085 1086 1087 1088 0
-1082 -1083 0
-1082 -1084 0
-1082 -1085 0
-1082 -1086 0
-1082 -1087 0
-1082 -1088 0
-1083 -1084 0
-1083 -1085 0
-1083 -1086 0
-1083 -1087 0
-1083 -1088 0
-1084 -1085 0
-1084 -1086 0
-1084 -1087 0
-1084 -1088 0
-1085 -1086 0
-1085 -1087 0
-1085 -1088 0
-1086 -1087 0
-1086 -1088 0
-1087 -1088 0
1089 1090 1091 1092 1093 1094 1095 1096 1097 1098 0
-1089 -1090 0
-1089 -1091 0
-1089 -1092 0
-1089 -1093 0
-1089 -1094 0
-1089 -1095 0
-1089 -1096 0
-1089 -1097 0
-1089 -1098 0
-1090 -1091 0
-1090 -1092 0
-1090 -1093 0
-1090 -1094 0
-1090 -1095 0
-1090 -1096 0
-1090 -1097 0
-1090 -1098 0
-1091 -1092 0
-1091 -1093 0
-1091 -1094 0
-1091 -1095 0
-1091 -1096 0
-1091 -1097 0
-1091 -1098 0
-1092 -1093 0
-1092 -1094 0
-1092 -1095 0
-1092 -1096 0
-1092 -1097 0
-1092 -1098 0
-1093 -1094 0
-1093 -1095 0
-1093 -1096 0
-1093 -1097 0
-1093 -1098 0
-1094 -1095 0
-1094 -1096 0
-1094 -1097 0
-1094 -1098 0
-1095 -1096 0
-1095 -1097 0
-1095 -1098 0
-1096 -1097 0
-1096 -1098 0
-1097 -1098 0
1099 1100 1101 1102 1103 1104 1105 0
-1099 -1100 0
-1099 -1101 0
-1099 -1102 0
-1099 -1103 0
-1099 -1104 0
-1099 -1105 0
-1100 -1101 0
-1100 -1102 0
-1100 -1103 0
-1100 -1104 0
-1100 -1105 0
-1101 -1102 0
-1101 -1103 0
-1101 -1104 0
-1101 -1105 0
-1102 -1103 0
-1102 -1104 0
-1102 -1105 0
-1103 -1104 0
-1103 -1105 0
-1104 -1105 0
1106 1107 1108 1109 1110 1111 1112 0
-1106 -1107 0
-1106 -1108 0
-1106 -1109 0
-1106 -1110 0
-1106 -1111 0
-1106 -1112 0
-1107 -1108 0
-1107 -1109 0
-1107 -1110 0
-1107 -1111 0
-1107 -1112 0
-1108 -1109 0
-1108 -1110 0
-1108 -1111 0
-1108 -1112 0
-1109 -1110 0
-1109 -1111 0
-1109 -1112 0
-1110 -1111 0
-1110 -1112 0
-1111 -1112 0
1113 1114 1115 1116 1117 1118 1119 0
-1113 -1114 0
-1113 -1115 0
-1113 -1116 0
-1113 -1117 0
-1113 -1118 0
-1113 -1119 0
-1114 -1115 0
-1114 -1116 0
-1114 -1117 0
-1114 -1118 0
-1114 -1119 0
-1115 -1116 0
-1115 -1117 0
-1115 -1118 0
-1115 -1119 0
-1116 -1117 0
-1116 -1118 0
-1116 -1119 0
-1117 -1118 0
-1117 -1119 0
-1118 -1119 0
1120 1121 1122 1123 1124 1125 0
-1120 -1121 0
-1120 -1122 0
-1120 -1123 0
-1120 -1124 0
-1120 -1125 0
-1121 -1122 0
-1121 -1123 0
-1121 -1124 0
-1121 -1125 0
-1122 -1123 0
-1122 -1124 0
-1122 -1125 0
-1123 -1124 0
-1123 -1125 0
-1124 -1125 0
1126 1127 1128 1129 1130 1131 1132 0
-1126 -1127 0
-1126 -1128 0
-1126 -1129 0
-1126 -1130 0
-1126 -1131 0
-1126 -1132 0
-1127 -1128 0
-1127 -1129 0
-1127 -1130 0
-1127 -1131 0
-1127 -1132 0
-1128 -1129 0
-1128 -1130 0
-1128 -1131 0
-1128 -1132 0
-1129 -1130 0
-1129 -1131 0
-1129 -1132 0
-1130 -1131 0
-1130 -1132 0
-1131 -1132 0
1133 1134 1135 1136 1137 1138 0
-1133 -1134 0
-1133 -1135 0
-1133 -1136 0
-1133 -1137 0
-1133 -1138 0
-1134 -1135 0
-1134 -1136 0
-1134 -1137 0
-1134 -1138 0
-1135 -1136 0
-1135 -1137 0
-1135 -1138 0
-1136 -1137 0
-1136 -1138 0
-1137 -1138 0
1139 1140 1141 1142 1143 1144 1145 0
-1139 -1140 0
-1139 -1141 0
-1139 -1142 0
-1139 -1143 0
-1139 -1144 0
-1139 -1145 0
-1140 -1141 0
-1140 -1142 0
-1140 -1143 0
-1140 -1144 0
-1140 -1145 0
-1141 -1142 0
-1141 -1143 0
-1141 -1144 0
-1141 -1145 0
-1142 -1143 0
-1142 -1144 0
-1142 -1145 0
-1143 -1144 0
-1143 -1145 0
-1144 -1145 0
1146 1147 1148 1149 1150 1151 0
-1146 -1147 0
-1146 -1148 0
-1146 -1149 0
-1146 -1150 0
-1146 -1151 0
-1147 -1148 0
-1147 -1149 0
-1147 -1150 0
-1147 -1151 0
-1148 -1149 0
-1148 -1150 0
-1148 -1151 0
-1149 -1150 0
-1149 -1151 0
-1150 -1151 0
1152 1153 1154 1155 1156 1157 1158 0
-1152 -1153 0
-1152 -1154 0
-1152 -1155 0
-1152 -1156 0
-1152 -1157 0
-1152 -1158 0
-1153 -1154 0
-1153 -1155 0
-1153 -1156 0
-1153 -1157 0
-1153 -1158 0
-1154 -1155 0
-1154 -1156 0
-1154 -1157 0
-1154 -1158 0
-1155 -1156 0
-1155 -1157 0
-1155 -1158 0
-1156 -1157 0
-1156 -1158 0
-1157 -1158 0
1159 1160 1161 1162 1163 1164 1165 0
-1159 -1160 0
-1159 -1161 0
-1159 -1162 0
-1159 -1163 0
-1159 -1164 0
-1159 -1165 0
-1160 -1161 0
-1160 -1162 0
-1160 -1163 0
-1160 -1164 0
-1160 -1165 0
-1161 -1162 0
-1161 -1163 0
-1161 -1164 0
-1161 -1165 0
-1162 -1163 0
-1162 -1164 0
-1162 -1165 0
-1163 -1164 0
-1163 -1165 0
-1164 -1165 0
1166 1167 1168 1169 1170 1171 0
-1166 -1167 0
-1166 -1168 0
-1166 -1169 0
-1166 -1170 0
-1166 -1171 0
-1167 -1168 0
-1167 -1169 0
-1167 -1170 0
-1167 -1171 0
-1168 -1169 0
-1168 -1170 0
-1168 -1171 0
-1169 -1170 0
-1169 -1171 0
-1170 -1171 0
1172 1173 1174 1175 1176 1177 1178 0
-1172 -1173 0
-1172 -1174 0
-1172 -1175 0
-1172 -1176 0
-1172 -1177 0
-1172 -1178 0
-1173 -1174 0
-1173 -1175 0
-1173 -1176 0
-1173 -1177 0
-1173 -1178 0
-1174 -1175 0
-1174 -1176 0
-1174 -1177 0
-1174 -1178 0
-1175 -1176 0
-1175 -1177 0
-1175 -1178 0
-1176 -1177 0
-1176 -1178 0
-1177 -1178 0
1179 1180 1181 1182 1183 1184 0
-1179 -1180 0
-1179 -1181 0
-1179 -1182 0
-1179 -1183 0
-1179 -1184 0
-1180 -1181 0
-1180 -1182 0
-1180 -1183 0
-1180 -1184 0
-1181 -1182 0
-1181 -1183 0
-1181 -1184 0
-1182 -1183 0
-1182 -1184 0
-1183 -1184 0
1185 1186 1187 1188 1189 1190 1191 0
-1185 -1186 0
-1185 -1187 0
-1185 -1188 0
-1185 -1189 0
-1185 -1190 0
-1185 -1191 0
-1186 -1187 0
-1186 -1188 0
-1186 -1189 0
-1186 -1190 0
-1186 -1191 0
-1187 -1188 0
-1187 -1189 0
-1187 -1190 0
-1187 -1191 0
-1188 -1189 0
-1188 -1190 0
-1188 -1191 0
-1189 -1190 0
-1189 -1191 0
-1190 -1191 0
1192 1193 1194 1195 1196 1197 1198 0
-1192 -1193 0
-1192 -1194 0
-1192 -1195 0
-1192 -1196 0
-1192 -1197 0
-1192 -1198 0
-1193 -1194 0
-1193 -1195 0
-1193 -1196 0
-1193 -1197 0
-1193 -1198 0
-1194 -1195 0
-1194 -1196 0
-1194 -1197 0
-1194 -1198 0
-1195 -1196 0
-1195 -1197 0
-1195 -1198 0
-1196 -1197 0
-1196 -1198 0
-1197 -1198 0
1199 1200 1201 1202 1203 1204 0
-1199 -1200 0
-1199 -1201 0
-1199 -1202 0
-1199 -1203 0
-1199 -1204 0
-1200 -1201 0
-1200 -1202 0
-1200 -1203 0
-1200 -1204 0
-1201 -1202 0
-1201 -1203 0
-1201 -1204 0
-1202 -1203 0
-1202 -1204 0
-1203 -1204 0
1205 1206 1207 1208 1209 1210 1211 0
-1205 -1206 0
-1205 -1207 0
-1205 -1208 0
-1205 -1209 0
-1205 -1210 0
-1205 -1211 0
-1206 -1207 0
-1206 -1208 0
-1206 -1209 0
-1206 -1210 0
-1206 -1211 0
-1207 -1208 0
-1207 -1209 0
-1207 -1210 0
-1207 -1211 0
-1208 -1209 0
-1208 -1210 0
-1208 -1211 0
-1209 -1210 0
-1209 -1211 0
-1210 -1211 0
1212 1213 1214 1215 1216 1217 1218 0
-1212 -1213 0
-1212 -1214 0
-1212 -1215 0
-1212 -1216 0
-1212 -1217 0
-1212 -1218 0
-1213 -1214 0
-1213 -1215 0
-1213 -1216 0
-1213 -1217 0
-1213 -1218 0
-1214 -1215 0
-1214 -1216 0
-1214 -1217 0
-1214 -1218 0
-1215 -1216 0
-1215 -1217 0
-1215 -1218 0
-1216 -1217 0
-1216 -1218 0
-1217 -1218 0
1219 0
1220 1221 1222 1223 1224 1225 1226 1227 1228 0
-1220 -1221 0
-1220 -1222 0
-1220 -1223 0
-1220 -1224 0
-1220 -1225 0
-1220 -1226 0
-1220 -1227 0
-1220 -1228 0
-1221 -1222 0
-1221 -1223 0
-1221 -1224 0
-1221 -1225 0
-1221 -1226 0
-1221 -1227 0
-1221 -1228 0
-1222 -1223 0
-1222 -1224 0
-1222 -1225 0
-1222 -1226 0
-1222 -1227 0
-1222 -1228 0
-1223 -1224 0
-1223 -1225 0
-1223 -1226 0
-1223 -1227 0
-1223 -1228 0
-1224 -1225 0
-1224 -1226 0
-1224 -1227 0
-1224 -1228 0
-1225 -1226 0
-1225 -1227 0
-1225 -1228 0
-1226 -1227 0
-1226 -1228 0
-1227 -1228 0
1229 1230 1231 1232 1233 1234 0
-1229 -1230 0
-1229 -1231 0
-1229 -1232 0
-1229 -1233 0
-1229 -1234 0
-1230 -1231 0
-1230 -1232 0
-1230 -1233 0
-1230 -1234 0
-1231 -1232 0
-1231 -1233 0
-1231 -1234 0
-1232 -1233 0
-1232 -1234 0
-1233 -1234 0
1235 1236 1237 1238 1239 1240 0
-1235 -1236 0
-1235 -1237 0
-1235 -1238 0
-1235 -1239 0
-1235 -1240 0
-1236 -1237 0
-1236 -1238 0
-1236 -1239 0
-1236 -1240 0
-1237 -1238 0
-1237 -1239 0
-1237 -1240 0
-1238 -1239 0
-1238 -1240 0
-1239 -1240 0
1241 1242 1243 1244 1245 1246 0
-1241 -1242 0
-1241 -1243 0
-1241 -1244 0
-1241 -1245 0
-1241 -1246 0
-1242 -1243 0
-1242 -1244 0
-1242 -1245 0
-1242 -1246 0
-1243 -1244 0
-1243 -1245 0
-1243 -1246 0
-1244 -1245 0
-1244 -1246 0
-1245 -1246 0
1247 1248 1249 1250 1251 1252 1253 0
-1247 -1248 0
-1247 -1249 0
-1247 -1250 0
-1247 -1251 0
-1247 -1252 0
-1247 -1253 0
-1248 -1249 0
-1248 -1250 0
-1248 -1251 0
-1248 -1252 0
-1248 -1253 0
-1249 -1250 0
-1249 -1251 0
-1249 -1252 0
-1249 -1253 0
-1250 -1251 0
-1250 -1252 0
-1250 -1253 0
-1251 -1252 0
-1251 -1253 0
-1252 -1253 0
1254 1255 1256 1257 1258 1259 0
-1254 -1255 0
-1254 -1256 0
-1254 -1257 0
-1254 -1258 0
-1254 -1259 0
-1255 -1256 0
-1255 -1257 0
-1255 -1258 0
-1255 -1259 0
-1256 -1257 0
-1256 -1258 0
-1256 -1259 0
-1257 -1258 0
-1257 -1259 0
-1258 -1259 0
1260 1261 1262 1263 1264 1265 0
-1260 -1261 0
-1260 -1262 0
-1260 -1263 0
-1260 -1264 0
-1260 -1265 0
-1261 -1262 0
-1261 -1263 0
-1261 -1264 0
-1261 -1265 0
-1262 -1263 0
-1262 -1264 0
-1262 -1265 0
-1263 -1264 0
-1263 -1265 0
-1264 -1265 0
1266 1267 1268 1269 1270 1271 1272 0
-1266 -1267 0
-1266 -1268 0
-1266 -1269 0
-1266 -1270 0
-1266 -1271 0
-1266 -1272 0
-1267 -1268 0
-1267 -1269 0
-1267 -1270 0
-1267 -1271 0
-1267 -1272 0
-1268 -1269 0
-1268 -1270 0
-1268 -1271 0
-1268 -1272 0
-1269 -1270 0
-1269 -1271 0
-1269 -1272 0
-1270 -1271 0
-1270 -1272 0
-1271 -1272 0
1273 1274 1275 1276 1277 1278 0
-1273 -1274 0
-1273 -1275 0
-1273 -1276 0
-1273 -1277 0
-1273 -1278 0
-1274 -1275 0
-1274 -1276 0
-1274 -1277 0
-1274 -1278 0
-1275 -1276 0
-1275 -1277 0
-1275 -1278 0
-1276 -1277 0
-1276 -1278 0
-1277 -1278 0
1279 1280 1281 1282 1283 1284 1285 0
-1279 -1280 0
-1279 -1281 0
-1279 -1282 0
-1279 -1283 0
-1279 -1284 0
-1279 -1285 0
-1280 -1281 0
-1280 -1282 0
-1280 -1283 0
-1280 -1284 0
-1280 -1285 0
-1281 -1282 0
-1281 -1283 0
-1281 -1284 0
-1281 -1285 0
-1282 -1283 0
-1282 -1284 0
-1282 -1285 0
-1283 -1284 0
-1283 -1285 0
-1284 -1285 0
1286 1287 1288 1289 1290 1291 1292 0
-1286 -1287 0
-1286 -1288 0
-1286 -1289 0
-1286 -1290 0
-1286 -1291 0
-1286 -1292 0
-1287 -1288 0
-1287 -1289 0
-1287 -1290 0
-1287 -1291 0
-1287 -1292 0
-1288 -1289 0
-1288 -1290 0
-1288 -1291 0
-1288 -1292 0
-1289 -1290 0
-1289 -1291 0
-1289 -1292 0
-1290 -1291 0
-1290 -1292 0
-1291 -1292 0
1293 1294 1295 1296 1297 1298 1299 0
-1293 -1294 0
-1293 -1295 0
-1293 -1296 0
-1293 -1297 0
-1293 -1298 0
-1293 -1299 0
-1294 -1295 0
-1294 -1296 0
-1294 -1297 0
-1294 -1298 0
-1294 -1299 0
-1295 -1296 0
-1295 -1297 0
-1295 -1298 0
-1295 -1299 0
-1296 -1297 0
-1296 -1298 0
-1296 -1299 0
-1297 -1298 0
-1297 -1299 0
-1298 -1299 0
1300 1301 1302 1303 1304 1305 1306 0
-1300 -1301 0
-1300 -1302 0
-1300 -1303 0
-1300 -1304 0
-1300 -1305 0
-1300 -1306 0
-1301 -1302 0
-1301 -1303 0
-1301 -1304 0
-1301 -1305 0
-1301 -1306 0
-1302 -1303 0
-1302 -1304 0
-1302 -1305 0
-1302 -1306 0
-1303 -1304 0
-1303 -1305 0
-1303 -1306 0
-1304 -1305 0
-1304 -1306 0
-1305 -1306 0
1307 1308 1309 1310 1311 1312 1313 0
-1307 -1308 0
-1307 -1309 0
-1307 -1310 0
-1307 -1311 0
-1307 -1312 0
-1307 -1313 0
-1308 -1309 0
-1308 -1310 0
-1308 -1311 0
-1308 -1312 0
-1308 -1313 0
-1309 -1310 0
-1309 -1311 0
-1309 -1312 0
-1309 -1313 0
-1310 -1311 0
-1310 -1312 0
-1310 -1313 0
-1311 -1312 0
-1311 -1313 0
-1312 -1313 0
1314 1315 1316 1317 1318 1319 1320 0
-1314 -1315 0
-1314 -1316 0
-1314 -1317 0
-1314 -1318 0
-1314 -1319 0
-1314 -1320 0
-1315 -1316 0
-1315 -1317 0
-1315 -1318 0
-1315 -1319 0
-1315 -1320 0
-1316 -1317 0
-1316 -1318 0
-1316 -1319 0
-1316 -1320 0
-1317 -1318 0
-1317 -1319 0
-1317 -1320 0
-1318 -1319 0
-1318 -1320 0
-1319 -1320 0
1321 1322 1323 1324 1325 1326 1327 0
-1321 -1322 0
-1321 -1323 0
-1321 -1324 0
-1321 -1325 0
-1321 -1326 0
-1321 -1327 0
-1322 -1323 0
-1322 -1324 0
-1322 -1325 0
-1322 -1326 0
-1322 -1327 0
-1323 -1324 0
-1323 -1325 0
-1323 -1326 0
-1323 -1327 0
-1324 -1325 0
-1324 -1326 0
-1324 -1327 0
-1325 -1326 0
-1325 -1327 0
-1326 -1327 0
1328 1329 1330 1331 1332 1333 0
-1328 -1329 0
-1328 -1330 0
-1328 -1331 0
-1328 -1332 0
-1328 -1333 0
-1329 -1330 0
-1329 -1331 0
-1329 -1332 0
-1329 -1333 0
-1330 -1331 0
-1330 -1332 0
-1330 -1333 0
-1331 -1332 0
-1331 -1333 0
-1332 -1333 0
1334 1335 1336 1337 1338 1339 1340 0
-1334 -1335 0
-1334 -1336 0
-1334 -1337 0
-1334 -1338 0
-1334 -1339 0
-1334 -1340 0
-1335 -1336 0
-1335 -1337 0
-1335 -1338 0
-1335 -1339 0
-1335 -1340 0
-1336 -1337 0
-1336 -1338 0
-1336 -1339 0
-1336 -1340 0
-1337 -1338 0
-1337 -1339 0
-1337 -1340 0
-1338 -1339 0
-1338 -1340 0
-1339 -1340 0
1341 1342 1343 1344 1345 1346 0
-1341 -1342 0
-1341 -1343 0
-1341 -1344 0
-1341 -1345 0
-1341 -1346 0
-1342 -1343 0
-1342 -1344 0
-1342 -1345 0
-1342 -1346 0
-1343 -1344 0
-1343 -1345 0
-1343 -1346 0
-1344 -1345 0
-1344 -1346 0
-1345 -1346 0
1347 1348 1349 1350 1351 1352 1353 0
-1347 -1348 0
-1347 -1349 0
-1347 -1350 0
-1347 -1351 0
-1347 -1352 0
-1347 -1353 0
-1348 -1349 0
-1348 -1350 0
-1348 -1351 0
-1348 -1352 0
-1348 -1353 0
-1349 -1350 0
-1349 -1351 0
-1349 -1352 0
-1349 -1353 0
-1350 -1351 0
-1350 -1352 0
-1350 -1353 0
-1351 -1352 0
-1351 -1353 0
-1352 -1353 0
1354 1355 1356 1357 1358 1359 1360 1361 1362 0
-1354 -1355 0
-1354 -1356 0
-1354 -1357 0
-1354 -1358 0
-1354 -1359 0
-1354 -1360 0
-1354 -1361 0
-1354 -1362 0
-1355 -1356 0
-1355 -1357 0
-1355 -1358 0
-1355 -1359 0
-1355 -1360 0
-1355 -1361 0
-1355 -1362 0
-1356 -1357 0
-1356 -1358 0
-1356 -1359 0
-1356 -1360 0
-1356 -1361 0
-1356 -1362 0
-1357 -1358 0
-1357 -1359 0
-1357 -1360 0
-1357 -1361 0
-1357 -1362 0
-1358 -1359 0
-1358 -1360 0
-1358 -1361 0
-1358 -1362 0
-1359 -1360 0
-1359 -1361 0
-1359 -1362 0
-1360 -1361 0
-1360 -1362 0
-1361 -1362 0
1363 1364 1365 1366 1367 1368 1369 0
-1363 -1364 0
-1363 -1365 0
-1363 -1366 0
-1363 -1367 0
-1363 -1368 0
-1363 -1369 0
-1364 -1365 0
-1364 -1366 0
-1364 -1367 0
-1364 -1368 0
-1364 -1369 0
-1365 -1366 0
-1365 -1367 0
-1365 -1368 0
-1365 -1369 0
-1366 -1367 0
-1366 -1368 0
-1366 -1369 0
-1367 -1368 0
-1367 -1369 0
-1368 -1369 0
1370 1371 1372 1373 1374 1375 1376 0
-1370 -1371 0
-1370 -1372 0
-1370 -1373 0
-1370 -1374 0
-1370 -1375 0
-1370 -1376 0
-1371 -1372 0
-1371 -1373 0
-1371 -1374 0
-1371 -1375 0
-1371 -1376 0
-1372 -1373 0
-1372 -1374 0
-1372 -1375 0
-1372 -1376 0
-1373 -1374 0
-1373 -1375 0
-1373 -1376 0
-1374 -1375 0
-1374 -1376 0
-1375 -1376 0
1377 1378 1379 1380 1381 1382 0
-1377 -1378 0
-1377 -1379 0
-1377 -1380 0
-1377 -1381 0
-1377 -1382 0
-1378 -1379 0
-1378 -1380 0
-1378 -1381 0
-1378 -1382 0
-1379 -1380 0
-1379 -1381 0
-1379 -1382 0
-1380 -1381 0
-1380 -1382 0
-1381 -1382 0
1383 1384 1385 1386 1387 1388 1389 0
-1383 -1384 0
-1383 -1385 0
-1383 -1386 0
-1383 -1387 0
-1383 -1388 0
-1383 -1389 0
-1384 -1385 0
-1384 -1386 0
-1384 -1387 0
-1384 -1388 0
-1384 -1389 0
-1385 -1386 0
-1385 -1387 0
-1385 -1388 0
-1385 -1389 0
-1386 -1387 0
-1386 -1388 0
-1386 -1389 0
-1387 -1388 0
-1387 -1389 0
-1388 -1389 0
1390 1391 1392 1393 1394 1395 1396 0
-1390 -1391 0
-1390 -1392 0
-1390 -1393 0
-1390 -1394 0
-1390 -1395 0
-1390 -1396 0
-1391 -1392 0
-1391 -1393 0
-1391 -1394 0
-1391 -1395 0
-1391 -1396 0
-1392 -1393 0
-1392 -1394 0
-1392 -1395 0
-1392 -1396 0
-1393 -1394 0
-1393 -1395 0
-1393 -1396 0
-1394 -1395 0
-1394 -1396 0
-1395 -1396 0
1397 1398 1399 1400 1401 1402 1403 0
-1397 -1398 0
-1397 -1399 0
-1397 -1400 0
-1397 -1401 0
-1397 -1402 0
-1397 -1403 0
-1398 -1399 0
-1398 -1400 0
-1398 -1401 0
-1398 -1402 0
-1398 -1403 0
-1399 -1400 0
-1399 -1401 0
-1399 -1402 0
-1399 -1403 0
-1400 -1401 0
-1400 -1402 0
-1400 -1403 0
-1401 -1402 0
-1401 -1403 0
-1402 -1403 0
1404 1405 1406 1407 1408 1409 0
-1404 -1405 0
-1404 -1406 0
-1404 -1407 0
-1404 -1408 0
-1404 -1409 0
-1405 -1406 0
-1405 -1407 0
-1405 -1408 0
-1405 -1409 0
-1406 -1407 0
-1406 -1408 0
-1406 -1409 0
-1407 -1408 0
-1407 -1409 0
-1408 -1409 0
1410 1411 1412 1413 1414 1415 0
-1410 -1411 0
-1410 -1412 0
-1410 -1413 0
-1410 -1414 0
-1410 -1415 0
-1411 -1412 0
-1411 -1413 0
-1411 -1414 0
-1411 -1415 0
-1412 -1413 0
-1412 -1414 0
-1412 -1415 0
-1413 -1414 0
-1413 -1415 0
-1414 -1415 0
1416 1417 1418 1419 1420 1421 0
-1416 -1417 0
-1416 -1418 0
-1416 -1419 0
-1416 -1420 0
-1416 -1421 0
-1417 -1418 0
-1417 -1419 0
-1417 -1420 0
-1417 -1421 0
-1418 -1419 0
-1418 -1420 0
-1418 -1421 0
-1419 -1420 0
-1419 -1421 0
-1420 -1421 0
1422 1423 1424 1425 1426 1427 1428 0
-1422 -1423 0
-1422 -1424 0
-1422 -1425 0
-1422 -1426 0
-1422 -1427 0
-1422 -1428 0
-1423 -1424 0
-1423 -1425 0
-1423 -1426 0
-1423 -1427 0
-1423 -1428 0
-1424 -1425 0
-1424 -1426 0
-1424 -1427 0
-1424 -1428 0
-1425 -1426 0
-1425 -1427 0
-1425 -1428 0
-1426 -1427 0
-1426 -1428 0
-1427 -1428 0
1429 1430 1431 1432 1433 1434 0
-1429 -1430 0
-1429 -1431 0
-1429 -1432 0
-1429 -1433 0
-1429 -1434 0
-1430 -1431 0
-1430 -1432 0
-1430 -1433 0
-1430 -1434 0
-1431 -1432 0
-1431 -1433 0
-1431 -1434 0
-1432 -1433 0
-1432 -1434 0
-1433 -1434 0
1435 1436 1437 1438 1439 1440 0
-1435 -1436 0
-1435 -1437 0
-1435 -1438 0
-1435 -1439 0
-1435 -1440 0
-1436 -1437 0
-1436 -1438 0
-1436 -1439 0
-1436 -1440 0
-1437 -1438 0
-1437 -1439 0
-1437 -1440 0
-1438 -1439 0
-1438 -1440 0
-1439 -1440 0
1441 0
1442 1443 1444 1445 1446 1447 1448 0
-1442 -1443 0
-1442 -1444 0
-1442 -1445 0
-1442 -1446 0
-1442 -1447 0
-1442 -1448 0
-1443 -1444 0
-1443 -1445 0
-1443 -1446 0
-1443 -1447 0
-1443 -1448 0
-1444 -1445 0
-1444 -1446 0
-1444 -1447 0
-1444 -1448 0
-1445 -1446 0
-1445 -1447 0
-1445 -1448 0
-1446 -1447 0
-1446 -1448 0
-1447 -1448 0
1449 1450 1451 1452 1453 1454 1455 0
-1449 -1450 0
-1449 -1451 0
-1449 -1452 0
-1449 -1453 0
-1449 -1454 0
-1449 -1455 0
-1450 -1451 0
-1450 -1452 0
-1450 -1453 0
-1450 -1454 0
-1450 -1455 0
-1451 -1452 0
-1451 -1453 0
-1451 -1454 0
-1451 -1455 0
-1452 -1453 0
-1452 -1454 0
-1452 -1455 0
-1453 -1454 0
-1453 -1455 0
-1454 -1455 0
1456 0
1457 1458 1459 1460 1461 1462 1463 0
-1457 -1458 0
-1457 -1459 0
-1457 -1460 0
-1457 -1461 0
-1457 -1462 0
-1457 -1463 0
-1458 -1459 0
-1458 -1460 0
-1458 -1461 0
-1458 -1462 0
-1458 -1463 0
-1459 -1460 0
-1459 -1461 0
-1459 -1462 0
-1459 -1463 0
-1460 -1461 0
-1460 -1462 0
-1460 -1463 0
-1461 -1462 0
-1461 -1463 0
-1462 -1463 0
1464 1465 1466 1467 1468 1469 1470 0
-1464 -1465 0
-1464 -1466 0
-1464 -1467 0
-1464 -1468 0
-1464 -1469 0
-1464 -1470 0
-1465 -1466 0
-1465 -1467 0
-1465 -1468 0
-1465 -1469 0
-1465 -1470 0
-1466 -1467 0
-1466 -1468 0
-1466 -1469 0
-1466 -1470 0
-1467 -1468 0
-1467 -1469 0
-1467 -1470 0
-1468 -1469 0
-1468 -1470 0
-1469 -1470 0
1471 1472 1473 1474 1475 1476 1477 1478 1479 0
-1471 -1472 0
-1471 -1473 0
-1471 -1474 0
-1471 -1475 0
-1471 -1476 0
-1471 -1477 0
-1471 -1478 0
-1471 -1479 0
-1472 -1473 0
-1472 -1474 0
-1472 -1475 0
-1472 -1476 0
-1472 -1477 0
-1472 -1478 0
-1472 -1479 0
-1473 -1474 0
-1473 -1475 0
-1473 -1476 0
-1473 -1477 0
-1473 -1478 0
-1473 -1479 0
-1474 -1475 0
-1474 -1476 0
-1474 -1477 0
-1474 -1478 0
-1474 -1479 0
-1475 -1476 0
-1475 -1477 0
-1475 -1478 0
-1475 -1479 0
-1476 -1477 0
-1476 -1478 0
-1476 -1479 0
-1477 -1478 0
-1477 -1479 0
-1478 -1479 0
1480 1481 1482 1483 1484 1485 1486 0
-1480 -1481 0
-1480 -1482 0
-1480 -1483 0
-1480 -1484 0
-1480 -1485 0
-1480 -1486 0
-1481 -1482 0
-1481 -1483 0
-1481 -1484 0
-1481 -1485 0
-1481 -1486 0
-1482 -1483 0
-1482 -1484 0
-1482 -1485 0
-1482 -1486 0
-1483 -1484 0
-1483 -1485 0
-1483 -1486 0
-1484 -1485 0
-1484 -1486 0
-1485 -1486 0
1487 1488 1489 1490 1491 1492 0
-1487 -1488 0
-1487 -1489 0
-1487 -1490 0
-1487 -1491 0
-1487 -1492 0
-1488 -1489 0
-1488 -1490 0
-1488 -1491 0
-1488 -1492 0
-1489 -1490 0
-1489 -1491 0
-1489 -1492 0
-1490 -1491 0
-1490 -1492 0
-1491 -1492 0
1493 1494 1495 1496 1497 1498 0
-1493 -1494 0
-1493 -1495 0
-1493 -1496 0
-1493 -1497 0
-1493 -1498 0
-1494 -1495 0
-1494 -1496 0
-1494 -1497 0
-1494 -1498 0
-1495 -1496 0
-1495 -1497 0
-1495 -1498 0
-1496 -1497 0
-1496 -1498 0
-1497 -1498 0
1499 1500 1501 1502 1503 1504 1505 1506 1507 0
-1499 -1500 0
-1499 -1501 0
-1499 -1502 0
-1499 -1503 0
-1499 -1504 0
-1499 -1505 0
-1499 -1506 0
-1499 -1507 0
-1500 -1501 0
-1500 -1502 0
-1500 -1503 0
-1500 -1504 0
-1500 -1505 0
-1500 -1506 0
-1500 -1507 0
-1501 -1502 0
-1501 -1503 0
-1501 -1504 0
-1501 -1505 0
-1501 -1506 0
-1501 -1507 0
-1502 -1503 0
-1502 -1504 0
-1502 -1505 0
-1502 -1506 0
-1502 -1507 0
-1503 -1504 0
-1503 -1505 0
-1503 -1506 0
-1503 -1507 0
-1504 -1505 0
-1504 -1506 0
-1504 -1507 0
-1505 -1506 0
-1505 -1507 0
-1506 -1507 0
1508 1509 1510 1511 1512 1513 1514 0
-1508 -1509 0
-1508 -1510 0
-1508 -1511 0
-1508 -1512 0
-1508 -1513 0
-1508 -1514 0
-1509 -1510 0
-1509 -1511 0
-1509 -1512 0
-1509 -1513 0
-1509 -1514 0
-1510 -1511 0
-1510 -1512 0
-1510 -1513 0
-1510 -1514 0
-1511 -1512 0
-1511 -1513 0
-1511 -1514 0
-1512 -1513 0
-1512 -1514 0
-1513 -1514 0
1515 1516 1517 1518 1519 1520 1521 0
-1515 -1516 0
-1515 -1517 0
-1515 -1518 0
-1515 -1519 0
-1515 -1520 0
-1515 -1521 0
-1516 -1517 0
-1516 -1518 0
-1516 -1519 0
-1516 -1520 0
-1516 -1521 0
-1517 -1518 0
-1517 -1519 0
-1517 -1520 0
-1517 -1521 0
-1518 -1519 0
-1518 -1520 0
-1518 -1521 0
-1519 -1520 0
-1519 -1521 0
-1520 -1521 0
1522 1523 1524 1525 1526 1527 0
-1522 -1523 0
-1522 -1524 0
-1522 -1525 0
-1522 -1526 0
-1522 -1527 0
-1523 -1524 0
-1523 -1525 0
-1523 -1526 0
-1523 -1527 0
-1524 -1525 0
-1524 -1526 0
-1524 -1527 0
-1525 -1526 0
-1525 -1527 0
-1526 -1527 0
1528 1529 1530 1531 1532 1533 1534 0
-1528 -1529 0
-1528 -1530 0
-1528 -1531 0
-1528 -1532 0
-1528 -1533 0
-1528 -1534 0
-1529 -1530 0
-1529 -1531 0
-1529 -1532 0
-1529 -1533 0
-1529 -1534 0
-1530 -1531 0
-1530 -1532 0
-1530 -1533 0
-1530 -1534 0
-1531 -1532 0
-1531 -1533 0
-1531 -1534 0
-1532 -1533 0
-1532 -1534 0
-1533 -1534 0
1535 1536 1537 1538 1539 1540 1541 0
-1535 -1536 0
-1535 -1537 0
-1535 -1538 0
-1535 -1539 0
-1535 -1540 0
-1535 -1541 0
-1536 -1537 0
-1536 -1538 0
-1536 -1539 0
-1536 -1540 0
-1536 -1541 0
-1537 -1538 0
-1537 -1539 0
-1537 -1540 0
-1537 -1541 0
-1538 -1539 0
-1538 -1540 0
-1538 -1541 0
-1539 -1540 0
-1539 -1541 0
-1540 -1541 0
1542 1543 1544 1545 1546 1547 1548 0
-1542 -1543 0
-1542 -1544 0
-1542 -1545 0
-1542 -1546 0
-1542 -1547 0
-1542 -1548 0
-1543 -1544 0
-1543 -1545 0
-1543 -1546 0
-1543 -1547 0
-1543 -1548 0
-1544 -1545 0
-1544 -1546 0
-1544 -1547 0
-1544 -1548 0
-1545 -1546 0
-1545 -1547 0
-1545 -1548 0
-1546 -1547 0
-1546 -1548 0
-1547 -1548 0
1549 1550 1551 1552 1553 1554 0
-1549 -1550 0
-1549 -1551 0
-1549 -1552 0
-1549 -1553 0
-1549 -1554 0
-1550 -1551 0
-1550 -1552 0
-1550 -1553 0
-1550 -1554 0
-1551 -1552 0
-1551 -1553 0
-1551 -1554 0
-1552 -1553 0
-1552 -1554 0
-1553 -1554 0
1555 1556 1557 1558 1559 1560 1561 0
-1555 -1556 0
-1555 -1557 0
-1555 -1558 0
-1555 -1559 0
-1555 -1560 0
-1555 -1561 0
-1556 -1557 0
-1556 -1558 0
-1556 -1559 0
-1556 -1560 0
-1556 -1561 0
-1557 -1558 0
-1557 -1559 0
-1557 -1560 0
-1557 -1561 0
-1558 -1559 0
-1558 -1560 0
-1558 -1561 0
-1559 -1560 0
-1559 -1561 0
-1560 -1561 0
1562 1563 1564 1565 1566 1567 1568 0
-1562 -1563 0
-1562 -1564 0
-1562 -1565 0
-1562 -1566 0
-1562 -1567 0
-1562 -1568 0
-1563 -1564 0
-1563 -1565 0
-1563 -1566 0
-1563 -1567 0
-1563 -1568 0
-1564 -1565 0
-1564 -1566 0
-1564 -1567 0
-1564 -1568 0
-1565 -1566 0
-1565 -1567 0
-1565 -1568 0
-1566 -1567 0
-1566 -1568 0
-1567 -1568 0
1569 1570 1571 1572 1573 1574 0
-1569 -1570 0
-1569 -1571 0
-1569 -1572 0
-1569 -1573 0
-1569 -1574 0
-1570 -1571 0
-1570 -1572 0
-1570 -1573 0
-1570 -1574 0
-1571 -1572 0
-1571 -1573 0
-1571 -1574 0
-1572 -1573 0
-1572 -1574 0
-1573 -1574 0
1575 1576 1577 1578 1579 1580 1581 1582 1583 1584 0
-1575 -1576 0
-1575 -1577 0
-1575 -1578 0
-1575 -1579 0
-1575 -1580 0
-1575 -1581 0
-1575 -1582 0
-1575 -1583 0
-1575 -1584 0
-1576 -1577 0
-1576 -1578 0
-1576 -1579 0
-1576 -1580 0
-1576 -1581 0
-1576 -1582 0
-1576 -1583 0
-1576 -1584 0
-1577 -1578 0
-1577 -1579 0
-1577 -1580 0
-1577 -1581 0
-1577 -1582 0
-1577 -1583 0
-1577 -1584 0
-1578 -1579 0
-1578 -1580 0
-1578 -1581 0
-1578 -1582 0
-1578 -1583 0
-1578 -1584 0
-1579 -1580 0
-1579 -1581 0
-1579 -1582 0
-1579 -1583 0
-1579 -1584 0
-1580 -1581 0
-1580 -1582 0
-1580 -1583 0
-1580 -1584 0
-1581 -1582 0
-1581 -1583 0
-1581 -1584 0
-1582 -1583 0
-1582 -1584 0
-1583 -1584 0
1585 1586 1587 1588 1589 1590 0
-1585 -1586 0
-1585 -1587 0
-1585 -1588 0
-1585 -1589 0
-1585 -1590 0
-1586 -1587 0
-1586 -1588 0
-1586 -1589 0
-1586 -1590 0
-1587 -1588 0
-1587 -1589 0
-1587 -1590 0
-1588 -1589 0
-1588 -1590 0
-1589 -1590 0
1591 1592 1593 1594 1595 1596 0
-1591 -1592 0
-1591 -1593 0
-1591 -1594 0
-1591 -1595 0
-1591 -1596 0
-1592 -1593 0
-1592 -1594 0
-1592 -1595 0
-1592 -1596 0
-1593 -1594 0
-1593 -1595 0
-1593 -1596 0
-1594 -1595 0
-1594 -1596 0
-1595 -1596 0
1597 1598 1599 1600 1601 1602 0
-1597 -1598 0
-1597 -1599 0
-1597 -1600 0
-1597 -1601 0
-1597 -1602 0
-1598 -1599 0
-1598 -1600 0
-1598 -1601 0
-1598 -1602 0
-1599 -1600 0
-1599 -1601 0
-1599 -1602 0
-1600 -1601 0
-1600 -1602 0
-1601 -1602 0
1603 1604 1605 1606 1607 1608 1609 0
-1603 -1604 0
-1603 -1605 0
-1603 -1606 0
-1603 -1607 0
-1603 -1608 0
-1603 -1609 0
-1604 -1605 0
-1604 -1606 0
-1604 -1607 0
-1604 -1608 0
-1604 -1609 0
-1605 -1606 0
-1605 -1607 0
-1605 -1608 0
-1605 -1609 0
-1606 -1607 0
-1606 -1608 0
-1606 -1609 0
-1607 -1608 0
-1607 -1609 0
-1608 -1609 0
1610 1611 1612 1613 1614 1615 0
-1610 -1611 0
-1610 -1612 0
-1610 -1613 0
-1610 -1614 0
-1610 -1615 0
-1611 -1612 0
-1611 -1613 0
-1611 -1614 0
-1611 -1615 0
-1612 -1613 0
-1612 -1614 0
-1612 -1615 0
-1613 -1614 0
-1613 -1615 0
-1614 -1615 0
1616 1617 1618 1619 1620 1621 1622 0
-1616 -1617 0
-1616 -1618 0
-1616 -1619 0
-1616 -1620 0
-1616 -1621 0
-1616 -1622 0
-1617 -1618 0
-1617 -1619 0
-1617 -1620 0
-1617 -1621 0
-1617 -1622 0
-1618 -1619 0
-1618 -1620 0
-1618 -1621 0
-1618 -1622 0
-1619 -1620 0
-1619 -1621 0
-1619 -1622 0
-1620 -1621 0
-1620 -1622 0
-1621 -1622 0
1623 1624 1625 1626 1627 1628 1629 0
-1623 -1624 0
-1623 -1625 0
-1623 -1626 0
-1623 -1627 0
-1623 -1628 0
-1623 -1629 0
-1624 -1625 0
-1624 -1626 0
-1624 -1627 0
-1624 -1628 0
-1624 -1629 0
-1625 -1626 0
-1625 -1627 0
-1625 -1628 0
-1625 -1629 0
-1626 -1627 0
-1626 -1628 0
-1626 -1629 0
-1627 -1628 0
-1627 -1629 0
-1628 -1629 0
1630 1631 1632 1633 1634 1635 0
-1630 -1631 0
-1630 -1632 0
-1630 -1633 0
-1630 -1634 0
-1630 -1635 0
-1631 -1632 0
-1631 -1633 0
-1631 -1634 0
-1631 -1635 0
-1632 -1633 0
-1632 -1634 0
-1632 -1635 0
-1633 -1634 0
-1633 -1635 0
-1634 -1635 0
1636 1637 1638 1639 1640 1641 0
-1636 -1637 0
-1636 -1638 0
-1636 -1639 0
-1636 -1640 0
-1636 -1641 0
-1637 -1638 0
-1637 -1639 0
-1637 -1640 0
-1637 -1641 0
-1638 -1639 0
-1638 -1640 0
-1638 -1641 0
-1639 -1640 0
-1639 -1641 0
-1640 -1641 0
1642 1643 1644 1645 1646 1647 0
-1642 -1643 0
-1642 -1644 0
-1642 -1645 0
-1642 -1646 0
-1642 -1647 0
-1643 -1644 0
-1643 -1645 0
-1643 -1646 0
-1643 -1647 0
-1644 -1645 0
-1644 -1646 0
-1644 -1647 0
-1645 -1646 0
-1645 -1647 0
-1646 -1647 0
1648 1649 1650 1651 1652 1653 0
-1648 -1649 0
-1648 -1650 0
-1648 -1651 0
-1648 -1652 0
-1648 -1653 0
-1649 -1650 0
-1649 -1651 0
-1649 -1652 0
-1649 -1653 0
-1650 -1651 0
-1650 -1652 0
-1650 -1653 0
-1651 -1652 0
-1651 -1653 0
-1652 -1653 0
1654 1655 1656 1657 1658 1659 0
-1654 -1655 0
-1654 -1656 0
-1654 -1657 0
-1654 -1658 0
-1654 -1659 0
-1655 -1656 0
-1655 -1657 0
-1655 -1658 0
-1655 -1659 0
-1656 -1657 0
-1656 -1658 0
-1656 -1659 0
-1657 -1658 0
-1657 -1659 0
-1658 -1659 0
1660 1661 1662 1663 1664 1665 1666 1667 1668 0
-1660 -1661 0
-1660 -1662 0
-1660 -1663 0
-1660 -1664 0
-1660 -1665 0
-1660 -1666 0
-1660 -1667 0
-1660 -1668 0
-1661 -1662 0
-1661 -1663 0
-1661 -1664 0
-1661 -1665 0
-1661 -1666 0
-1661 -1667 0
-1661 -1668 0
-1662 -1663 0
-1662 -1664 0
-1662 -1665 0
-1662 -1666 0
-1662 -1667 0
-1662 -1668 0
-1663 -1664 0
-1663 -1665 0
-1663 -1666 0
-1663 -1667 0
-1663 -1668 0
-1664 -1665 0
-1664 -1666 0
-1664 -1667 0
-1664 -1668 0
-1665 -1666 0
-1665 -1667 0
-1665 -1668 0
-1666 -1667 0
-1666 -1668 0
-1667 -1668 0
1669 1670 1671 1672 1673 1674 0
-1669 -1670 0
-1669 -1671 0
-1669 -1672 0
-1669 -1673 0
-1669 -1674 0
-1670 -1671 0
-1670 -1672 0
-1670 -1673 0
-1670 -1674 0
-1671 -1672 0
-1671 -1673 0
-1671 -1674 0
-1672 -1673 0
-1672 -1674 0
-1673 -1674 0
1675 1676 1677 1678 1679 1680 1681 0
-1675 -1676 0
-1675 -1677 0
-1675 -1678 0
-1675 -1679 0
-1675 -1680 0
-1675 -1681 0
-1676 -1677 0
-1676 -1678 0
-1676 -1679 0
-1676 -1680 0
-1676 -1681 0
-1677 -1678 0
-1677 -1679 0
-1677 -1680 0
-1677 -1681 0
-1678 -1679 0
-1678 -1680 0
-1678 -1681 0
-1679 -1680 0
-1679 -1681 0
-1680 -1681 0
1682 1683 1684 1685 1686 1687 0
-1682 -1683 0
-1682 -1684 0
-1682 -1685 0
-1682 -1686 0
-1682 -1687 0
-1683 -1684 0
-1683 -1685 0
-1683 -1686 0
-1683 -1687 0
-1684 -1685 0
-1684 -1686 0
-1684 -1687 0
-1685 -1686 0
-1685 -1687 0
-1686 -1687 0
1688 1689 1690 1691 1692 1693 1694 0
-1688 -1689 0
-1688 -1690 0
-1688 -1691 0
-1688 -1692 0
-1688 -1693 0
-1688 -1694 0
-1689 -1690 0
-1689 -1691 0
-1689 -1692 0
-1689 -1693 0
-1689 -1694 0
-1690 -1691 0
-1690 -1692 0
-1690 -1693 0
-1690 -1694 0
-1691 -1692 0
-1691 -1693 0
-1691 -1694 0
-1692 -1693 0
-1692 -1694 0
-1693 -1694 0
1695 1696 1697 1698 1699 1700 0
-1695 -1696 0
-1695 -1697 0
-1695 -1698 0
-1695 -1699 0
-1695 -1700 0
-1696 -1697 0
-1696 -1698 0
-1696 -1699 0
-1696 -1700 0
-1697 -1698 0
-1697 -1699 0
-1697 -1700 0
-1698 -1699 0
-1698 -1700 0
-1699 -1700 0
1701 1702 1703 1704 1705 1706 1707 0
-1701 -1702 0
-1701 -1703 0
-1701 -1704 0
-1701 -1705 0
-1701 -1706 0
-1701 -1707 0
-1702 -1703 0
-1702 -1704 0
-1702 -1705 0
-1702 -1706 0
-1702 -1707 0
-1703 -1704 0
-1703 -1705 0
-1703 -1706 0
-1703 -1707 0
-1704 -1705 0
-1704 -1706 0
-1704 -1707 0
-1705 -1706 0
-1705 -1707 0
-1706 -1707 0
1708 1709 1710 1711 1712 1713 1714 1715 1716 0
-1708 -1709 0
-1708 -1710 0
-1708 -1711 0
-1708 -1712 0
-1708 -1713 0
-1708 -1714 0
-1708 -1715 0
-1708 -1716 0
-1709 -1710 0
-1709 -1711 0
-1709 -1712 0
-1709 -1713 0
-1709 -1714 0
-1709 -1715 0
-1709 -1716 0
-1710 -1711 0
-1710 -1712 0
-1710 -1713 0
-1710 -1714 0
-1710 -1715 0
-1710 -1716 0
-1711 -1712 0
-1711 -1713 0
-1711 -1714 0
-1711 -1715 0
-1711 -1716 0
-1712 -1713 0
-1712 -1714 0
-1712 -1715 0
-1712 -1716 0
-1713 -1714 0
-1713 -1715 0
-1713 -1716 0
-1714 -1715 0
-1714 -1716 0
-1715 -1716 0
1717 1718 1719 1720 1721 1722 0
-1717 -1718 0
-1717 -1719 0
-1717 -1720 0
-1717 -1721 0
-1717 -1722 0
-1718 -1719 0
-1718 -1720 0
-1718 -1721 0
-1718 -1722 0
-1719 -1720 0
-1719 -1721 0
-1719 -1722 0
-1720 -1721 0
-1720 -1722 0
-1721 -1722 0
1723 1724 1725 1726 1727 1728 1729 0
-1723 -1724 0
-1723 -1725 0
-1723 -1726 0
-1723 -1727 0
-1723 -1728 0
-1723 -1729 0
-1724 -1725 0
-1724 -1726 0
-1724 -1727 0
-1724 -1728 0
-1724 -1729 0
-1725 -1726 0
-1725 -1727 0
-1725 -1728 0
-1725 -1729 0
-1726 -1727 0
-1726 -1728 0
-1726 -1729 0
-1727 -1728 0
-1727 -1729 0
-1728 -1729 0
1730 1731 1732 1733 1734 1735 0
-1730 -1731 0
-1730 -1732 0
-1730 -1733 0
-1730 -1734 0
-1730 -1735 0
-1731 -1732 0
-1731 -1733 0
-1731 -1734 0
-1731 -1735 0
-1732 -1733 0
-1732 -1734 0
-1732 -1735 0
-1733 -1734 0
-1733 -1735 0
-1734 -1735 0
1736 1737 1738 1739 1740 1741 0
-1736 -1737 0
-1736 -1738 0
-1736 -1739 0
-1736 -1740 0
-1736 -1741 0
-1737 -1738 0
-1737 -1739 0
-1737 -1740 0
-1737 -1741 0
-1738 -1739 0
-1738 -1740 0
-1738 -1741 0
-1739 -1740 0
-1739 -1741 0
-1740 -1741 0
1742 1743 1744 1745 1746 1747 0
-1742 -1743 0
-1742 -1744 0
-1742 -1745 0
-1742 -1746 0
-1742 -1747 0
-1743 -1744 0
-1743 -1745 0
-1743 -1746 0
-1743 -1747 0
-1744 -1745 0
-1744 -1746 0
-1744 -1747 0
-1745 -1746 0
-1745 -1747 0
-1746 -1747 0
1748 1749 1750 1751 1752 1753 0
-1748 -1749 0
-1748 -1750 0
-1748 -1751 0
-1748 -1752 0
-1748 -1753 0
-1749 -1750 0
-1749 -1751 0
-1749 -1752 0
-1749 -1753 0
-1750 -1751 0
-1750 -1752 0
-1750 -1753 0
-1751 -1752 0
-1751 -1753 0
-1752 -1753 0
1754 1755 1756 1757 1758 1759 1760 0
-1754 -1755 0
-1754 -1756 0
-1754 -1757 0
-1754 -1758 0
-1754 -1759 0
-1754 -1760 0
-1755 -1756 0
-1755 -1757 0
-1755 -1758 0
-1755 -1759 0
-1755 -1760 0
-1756 -1757 0
-1756 -1758 0
-1756 -1759 0
-1756 -1760 0
-1757 -1758 0
-1757 -1759 0
-1757 -1760 0
-1758 -1759 0
-1758 -1760 0
-1759 -1760 0
1761 1762 1763 1764 1765 1766 1767 0
-1761 -1762 0
-1761 -1763 0
-1761 -1764 0
-1761 -1765 0
-1761 -1766 0
-1761 -1767 0
-1762 -1763 0
-1762 -1764 0
-1762 -1765 0
-1762 -1766 0
-1762 -1767 0
-1763 -1764 0
-1763 -1765 0
-1763 -1766 0
-1763 -1767 0
-1764 -1765 0
-1764 -1766 0
-1764 -1767 0
-1765 -1766 0
-1765 -1767 0
-1766 -1767 0
1768 1769 1770 1771 1772 1773 0
-1768 -1769 0
-1768 -1770 0
-1768 -1771 0
-1768 -1772 0
-1768 -1773 0
-1769 -1770 0
-1769 -1771 0
-1769 -1772 0
-1769 -1773 0
-1770 -1771 0
-1770 -1772 0
-1770 -1773 0
-1771 -1772 0
-1771 -1773 0
-1772 -1773 0
1774 1775 1776 1777 1778 1779 1780 0
-1774 -1775 0
-1774 -1776 0
-1774 -1777 0
-1774 -1778 0
-1774 -1779 0
-1774 -1780 0
-1775 -1776 0
-1775 -1777 0
-1775 -1778 0
-1775 -1779 0
-1775 -1780 0
-1776 -1777 0
-1776 -1778 0
-1776 -1779 0
-1776 -1780 0
-1777 -1778 0
-1777 -1779 0
-1777 -1780 0
-1778 -1779 0
-1778 -1780 0
-1779 -1780 0
1781 0
1782 1783 1784 1785 1786 1787 0
-1782 -1783 0
-1782 -1784 0
-1782 -1785 0
-1782 -1786 0
-1782 -1787 0
-1783 -1784 0
-1783 -1785 0
-1783 -1786 0
-1783 -1787 0
-1784 -1785 0
-1784 -1786 0
-1784 -1787 0
-1785 -1786 0
-1785 -1787 0
-1786 -1787 0
1788 1789 1790 1791 1792 1793 0
-1788 -1789 0
-1788 -1790 0
-1788 -1791 0
-1788 -1792 0
-1788 -1793 0
-1789 -1790 0
-1789 -1791 0
-1789 -1792 0
-1789 -1793 0
-1790 -1791 0
-1790 -1792 0
-1790 -1793 0
-1791 -1792 0
-1791 -1793 0
-1792 -1793 0
1794 1795 1796 1797 1798 1799 0
-1794 -1795 0
-1794 -1796 0
-1794 -1797 0
-1794 -1798 0
-1794 -1799 0
-1795 -1796 0
-1795 -1797 0
-1795 -1798 0
-1795 -1799 0
-1796 -1797 0
-1796 -1798 0
-1796 -1799 0
-1797 -1798 0
-1797 -1799 0
-1798 -1799 0
1800 1801 1802 1803 1804 1805 1806 0
-1800 -1801 0
-1800 -1802 0
-1800 -1803 0
-1800 -1804 0
-1800 -1805 0
-1800 -1806 0
-1801 -1802 0
-1801 -1803 0
-1801 -1804 0
-1801 -1805 0
-1801 -1806 0
-1802 -1803 0
-1802 -1804 0
-1802 -1805 0
-1802 -1806 0
-1803 -1804 0
-1803 -1805 0
-1803 -1806 0
-1804 -1805 0
-1804 -1806 0
-1805 -1806 0
1807 1808 1809 1810 1811 1812 0
-1807 -1808 0
-1807 -1809 0
-1807 -1810 0
-1807 -1811 0
-1807 -1812 0
-1808 -1809 0
-1808 -1810 0
-1808 -1811 0
-1808 -1812 0
-1809 -1810 0
-1809 -1811 0
-1809 -1812 0
-1810 -1811 0
-1810 -1812 0
-1811 -1812 0
1813 1814 1815 1816 1817 1818 1819 0
-1813 -1814 0
-1813 -1815 0
-1813 -1816 0
-1813 -1817 0
-1813 -1818 0
-1813 -1819 0
-1814 -1815 0
-1814 -1816 0
-1814 -1817 0
-1814 -1818 0
-1814 -1819 0
-1815 -1816 0
-1815 -1817 0
-1815 -1818 0
-1815 -1819 0
-1816 -1817 0
-1816 -1818 0
-1816 -1819 0
-1817 -1818 0
-1817 -1819 0
-1818 -1819 0
1820 1821 1822 1823 1824 1825 0
-1820 -1821 0
-1820 -1822 0
-1820 -1823 0
-1820 -1824 0
-1820 -1825 0
-1821 -1822 0
-1821 -1823 0
-1821 -1824 0
-1821 -1825 0
-1822 -1823 0
-1822 -1824 0
-1822 -1825 0
-1823 -1824 0
-1823 -1825 0
-1824 -1825 0
1826 1827 1828 1829 1830 1831 0
-1826 -1827 0
-1826 -1828 0
-1826 -1829 0
-1826 -1830 0
-1826 -1831 0
-1827 -1828 0
-1827 -1829 0
-1827 -1830 0
-1827 -1831 0
-1828 -1829 0
-1828 -1830 0
-1828 -1831 0
-1829 -1830 0
-1829 -1831 0
-1830 -1831 0
1832 1833 1834 1835 1836 1837 0
-1832 -1833 0
-1832 -1834 0
-1832 -1835 0
-1832 -1836 0
-1832 -1837 0
-1833 -1834 0
-1833 -1835 0
-1833 -1836 0
-1833 -1837 0
-1834 -1835 0
-1834 -1836 0
-1834 -1837 0
-1835 -1836 0
-1835 -1837 0
-1836 -1837 0
1838 0
1839 1840 1841 1842 1843 1844 0
-1839 -1840 0
-1839 -1841 0
-1839 -1842 0
-1839 -1843 0
-1839 -1844 0
-1840 -1841 0
-1840 -1842 0
-1840 -1843 0
-1840 -1844 0
-1841 -1842 0
-1841 -1843 0
-1841 -1844 0
-1842 -1843 0
-1842 -1844 0
-1843 -1844 0
1845 1846 1847 1848 1849 1850 0
-1845 -1846 0
-1845 -1847 0
-1845 -1848 0
-1845 -1849 0
-1845 -1850 0
-1846 -1847 0
-1846 -1848 0
-1846 -1849 0
-1846 -1850 0
-1847 -1848 0
-1847 -1849 0
-1847 -1850 0
-1848 -1849 0
-1848 -1850 0
-1849 -1850 0
1851 1852 1853 1854 1855 1856 1857 0
-1851 -1852 0
-1851 -1853 0
-1851 -1854 0
-1851 -1855 0
-1851 -1856 0
-1851 -1857 0
-1852 -1853 0
-1852 -1854 0
-1852 -1855 0
-1852 -1856 0
-1852 -1857 0
-1853 -1854 0
-1853 -1855 0
-1853 -1856 0
-1853 -1857 0
-1854 -1855 0
-1854 -1856 0
-1854 -1857 0
-1855 -1856 0
-1855 -1857 0
-1856 -1857 0
1858 1859 1860 1861 1862 1863 1864 0
-1858 -1859 0
-1858 -1860 0
-1858 -1861 0
-1858 -1862 0
-1858 -1863 0
-1858 -1864 0
-1859 -1860 0
-1859 -1861 0
-1859 -1862 0
-1859 -1863 0
-1859 -1864 0
-1860 -1861 0
-1860 -1862 0
-1860 -1863 0
-1860 -1864 0
-1861 -1862 0
-1861 -1863 0
-1861 -1864 0
-1862 -1863 0
-1862 -1864 0
-1863 -1864 0
1865 1866 1867 1868 1869 1870 1871 0
-1865 -1866 0
-1865 -1867 0
-1865 -1868 0
-1865 -1869 0
-1865 -1870 0
-1865 -1871 0
-1866 -1867 0
-1866 -1868 0
-1866 -1869 0
-1866 -1870 0
-1866 -1871 0
-1867 -1868 0
-1867 -1869 0
-1867 -1870 0
-1867 -1871 0
-1868 -1869 0
-1868 -1870 0
-1868 -1871 0
-1869 -1870 0
-1869 -1871 0
-1870 -1871 0
1872 1873 1874 1875 1876 1877 0
-1872 -1873 0
-1872 -1874 0
-1872 -1875 0
-1872 -1876 0
-1872 -1877 0
-1873 -1874 0
-1873 -1875 0
-1873 -1876 0
-1873 -1877 0
-1874 -1875 0
-1874 -1876 0
-1874 -1877 0
-1875 -1876 0
-1875 -1877 0
-1876 -1877 0
1878 0
1879 1880 1881 1882 1883 1884 0
-1879 -1880 0
-1879 -1881 0
-1879 -1882 0
-1879 -1883 0
-1879 -1884 0
-1880 -1881 0
-1880 -1882 0
-1880 -1883 0
-1880 -1884 0
-1881 -1882 0
-1881 -1883 0
-1881 -1884 0
-1882 -1883 0
-1882 -1884 0
-1883 -1884 0
1885 1886 1887 1888 1889 1890 1891 0
-1885 -1886 0
-1885 -1887 0
-1885 -1888 0
-1885 -1889 0
-1885 -1890 0
-1885 -1891 0
-1886 -1887 0
-1886 -1888 0
-1886 -1889 0
-1886 -1890 0
-1886 -1891 0
-1887 -1888 0
-1887 -1889 0
-1887 -1890 0
-1887 -1891 0
-1888 -1889 0
-1888 -1890 0
-1888 -1891 0
-1889 -1890 0
-1889 -1891 0
-1890 -1891 0
1892 1893 1894 1895 1896 1897 1898 0
-1892 -1893 0
-1892 -1894 0
-1892 -1895 0
-1892 -1896 0
-1892 -1897 0
-1892 -1898 0
-1893 -1894 0
-1893 -1895 0
-1893 -1896 0
-1893 -1897 0
-1893 -1898 0
-1894 -1895 0
-1894 -1896 0
-1894 -1897 0
-1894 -1898 0
-1895 -1896 0
-1895 -1897 0
-1895 -1898 0
-1896 -1897 0
-1896 -1898 0
-1897 -1898 0
1899 1900 1901 1902 1903 1904 0
-1899 -1900 0
-1899 -1901 0
-1899 -1902 0
-1899 -1903 0
-1899 -1904 0
-1900 -1901 0
-1900 -1902 0
-1900 -1903 0
-1900 -1904 0
-1901 -1902 0
-1901 -1903 0
-1901 -1904 0
-1902 -1903 0
-1902 -1904 0
-1903 -1904 0
1905 1906 1907 1908 1909 1910 1911 0
-1905 -1906 0
-1905 -1907 0
-1905 -1908 0
-1905 -1909 0
-1905 -1910 0
-1905 -1911 0
-1906 -1907 0
-1906 -1908 0
-1906 -1909 0
-1906 -1910 0
-1906 -1911 0
-1907 -1908 0
-1907 -1909 0
-1907 -1910 0
-1907 -1911 0
-1908 -1909 0
-1908 -1910 0
-1908 -1911 0
-1909 -1910 0
-1909 -1911 0
-1910 -1911 0
1912 1913 1914 1915 1916 1917 0
-1912 -1913 0
-1912 -1914 0
-1912 -1915 0
-1912 -1916 0
-1912 -1917 0
-1913 -1914 0
-1913 -1915 0
-1913 -1916 0
-1913 -1917 0
-1914 -1915 0
-1914 -1916 0
-1914 -1917 0
-1915 -1916 0
-1915 -1917 0
-1916 -1917 0
1918 1919 1920 1921 1922 1923 0
-1918 -1919 0
-1918 -1920 0
-1918 -1921 0
-1918 -1922 0
-1918 -1923 0
-1919 -1920 0
-1919 -1921 0
-1919 -1922 0
-1919 -1923 0
-1920 -1921 0
-1920 -1922 0
-1920 -1923 0
-1921 -1922 0
-1921 -1923 0
-1922 -1923 0
1924 1925 1926 1927 1928 1929 1930 0
-1924 -1925 0
-1924 -1926 0
-1924 -1927 0
-1924 -1928 0
-1924 -1929 0
-1924 -1930 0
-1925 -1926 0
-1925 -1927 0
-1925 -1928 0
-1925 -1929 0
-1925 -1930 0
-1926 -1927 0
-1926 -1928 0
-1926 -1929 0
-1926 -1930 0
-1927 -1928 0
-1927 -1929 0
-1927 -1930 0
-1928 -1929 0
-1928 -1930 0
-1929 -1930 0
1931 1932 1933 1934 1935 1936 1937 0
-1931 -1932 0
-1931 -1933 0
-1931 -1934 0
-1931 -1935 0
-1931 -1936 0
-1931 -1937 0
-1932 -1933 0
-1932 -1934 0
-1932 -1935 0
-1932 -1936 0
-1932 -1937 0
-1933 -1934 0
-1933 -1935 0
-1933 -1936 0
-1933 -1937 0
-1934 -1935 0
-1934 -1936 0
-1934 -1937 0
-1935 -1936 0
-1935 -1937 0
-1936 -1937 0
1938 1939 1940 1941 1942 1943 1944 0
-1938 -1939 0
-1938 -1940 0
-1938 -1941 0
-1938 -1942 0
-1938 -1943 0
-1938 -1944 0
-1939 -1940 0
-1939 -1941 0
-1939 -1942 0
-1939 -1943 0
-1939 -1944 0
-1940 -1941 0
-1940 -1942 0
-1940 -1943 0
-1940 -1944 0
-1941 -1942 0
-1941 -1943 0
-1941 -1944 0
-1942 -1943 0
-1942 -1944 0
-1943 -1944 0
1945 1946 1947 1948 1949 1950 0
-1945 -1946 0
-1945 -1947 0
-1945 -1948 0
-1945 -1949 0
-1945 -1950 0
-1946 -1947 0
-1946 -1948 0
-1946 -1949 0
-1946 -1950 0
-1947 -1948 0
-1947 -1949 0
-1947 -1950 0
-1948 -1949 0
-1948 -1950 0
-1949 -1950 0
1951 0
1952 1953 1954 1955 1956 1957 1958 0
-1952 -1953 0
-1952 -1954 0
-1952 -1955 0
-1952 -1956 0
-1952 -1957 0
-1952 -1958 0
-1953 -1954 0
-1953 -1955 0
-1953 -1956 0
-1953 -1957 0
-1953 -1958 0
-1954 -1955 0
-1954 -1956 0
-1954 -1957 0
-1954 -1958 0
-1955 -1956 0
-1955 -1957 0
-1955 -1958 0
-1956 -1957 0
-1956 -1958 0
-1957 -1958 0
1959 0
-2 -195 0
-3 -196 0
-5 -198 0
-6 -200 0
-7 -201 0
-2 -247 0
-3 -248 0
-5 -249 0
-6 -251 0
-7 -252 0
-2 -271 0
-3 -272 0
-5 -274 0
-6 -276 0
-7 -277 0
-3 -285 0
-5 -288 0
-6 -289 0
-7 -290 0
-3 -298 0
-5 -299 0
-6 -302 0
-7 -303 0
-2 -383 0
-3 -384 0
-6 -387 0
-7 -388 0
-3 -396 0
-6 -400 0
-7 -401 0
-2 -434 0
-4 -435 0
-6 -436 0
-7 -437 0
-2 -460 0
-4 -461 0
-5 -463 0
-6 -466 0
-7 -467 0
-2 -476 0
-6 -479 0
-7 -480 0
-3 -483 0
-4 -484 0
-6 -488 0
-7 -489 0
-3 -498 0
-4 -499 0
-6 -501 0
-7 -502 0
-2 -509 0
-4 -510 0
-5 -513 0
-6 -514 0
-7 -515 0
-2 -523 0
-6 -527 0
-7 -528 0
-3 -530 0
-4 -531 0
-6 -534 0
-7 -535 0
-3 -546 0
-4 -547 0
-6 -550 0
-7 -551 0
-3 -552 0
-4 -553 0
-5 -555 0
-6 -557 0
-7 -558 0
-3 -560 0
-6 -564 0
-7 -565 0
-2 -627 0
-4 -628 0
-5 -631 0
-6 -633 0
-7 -634 0
-2 -656 0
-4 -657 0
-5 -659 0
-7 -661 0
-2 -670 0
-5 -672 0
-7 -674 0
-3 -676 0
-4 -677 0
-5 -679 0
-7 -680 0
-3 -689 0
-4 -690 0
-5 -693 0
-7 -696 0
-2 -697 0
-5 -699 0
-6 -702 0
-7 -703 0
-3 -710 0
-4 -711 0
-5 -713 0
-6 -715 0
-7 -716 0
-3 -717 0
-5 -720 0
-7 -723 0
-4 -744 0
-6 -747 0
-7 -748 0
-4 -757 0
-6 -760 0
-7 -761 0
-4 -762 0
-5 -765 0
-7 -767 0
-4 -769 0
-7 -773 0
-4 -774 0
-6 -779 0
-7 -780 0
-2 -921 0
-5 -923 0
-6 -924 0
-7 -925 0
-2 -949 0
-5 -950 0
-7 -953 0
-3 -971 0
-5 -973 0
-7 -975 0
-3 -984 0
-5 -986 0
-7 -988 0
-2 -996 0
-5 -998 0
-6 -999 0
-7 -1000 0
-3 -1014 0
-5 -1015 0
-6 -1017 0
-7 -1018 0
-3 -1027 0
-5 -1030 0
-6 -1032 0
-7 -1033 0
-3 -1035 0
-5 -1037 0
-7 -1039 0
-3 -1047 0
-5 -1049 0
-7 -1051 0
-2 -1126 0
-5 -1128 0
-6 -1131 0
-7 -1132 0
-3 -1140 0
-6 -1144 0
-7 -1145 0
-3 -1153 0
-6 -1157 0
-7 -1158 0
-3 -1159 0
-5 -1162 0
-7 -1165 0
-4 -1174 0
-6 -1177 0
-7 -1178 0
-4 -1187 0
-6 -1190 0
-7 -1191 0
-4 -1194 0
-5 -1196 0
-7 -1198 0
-4 -1206 0
-5 -1208 0
-7 -1211 0
-7 -1218 0
-4 -1221 0
-5 -1224 0
-6 -1227 0
-7 -1228 0
-4 -1236 0
-5 -1238 0
-6 -1239 0
-7 -1240 0
-6 -1245 0
-7 -1246 0
-6 -1258 0
-7 -1259 0
-5 -1262 0
-7 -1265 0
-3 -1334 0
-5 -1337 0
-7 -1340 0
-4 -1348 0
-5 -1351 0
-7 -1353 0
-4 -1365 0
-5 -1367 0
-7 -1369 0
-4 -1371 0
-5 -1373 0
-6 -1375 0
-7 -1376 0
-4 -1384 0
-5 -1386 0
-6 -1388 0
-7 -1389 0
-5 -1393 0
-6 -1395 0
-7 -1396 0
-5 -1400 0
-6 -1402 0
-7 -1403 0
-4 -1410 0
-5 -1413 0
-7 -1415 0
-5 -1418 0
-7 -1421 0
-5 -1431 0
-7 -1434 0
-5 -1437 0
-6 -1439 0
-7 -1440 0
-2 -1523 0
-6 -1526 0
-7 -1527 0
-2 -1550 0
-5 -1552 0
-7 -1554 0
-3 -1570 0
-7 -1574 0
-3 -1587 0
-7 -1590 0
-3 -1604 0
-6 -1608 0
-7 -1609 0
-3 -1616 0
-5 -1619 0
-7 -1622 0
-3 -1682 0
-5 -1684 0
-6 -1686 0
-7 -1687 0
-4 -1696 0
-5 -1698 0
-6 -1699 0
-7 -1700 0
-4 -1710 0
-5 -1712 0
-6 -1715 0
-7 -1716 0
-4 -1718 0
-7 -1722 0
-4 -1731 0
-7 -1735 0
-5 -1740 0
-7 -1741 0
-5 -1744 0
-7 -1747 0
-4 -1754 0
-6 -1759 0
-7 -1760 0
-5 -1763 0
-6 -1766 0
-7 -1767 0
-5 -1777 0
-6 -1779 0
-7 -1780 0
-4 -1808 0
-7 -1812 0
-4 -1820 0
-5 -1821 0
-6 -1824 0
-7 -1825 0
-6 -1830 0
-7 -1831 0
-6 -1836 0
-7 -1837 0
-7 -1891 0
-5 -1894 0
-6 -1897 0
-7 -1898 0
-5 -1908 0
-6 -1910 0
-7 -1911 0
-5 -1920 0
-7 -1923 0
-8 -188 0
-9 -189 0
-11 -190 0
-12 -191 0
-14 -192 0
-8 -238 0
-9 -239 0
-11 -240 0
-12 -241 0
-13 -242 0
-14 -245 0
-8 -265 0
-9 -266 0
-11 -267 0
-12 -268 0
-14 -270 0
-9 -285 0
-11 -286 0
-12 -287 0
-14 -290 0
-9 -292 0
-11 -293 0
-12 -294 0
-14 -296 0
-8 -362 0
-9 -363 0
-11 -364 0
-12 -365 0
-13 -367 0
-14 -369 0
-8 -376 0
-9 -377 0
-11 -378 0
-13 -380 0
-14 -382 0
-9 -396 0
-11 -397 0
-13 -398 0
-14 -401 0
-8 -424 0
-10 -425 0
-11 -426 0
-12 -427 0
-13 -429 0
-14 -431 0
-8 -453 0
-10 -454 0
-11 -455 0
-12 -456 0
-14 -458 0
-8 -476 0
-11 -477 0
-12 -478 0
-14 -480 0
-9 -483 0
-10 -484 0
-11 -485 0
-12 -486 0
-14 -489 0
-9 -491 0
-10 -492 0
-11 -493 0
-12 -494 0
-14 -496 0
-8 -503 0
-10 -504 0
-11 -505 0
-13 -506 0
-14 -508 0
-8 -523 0
-11 -524 0
-13 -525 0
-14 -528 0
-9 -530 0
-10 -531 0
-11 -532 0
-13 -533 0
-14 -535 0
-9 -537 0
-10 -538 0
-11 -539 0
-13 -541 0
-14 -544 0
-9 -552 0
-10 -553 0
-11 -554 0
-14 -558 0
-9 -567 0
-11 -568 0
-14 -571 0
-8 -594 0
-9 -595 0
-12 -596 0
-13 -597 0
-14 -599 0
-8 -620 0
-10 -621 0
-12 -622 0
-13 -623 0
-14 -625 0
-8 -649 0
-10 -650 0
-11 -651 0
-12 -652 0
-14 -655 0
-8 -670 0
-12 -671 0
-14 -674 0
-9 -676 0
-10 -677 0
-12 -678 0
-14 -680 0
-9 -682 0
-10 -683 0
-12 -684 0
-14 -687 0
-8 -697 0
-12 -698 0
-13 -700 0
-14 -703 0
-9 -704 0
-10 -705 0
-12 -706 0
-13 -707 0
-14 -709 0
-9 -724 0
-12 -725 0
-14 -729 0
-8 -730 0
-10 -731 0
-12 -732 0
-13 -734 0
-14 -735 0
-10 -744 0
-12 -745 0
-13 -746 0
-14 -748 0
-10 -750 0
-12 -751 0
-13 -753 0
-14 -755 0
-10 -762 0
-11 -763 0
-12 -764 0
-14 -767 0
-10 -781 0
-13 -783 0
-14 -786 0
-8 -915 0
-12 -916 0
-13 -917 0
-14 -918 0
-8 -940 0
-11 -941 0
-12 -942 0
-14 -946 0
-9 -971 0
-12 -972 0
-14 -975 0
-9 -978 0
-12 -979 0
-14 -981 0
-8 -990 0
-11 -991 0
-13 -993 0
-14 -994 0
-9 -1014 0
-13 -1016 0
-14 -1018 0
-9 -1021 0
-13 -1022 0
-14 -1024 0
-9 -1035 0
-11 -1036 0
-14 -1039 0
-9 -1041 0
-11 -1042 0
-14 -1045 0
-8 -1077 0
-13 -1079 0
-14 -1081 0
-8 -1100 0
-11 -1101 0
-13 -1102 0
-14 -1105 0
-9 -1114 0
-13 -1116 0
-14 -1119 0
-8 -1120 0
-11 -1121 0
-12 -1122 0
-13 -1123 0
-14 -1125 0
-9 -1140 0
-12 -1141 0
-13 -1142 0
-14 -1145 0
-9 -1147 0
-12 -1148 0
-13 -1150 0
-14 -1151 0
-9 -1159 0
-11 -1160 0
-12 -1161 0
-13 -1163 0
-14 -1165 0
-10 -1174 0
-13 -1175 0
-14 -1178 0
-10 -1181 0
-13 -1183 0
-14 -1184 0
-10 -1194 0
-11 -1195 0
-14 -1198 0
-10 -1200 0
-11 -1201 0
-14 -1204 0
-10 -1221 0
-11 -1222 0
-12 -1223 0
-13 -1225 0
-14 -1228 0
-10 -1230 0
-11 -1231 0
-12 -1232 0
-13 -1233 0
-14 -1234 0
-12 -1249 0
-13 -1251 0
-14 -1253 0
-12 -1255 0
-13 -1256 0
-14 -1259 0
-11 -1267 0
-12 -1268 0
-14 -1272 0
-8 -1287 0
-11 -1288 0
-12 -1289 0
-13 -1290 0
-14 -1292 0
-8 -1307 0
-12 -1308 0
-13 -1310 0
-14 -1313 0
-9 -1322 0
-11 -1323 0
-12 -1324 0
-13 -1325 0
-14 -1327 0
-9 -1328 0
-11 -1329 0
-13 -1330 0
-14 -1333 0
-10 -1348 0
-11 -1349 0
-12 -1350 0
-13 -1352 0
-14 -1353 0
-10 -1356 0
-11 -1357 0
-12 -1358 0
-13 -1359 0
-14 -1362 0
-10 -1371 0
-12 -1372 0
-14 -1376 0
-10 -1378 0
-12 -1379 0
-14 -1382 0
-11 -1398 0
-12 -1399 0
-14 -1403 0
-10 -1404 0
-13 -1406 0
-14 -1409 0
-11 -1423 0
-13 -1425 0
-14 -1428 0
-11 -1430 0
-13 -1432 0
-14 -1434 0
-10 -1450 0
-11 -1451 0
-13 -1453 0
-14 -1455 0
-8 -1516 0
-11 -1517 0
-12 -1518 0
-14 -1521 0
-8 -1543 0
-11 -1544 0
-12 -1545 0
-13 -1546 0
-14 -1548 0
-9 -1570 0
-11 -1571 0
-12 -1572 0
-13 -1573 0
-14 -1574 0
-9 -1577 0
-11 -1578 0
-12 -1579 0
-13 -1581 0
-14 -1584 0
-9 -1598 0
-11 -1599 0
-14 -1602 0
-9 -1610 0
-11 -1611 0
-13 -1612 0
-14 -1615 0
-8 -1637 0
-11 -1638 0
-13 -1640 0
-14 -1641 0
-8 -1654 0
-11 -1655 0
-14 -1659 0
-9 -1670 0
-11 -1671 0
-14 -1674 0
-9 -1675 0
-11 -1676 0
-12 -1677 0
-13 -1679 0
-14 -1681 0
-10 -1696 0
-11 -1697 0
-14 -1700 0
-10 -1703 0
-11 -1704 0
-14 -1707 0
-10 -1718 0
-11 -1719 0
-13 -1720 0
-14 -1722 0
-10 -1724 0
-11 -1725 0
-13 -1727 0
-14 -1729 0
-11 -1743 0
-13 -1745 0
-14 -1747 0
-10 -1748 0
-11 -1749 0
-12 -1750 0
-14 -1753 0
-11 -1769 0
-12 -1770 0
-14 -1773 0
-11 -1775 0
-12 -1776 0
-14 -1780 0
-11 -1782 0
-12 -1783 0
-13 -1785 0
-14 -1787 0
-9 -1794 0
-12 -1795 0
-14 -1799 0
-10 -1801 0
-12 -1802 0
-14 -1806 0
-10 -1813 0
-11 -1814 0
-12 -1815 0
-13 -1816 0
-14 -1819 0
-12 -1833 0
-13 -1834 0
-14 -1837 0
-10 -1839 0
-13 -1841 0
-14 -1844 0
-14 -1884 0
-11 -1893 0
-13 -1895 0
-14 -1898 0
-11 -1901 0
-13 -1902 0
-14 -1904 0
-11 -1913 0
-12 -1914 0
-14 -1917 0
-12 -1933 0
-13 -1935 0
-14 -1937 0
-11 -1939 0
-12 -1940 0
-14 -1944 0
-11 -1945 0
-12 -1946 0
-13 -1948 0
-14 -1950 0
-11 -1953 0
-13 -1955 0
-14 -1958 0
-16 -180 0
-17 -181 0
-19 -183 0
-20 -184 0
-21 -185 0
-16 -228 0
-17 -229 0
-18 -231 0
-19 -232 0
-20 -233 0
-21 -236 0
-16 -271 0
-17 -272 0
-19 -274 0
-20 -275 0
-21 -277 0
-17 -278 0
-19 -281 0
-20 -282 0
-21 -283 0
-17 -298 0
-19 -299 0
-20 -300 0
-21 -303 0
-16 -416 0
-18 -418 0
-20 -419 0
-21 -421 0
-16 -460 0
-19 -463 0
-20 -464 0
-21 -467 0
-17 -469 0
-20 -472 0
-21 -474 0
-17 -498 0
-20 -500 0
-21 -502 0
-16 -509 0
-18 -512 0
-19 -513 0
-21 -515 0
-17 -516 0
-18 -519 0
-21 -521 0
-17 -546 0
-18 -548 0
-21 -551 0
-17 -552 0
-19 -555 0
-21 -558 0
-17 -567 0
-19 -569 0
-21 -571 0
-16 -612 0
-19 -615 0
-20 -616 0
-21 -618 0
-16 -656 0
-18 -658 0
-19 -659 0
-20 -660 0
-21 -661 0
-17 -662 0
-18 -664 0
-19 -665 0
-20 -666 0
-21 -668 0
-17 -689 0
-18 -692 0
-19 -693 0
-20 -694 0
-21 -696 0
-17 -710 0
-19 -713 0
-21 -716 0
-17 -724 0
-18 -725 0
-19 -726 0
-21 -729 0
-21 -761 0
-18 -764 0
-19 -765 0
-21 -767 0
-19 -782 0
-20 -783 0
-21 -786 0
-16 -852 0
-17 -853 0
-18 -855 0
-19 -856 0
-20 -857 0
-21 -860 0
-16 -874 0
-17 -875 0
-18 -877 0
-19 -878 0
-21 -879 0
-17 -886 0
-18 -887 0
-19 -888 0
-21 -891 0
-15 -905 0
-16 -906 0
-18 -909 0
-19 -910 0
-20 -911 0
-21 -912 0
-15 -948 0
-16 -949 0
-19 -950 0
-20 -951 0
-21 -953 0
-16 -955 0
-19 -956 0
-20 -957 0
-21 -959 0
-15 -961 0
-17 -962 0
-19 -964 0
-20 -965 0
-21 -968 0
-15 -983 0
-17 -984 0
-19 -986 0
-20 -987 0
-21 -988 0
-15 -995 0
-16 -996 0
-18 -997 0
-19 -998 0
-21 -1000 0
-16 -1002 0
-18 -1003 0
-19 -1004 0
-21 -1006 0
-15 -1007 0
-17 -1008 0
-18 -1010 0
-19 -1011 0
-21 -1012 0
-15 -1026 0
-17 -1027 0
-18 -1029 0
-19 -1030 0
-21 -1033 0
-15 -1034 0
-17 -1035 0
-19 -1037 0
-21 -1039 0
-17 -1041 0
-19 -1043 0
-21 -1045 0
-16 -1069 0
-18 -1072 0
-21 -1074 0
-17 -1107 0
-18 -1109 0
-21 -1112 0
-16 -1126 0
-18 -1127 0
-19 -1128 0
-20 -1129 0
-21 -1132 0
-17 -1133 0
-18 -1135 0
-20 -1136 0
-21 -1138 0
-17 -1153 0
-18 -1155 0
-20 -1156 0
-21 -1158 0
-17 -1159 0
-18 -1161 0
-19 -1162 0
-20 -1163 0
-21 -1165 0
-15 -1167 0
-18 -1169 0
-21 -1171 0
-15 -1186 0
-18 -1189 0
-21 -1191 0
-15 -1193 0
-19 -1196 0
-21 -1198 0
-21 -1204 0
-15 -1220 0
-18 -1223 0
-19 -1224 0
-20 -1225 0
-21 -1228 0
-18 -1232 0
-20 -1233 0
-21 -1234 0
-15 -1248 0
-18 -1249 0
-19 -1250 0
-20 -1251 0
-21 -1253 0
-18 -1255 0
-20 -1256 0
-21 -1259 0
-19 -1262 0
-20 -1263 0
-21 -1265 0
-16 -1279 0
-18 -1282 0
-19 -1283 0
-21 -1285 0
-17 -1314 0
-19 -1317 0
-21 -1320 0
-17 -1334 0
-18 -1336 0
-19 -1337 0
-20 -1338 0
-21 -1340 0
-15 -1341 0
-19 -1344 0
-21 -1346 0
-15 -1364 0
-19 -1367 0
-21 -1369 0
-15 -1370 0
-18 -1372 0
-19 -1373 0
-21 -1376 0
-18 -1379 0
-19 -1380 0
-21 -1382 0
-18 -1399 0
-19 -1400 0
-21 -1403 0
-19 -1405 0
-20 -1406 0
-21 -1409 0
-15 -1422 0
-19 -1424 0
-20 -1425 0
-21 -1428 0
-19 -1431 0
-20 -1432 0
-21 -1434 0
-18 -1436 0
-19 -1437 0
-20 -1438 0
-21 -1440 0
-18 -1444 0
-20 -1445 0
-21 -1448 0
-16 -1487 0
-17 -1488 0
-18 -1489 0
-20 -1490 0
-21 -1492 0
-15 -1508 0
-16 -1509 0
-18 -1511 0
-20 -1512 0
-21 -1514 0
-15 -1549 0
-16 -1550 0
-19 -1552 0
-20 -1553 0
-21 -1554 0
-16 -1556 0
-20 -1558 0
-21 -1561 0
-15 -1562 0
-17 -1563 0
-20 -1566 0
-21 -1568 0
-15 -1586 0
-17 -1587 0
-20 -1588 0
-21 -1590 0
-16 -1591 0
-18 -1593 0
-20 -1594 0
-21 -1596 0
-15 -1603 0
-17 -1604 0
-18 -1605 0
-20 -1606 0
-21 -1609 0
-17 -1610 0
-20 -1612 0
-21 -1615 0
-16 -1630 0
-18 -1632 0
-19 -1633 0
-20 -1634 0
-21 -1635 0
-17 -1660 0
-18 -1663 0
-19 -1664 0
-20 -1665 0
-21 -1668 0
-17 -1682 0
-18 -1683 0
-19 -1684 0
-21 -1687 0
-15 -1688 0
-18 -1691 0
-19 -1692 0
-20 -1693 0
-21 -1694 0
-15 -1709 0
-18 -1711 0
-19 -1712 0
-20 -1713 0
-21 -1716 0
-15 -1717 0
-20 -1720 0
-21 -1722 0
-19 -1726 0
-20 -1727 0
-21 -1729 0
-19 -1744 0
-20 -1745 0
-21 -1747 0
-18 -1750 0
-19 -1751 0
-21 -1753 0
-15 -1768 0
-18 -1770 0
-21 -1773 0
-18 -1776 0
-19 -1777 0
-21 -1780 0
-15 -1807 0
-20 -1810 0
-21 -1812 0
-18 -1815 0
-20 -1816 0
-21 -1819 0
-18 -1833 0
-20 -1834 0
-21 -1837 0
-15 -1851 0
-16 -1852 0
-18 -1854 0
-20 -1855 0
-21 -1857 0
-15 -1865 0
-17 -1866 0
-18 -1867 0
-20 -1868 0
-21 -1871 0
-15 -1872 0
-18 -1874 0
-20 -1875 0
-21 -1877 0
-15 -1886 0
-18 -1888 0
-20 -1889 0
-21 -1891 0
-15 -1892 0
-19 -1894 0
-20 -1895 0
-21 -1898 0
-15 -1900 0
-20 -1902 0
-21 -1904 0
-15 -1912 0
-18 -1914 0
-21 -1917 0
-15 -1924 0
-18 -1926 0
-19 -1927 0
-21 -1930 0
-18 -1940 0
-19 -1941 0
-21 -1944 0
-18 -1946 0
-19 -1947 0
-20 -1948 0
-21 -1950 0
-23 -171 0
-24 -172 0
-25 -174 0
-26 -177 0
-27 -178 0
-23 -222 0
-24 -223 0
-25 -225 0
-27 -227 0
-23 -265 0
-24 -266 0
-25 -267 0
-27 -270 0
-24 -278 0
-25 -280 0
-27 -283 0
-24 -292 0
-25 -293 0
-27 -296 0
-23 -410 0
-25 -412 0
-27 -414 0
-23 -453 0
-25 -455 0
-27 -458 0
-24 -469 0
-25 -471 0
-27 -474 0
-24 -491 0
-25 -493 0
-27 -496 0
-23 -503 0
-25 -505 0
-26 -507 0
-27 -508 0
-24 -516 0
-25 -518 0
-26 -520 0
-27 -521 0
-24 -537 0
-25 -539 0
-26 -543 0
-27 -544 0
-24 -552 0
-25 -554 0
-26 -557 0
-27 -558 0
-24 -560 0
-25 -561 0
-26 -564 0
-27 -565 0
-23 -606 0
-26 -610 0
-27 -611 0
-23 -649 0
-25 -651 0
-26 -654 0
-27 -655 0
-24 -662 0
-26 -667 0
-27 -668 0
-24 -682 0
-26 -686 0
-27 -687 0
-24 -704 0
-27 -709 0
-24 -717 0
-25 -718 0
-27 -723 0
-27 -755 0
-25 -763 0
-27 -767 0
-25 -770 0
-27 -773 0
-25 -775 0
-26 -779 0
-27 -780 0
-23 -846 0
-24 -847 0
-26 -849 0
-27 -850 0
-23 -868 0
-24 -869 0
-26 -872 0
-27 -873 0
-24 -886 0
-26 -890 0
-27 -891 0
-22 -899 0
-23 -900 0
-26 -902 0
-27 -903 0
-22 -939 0
-23 -940 0
-25 -941 0
-26 -945 0
-27 -946 0
-23 -955 0
-26 -958 0
-27 -959 0
-22 -961 0
-24 -962 0
-26 -967 0
-27 -968 0
-22 -977 0
-24 -978 0
-26 -980 0
-27 -981 0
-22 -989 0
-23 -990 0
-25 -991 0
-27 -994 0
-23 -1002 0
-27 -1006 0
-22 -1007 0
-24 -1008 0
-27 -1012 0
-22 -1020 0
-24 -1021 0
-27 -1024 0
-22 -1034 0
-24 -1035 0
-25 -1036 0
-27 -1039 0
-24 -1047 0
-27 -1051 0
-23 -1060 0
-26 -1066 0
-27 -1067 0
-23 -1100 0
-25 -1101 0
-26 -1104 0
-27 -1105 0
-24 -1107 0
-26 -1111 0
-27 -1112 0
-24 -1114 0
-26 -1118 0
-27 -1119 0
-23 -1120 0
-25 -1121 0
-27 -1125 0
-24 -1133 0
-27 -1138 0
-24 -1147 0
-27 -1151 0
-24 -1159 0
-25 -1160 0
-27 -1165 0
-22 -1167 0
-27 -1171 0
-22 -1180 0
-27 -1184 0
-22 -1193 0
-25 -1195 0
-27 -1198 0
-27 -1211 0
-22 -1213 0
-25 -1214 0
-27 -1218 0
-22 -1220 0
-25 -1222 0
-26 -1227 0
-27 -1228 0
-26 -1239 0
-27 -1240 0
-22 -1242 0
-25 -1243 0
-26 -1245 0
-27 -1246 0
-26 -1258 0
-27 -1259 0
-25 -1267 0
-26 -1271 0
-27 -1272 0
-23 -1273 0
-25 -1275 0
-26 -1277 0
-27 -1278 0
-23 -1307 0
-26 -1312 0
-27 -1313 0
-24 -1314 0
-25 -1316 0
-26 -1319 0
-27 -1320 0
-24 -1322 0
-25 -1323 0
-26 -1326 0
-27 -1327 0
-24 -1328 0
-25 -1329 0
-26 -1332 0
-27 -1333 0
-22 -1341 0
-25 -1343 0
-26 -1345 0
-27 -1346 0
-22 -1355 0
-25 -1357 0
-26 -1361 0
-27 -1362 0
-22 -1370 0
-26 -1375 0
-27 -1376 0
-25 -1385 0
-26 -1388 0
-27 -1389 0
-22 -1391 0
-26 -1395 0
-27 -1396 0
-25 -1398 0
-26 -1402 0
-27 -1403 0
-25 -1411 0
-27 -1415 0
-22 -1416 0
-27 -1421 0
-25 -1430 0
-27 -1434 0
-25 -1443 0
-26 -1447 0
-27 -1448 0
-25 -1451 0
-26 -1454 0
-27 -1455 0
-23 -1480 0
-24 -1481 0
-25 -1482 0
-26 -1485 0
-27 -1486 0
-22 -1499 0
-23 -1500 0
-25 -1502 0
-26 -1506 0
-27 -1507 0
-22 -1542 0
-23 -1543 0
-25 -1544 0
-26 -1547 0
-27 -1548 0
-23 -1556 0
-25 -1557 0
-26 -1560 0
-27 -1561 0
-22 -1562 0
-24 -1563 0
-25 -1565 0
-26 -1567 0
-27 -1568 0
-22 -1576 0
-24 -1577 0
-25 -1578 0
-26 -1583 0
-27 -1584 0
-23 -1591 0
-25 -1592 0
-27 -1596 0
-22 -1597 0
-24 -1598 0
-25 -1599 0
-27 -1602 0
-24 -1616 0
-25 -1617 0
-27 -1622 0
-23 -1623 0
-25 -1625 0
-26 -1628 0
-27 -1629 0
-23 -1654 0
-25 -1655 0
-26 -1658 0
-27 -1659 0
-24 -1660 0
-25 -1662 0
-26 -1667 0
-27 -1668 0
-24 -1670 0
-25 -1671 0
-26 -1673 0
-27 -1674 0
-24 -1675 0
-25 -1676 0
-27 -1681 0
-22 -1688 0
-25 -1690 0
-27 -1694 0
-22 -1702 0
-25 -1704 0
-27 -1707 0
-22 -1717 0
-25 -1719 0
-27 -1722 0
-25 -1732 0
-27 -1735 0
-22 -1737 0
-25 -1738 0
-27 -1741 0
-25 -1743 0
-27 -1747 0
-25 -1755 0
-26 -1759 0
-27 -1760 0
-22 -1761 0
-25 -1762 0
-26 -1766 0
-27 -1767 0
-25 -1775 0
-26 -1779 0
-27 -1780 0
-25 -1782 0
-26 -1786 0
-27 -1787 0
-24 -1794 0
-26 -1798 0
-27 -1799 0
-22 -1800 0
-26 -1805 0
-27 -1806 0
-26 -1824 0
-27 -1825 0
-22 -1826 0
-25 -1827 0
-26 -1830 0
-27 -1831 0
-26 -1836 0
-27 -1837 0
-26 -1843 0
-27 -1844 0
-22 -1845 0
-23 -1846 0
-26 -1849 0
-27 -1850 0
-22 -1865 0
-24 -1866 0
-26 -1870 0
-27 -1871 0
-22 -1872 0
-26 -1876 0
-27 -1877 0
-22 -1880 0
-26 -1883 0
-27 -1884 0
-22 -1892 0
-25 -1893 0
-26 -1897 0
-27 -1898 0
-22 -1906 0
-26 -1910 0
-27 -1911 0
-22 -1918 0
-27 -1923 0
-22 -1924 0
-26 -1929 0
-27 -1930 0
-22 -1932 0
-26 -1936 0
-27 -1937 0
-22 -1952 0
-25 -1953 0
-26 -1957 0
-27 -1958 0
-29 -161 0
-30 -162 0
-31 -164 0
-32 -166 0
-33 -168 0
-34 -169 0
-29 -265 0
-30 -266 0
-31 -267 0
-32 -269 0
-34 -270 0
-29 -271 0
-30 -272 0
-31 -273 0
-32 -274 0
-34 -277 0
-30 -278 0
-31 -280 0
-32 -281 0
-34 -283 0
-30 -285 0
-31 -286 0
-32 -288 0
-34 -290 0
-29 -355 0
-30 -356 0
-31 -358 0
-33 -359 0
-34 -360 0
-30 -396 0
-31 -397 0
-33 -399 0
-34 -401 0
-29 -403 0
-31 -405 0
-33 -406 0
-34 -408 0
-28 -452 0
-29 -453 0
-31 -455 0
-33 -457 0
-34 -458 0
-28 -459 0
-29 -460 0
-31 -462 0
-32 -463 0
-33 -465 0
-34 -467 0
-28 -468 0
-30 -469 0
-31 -471 0
-33 -473 0
-34 -474 0
-28 -481 0
-30 -483 0
-31 -485 0
-33 -487 0
-34 -489 0
-29 -503 0
-31 -505 0
-34 -508 0
-29 -509 0
-31 -511 0
-32 -513 0
-34 -515 0
-30 -516 0
-31 -518 0
-34 -521 0
-30 -530 0
-31 -532 0
-34 -535 0
-28 -559 0
-30 -560 0
-31 -561 0
-34 -565 0
-28 -566 0
-30 -567 0
-31 -568 0
-32 -569 0
-34 -571 0
-29 -649 0
-31 -651 0
-32 -653 0
-34 -655 0
-29 -656 0
-32 -659 0
-34 -661 0
-30 -662 0
-32 -665 0
-34 -668 0
-30 -676 0
-32 -679 0
-34 -680 0
-30 -717 0
-31 -718 0
-32 -720 0
-33 -722 0
-34 -723 0
-30 -724 0
-32 -726 0
-33 -727 0
-34 -729 0
-34 -748 0
-28 -768 0
-31 -770 0
-34 -773 0
-31 -775 0
-33 -778 0
-34 -780 0
-32 -782 0
-33 -784 0
-34 -786 0
-29 -839 0
-30 -840 0
-32 -841 0
-33 -842 0
-34 -844 0
-30 -886 0
-32 -888 0
-33 -889 0
-34 -891 0
-29 -893 0
-32 -895 0
-33 -896 0
-34 -897 0
-28 -938 0
-29 -940 0
-31 -941 0
-32 -943 0
-33 -944 0
-34 -946 0
-28 -947 0
-29 -949 0
-32 -950 0
-33 -952 0
-34 -953 0
-28 -960 0
-30 -962 0
-32 -964 0
-33 -966 0
-34 -968 0
-28 -969 0
-30 -971 0
-32 -973 0
-33 -974 0
-34 -975 0
-29 -990 0
-31 -991 0
-32 -992 0
-34 -994 0
-29 -996 0
-32 -998 0
-34 -1000 0
-30 -1008 0
-32 -1011 0
-34 -1012 0
-30 -1014 0
-32 -1015 0
-34 -1018 0
-28 -1040 0
-30 -1041 0
-31 -1042 0
-32 -1043 0
-34 -1045 0
-28 -1046 0
-30 -1047 0
-32 -1049 0
-34 -1051 0
-29 -1053 0
-33 -1057 0
-34 -1058 0
-28 -1099 0
-29 -1100 0
-31 -1101 0
-33 -1103 0
-34 -1105 0
-28 -1106 0
-30 -1107 0
-33 -1110 0
-34 -1112 0
-29 -1120 0
-31 -1121 0
-33 -1124 0
-34 -1125 0
-29 -1126 0
-32 -1128 0
-33 -1130 0
-34 -1132 0
-30 -1133 0
-33 -1137 0
-34 -1138 0
-30 -1140 0
-33 -1143 0
-34 -1145 0
-28 -1166 0
-33 -1170 0
-34 -1171 0
-28 -1172 0
-33 -1176 0
-34 -1178 0
-28 -1199 0
-31 -1201 0
-33 -1202 0
-34 -1204 0
-28 -1205 0
-32 -1208 0
-33 -1210 0
-34 -1211 0
-28 -1212 0
-31 -1214 0
-33 -1217 0
-34 -1218 0
-28 -1229 0
-31 -1231 0
-34 -1234 0
-28 -1235 0
-32 -1238 0
-34 -1240 0
-28 -1241 0
-31 -1243 0
-34 -1246 0
-28 -1247 0
-32 -1250 0
-34 -1253 0
-29 -1307 0
-32 -1309 0
-33 -1311 0
-34 -1313 0
-30 -1314 0
-31 -1316 0
-32 -1317 0
-33 -1318 0
-34 -1320 0
-31 -1343 0
-32 -1344 0
-34 -1346 0
-31 -1349 0
-32 -1351 0
-34 -1353 0
-28 -1377 0
-32 -1380 0
-34 -1382 0
-28 -1383 0
-31 -1385 0
-32 -1386 0
-34 -1389 0
-28 -1390 0
-32 -1393 0
-34 -1396 0
-32 -1405 0
-33 -1407 0
-34 -1409 0
-31 -1411 0
-32 -1413 0
-33 -1414 0
-34 -1415 0
-32 -1418 0
-33 -1420 0
-34 -1421 0
-31 -1423 0
-32 -1424 0
-33 -1426 0
-34 -1428 0
-31 -1443 0
-33 -1446 0
-34 -1448 0
-29 -1543 0
-31 -1544 0
-34 -1548 0
-29 -1550 0
-31 -1551 0
-32 -1552 0
-34 -1554 0
-30 -1563 0
-31 -1565 0
-34 -1568 0
-30 -1570 0
-31 -1571 0
-34 -1574 0
-30 -1610 0
-31 -1611 0
-33 -1613 0
-34 -1615 0
-30 -1616 0
-31 -1617 0
-32 -1619 0
-33 -1621 0
-34 -1622 0
-29 -1654 0
-31 -1655 0
-32 -1656 0
-33 -1657 0
-34 -1659 0
-30 -1660 0
-31 -1662 0
-32 -1664 0
-33 -1666 0
-34 -1668 0
-31 -1690 0
-32 -1692 0
-34 -1694 0
-31 -1697 0
-32 -1698 0
-34 -1700 0
-28 -1723 0
-31 -1725 0
-32 -1726 0
-34 -1729 0
-28 -1730 0
-31 -1732 0
-34 -1735 0
-28 -1736 0
-31 -1738 0
-32 -1740 0
-34 -1741 0
-31 -1749 0
-32 -1751 0
-33 -1752 0
-34 -1753 0
-31 -1755 0
-33 -1758 0
-34 -1760 0
-31 -1762 0
-32 -1763 0
-33 -1765 0
-34 -1767 0
-31 -1769 0
-33 -1771 0
-34 -1773 0
-31 -1814 0
-33 -1817 0
-34 -1819 0
-32 -1821 0
-33 -1823 0
-34 -1825 0
-31 -1827 0
-33 -1829 0
-34 -1831 0
-30 -1866 0
-33 -1869 0
-34 -1871 0
-34 -1877 0
-28 -1899 0
-31 -1901 0
-34 -1904 0
-28 -1905 0
-32 -1908 0
-34 -1911 0
-31 -1913 0
-33 -1915 0
-34 -1917 0
-32 -1920 0
-33 -1922 0
-34 -1923 0
-32 -1927 0
-33 -1928 0
-34 -1930 0
-28 -1938 0
-31 -1939 0
-32 -1941 0
-33 -1942 0
-34 -1944 0
-31 -1945 0
-32 -1947 0
-34 -1950 0
-36 -154 0
-39 -155 0
-40 -157 0
-41 -159 0
-36 -216 0
-39 -217 0
-40 -218 0
-41 -221 0
-36 -265 0
-37 -266 0
-39 -267 0
-40 -269 0
-41 -270 0
-36 -271 0
-37 -272 0
-39 -273 0
-40 -274 0
-41 -277 0
-36 -453 0
-38 -454 0
-39 -455 0
-41 -458 0
-36 -460 0
-38 -461 0
-39 -462 0
-40 -463 0
-41 -467 0
-36 -476 0
-39 -477 0
-41 -480 0
-36 -503 0
-38 -504 0
-39 -505 0
-41 -508 0
-36 -509 0
-38 -510 0
-39 -511 0
-40 -513 0
-41 -515 0
-36 -523 0
-39 -524 0
-41 -528 0
-37 -552 0
-38 -553 0
-39 -554 0
-40 -555 0
-41 -558 0
-37 -560 0
-39 -561 0
-41 -565 0
-37 -567 0
-39 -568 0
-40 -569 0
-41 -571 0
-36 -649 0
-38 -650 0
-39 -651 0
-40 -653 0
-41 -655 0
-36 -656 0
-38 -657 0
-40 -659 0
-41 -661 0
-36 -670 0
-40 -672 0
-41 -674 0
-36 -697 0
-40 -699 0
-41 -703 0
-37 -717 0
-39 -718 0
-40 -720 0
-41 -723 0
-37 -724 0
-40 -726 0
-41 -729 0
-38 -762 0
-39 -763 0
-40 -765 0
-41 -767 0
-38 -769 0
-39 -770 0
-41 -773 0
-38 -774 0
-39 -775 0
-41 -780 0
-38 -781 0
-40 -782 0
-41 -786 0
-35 -939 0
-36 -940 0
-39 -941 0
-40 -943 0
-41 -946 0
-35 -948 0
-36 -949 0
-40 -950 0
-41 -953 0
-36 -955 0
-40 -956 0
-41 -959 0
-35 -989 0
-36 -990 0
-39 -991 0
-40 -992 0
-41 -994 0
-35 -995 0
-36 -996 0
-40 -998 0
-41 -1000 0
-36 -1002 0
-40 -1004 0
-41 -1006 0
-35 -1034 0
-37 -1035 0
-39 -1036 0
-40 -1037 0
-41 -1039 0
-37 -1041 0
-39 -1042 0
-40 -1043 0
-41 -1045 0
-37 -1047 0
-40 -1049 0
-41 -1051 0
-36 -1100 0
-39 -1101 0
-41 -1105 0
-36 -1120 0
-39 -1121 0
-41 -1125 0
-36 -1126 0
-40 -1128 0
-41 -1132 0
-37 -1159 0
-39 -1160 0
-40 -1162 0
-41 -1165 0
-35 -1193 0
-38 -1194 0
-39 -1195 0
-40 -1196 0
-41 -1198 0
-38 -1200 0
-39 -1201 0
-41 -1204 0
-38 -1206 0
-40 -1208 0
-41 -1211 0
-35 -1213 0
-39 -1214 0
-41 -1218 0
-35 -1220 0
-38 -1221 0
-39 -1222 0
-40 -1224 0
-41 -1228 0
-38 -1230 0
-39 -1231 0
-41 -1234 0
-38 -1236 0
-40 -1238 0
-41 -1240 0
-35 -1242 0
-39 -1243 0
-41 -1246 0
-35 -1248 0
-40 -1250 0
-41 -1253 0
-41 -1259 0
-36 -1307 0
-40 -1309 0
-41 -1313 0
-35 -1370 0
-38 -1371 0
-40 -1373 0
-41 -1376 0
-38 -1378 0
-40 -1380 0
-41 -1382 0
-38 -1384 0
-39 -1385 0
-40 -1386 0
-41 -1389 0
-35 -1391 0
-40 -1393 0
-41 -1396 0
-39 -1398 0
-40 -1400 0
-41 -1403 0
-38 -1404 0
-40 -1405 0
-41 -1409 0
-38 -1410 0
-39 -1411 0
-40 -1413 0
-41 -1415 0
-35 -1416 0
-40 -1418 0
-41 -1421 0
-35 -1422 0
-39 -1423 0
-40 -1424 0
-41 -1428 0
-39 -1430 0
-40 -1431 0
-41 -1434 0
-35 -1542 0
-36 -1543 0
-39 -1544 0
-41 -1548 0
-35 -1549 0
-36 -1550 0
-39 -1551 0
-40 -1552 0
-41 -1554 0
-36 -1556 0
-39 -1557 0
-41 -1561 0
-36 -1591 0
-39 -1592 0
-41 -1596 0
-37 -1610 0
-39 -1611 0
-41 -1615 0
-37 -1616 0
-39 -1617 0
-40 -1619 0
-41 -1622 0
-36 -1654 0
-39 -1655 0
-40 -1656 0
-41 -1659 0
-35 -1717 0
-38 -1718 0
-39 -1719 0
-41 -1722 0
-38 -1724 0
-39 -1725 0
-40 -1726 0
-41 -1729 0
-38 -1731 0
-39 -1732 0
-41 -1735 0
-35 -1737 0
-39 -1738 0
-40 -1740 0
-41 -1741 0
-39 -1743 0
-40 -1744 0
-41 -1747 0
-38 -1748 0
-39 -1749 0
-40 -1751 0
-41 -1753 0
-38 -1754 0
-39 -1755 0
-41 -1760 0
-35 -1761 0
-39 -1762 0
-40 -1763 0
-41 -1767 0
-35 -1768 0
-39 -1769 0
-41 -1773 0
-39 -1775 0
-40 -1777 0
-41 -1780 0
-38 -1813 0
-39 -1814 0
-41 -1819 0
-38 -1820 0
-40 -1821 0
-41 -1825 0
-35 -1826 0
-39 -1827 0
-41 -1831 0
-41 -1837 0
-35 -1892 0
-39 -1893 0
-40 -1894 0
-41 -1898 0
-35 -1900 0
-39 -1901 0
-41 -1904 0
-35 -1906 0
-40 -1908 0
-41 -1911 0
-35 -1912 0
-39 -1913 0
-41 -1917 0
-35 -1918 0
-40 -1920 0
-41 -1923 0
-39 -1939 0
-40 -1941 0
-41 -1944 0
-39 -1945 0
-40 -1947 0
-41 -1950 0
-42 -87 0
-43 -88 0
-44 -89 0
-45 -90 0
-46 -91 0
-47 -92 0
-48 -93 0
-42 -145 0
-43 -146 0
-44 -148 0
-46 -150 0
-47 -151 0
-48 -152 0
-42 -228 0
-43 -229 0
-45 -231 0
-46 -234 0
-47 -235 0
-48 -236 0
-42 -247 0
-43 -248 0
-46 -250 0
-47 -251 0
-48 -252 0
-42 -254 0
-43 -255 0
-46 -256 0
-47 -257 0
-48 -258 0
-43 -260 0
-46 -262 0
-47 -263 0
-48 -264 0
-43 -298 0
-46 -301 0
-47 -302 0
-48 -303 0
-42 -347 0
-43 -348 0
-44 -350 0
-45 -351 0
-47 -353 0
-48 -354 0
-42 -383 0
-43 -384 0
-45 -385 0
-47 -387 0
-48 -388 0
-43 -389 0
-45 -391 0
-47 -394 0
-48 -395 0
-42 -416 0
-45 -418 0
-47 -420 0
-48 -421 0
-42 -434 0
-47 -436 0
-48 -437 0
-42 -439 0
-46 -442 0
-47 -443 0
-48 -444 0
-43 -447 0
-47 -450 0
-48 -451 0
-43 -498 0
-47 -501 0
-48 -502 0
-42 -509 0
-44 -511 0
-45 -512 0
-47 -514 0
-48 -515 0
-43 -516 0
-44 -518 0
-45 -519 0
-47 -520 0
-48 -521 0
-42 -523 0
-44 -524 0
-46 -526 0
-47 -527 0
-48 -528 0
-43 -530 0
-44 -532 0
-47 -534 0
-48 -535 0
-43 -537 0
-44 -539 0
-46 -542 0
-47 -543 0
-48 -544 0
-43 -567 0
-44 -568 0
-47 -570 0
-48 -571 0
-42 -588 0
-43 -589 0
-44 -591 0
-46 -592 0
-48 -593 0
-42 -612 0
-44 -614 0
-46 -617 0
-48 -618 0
-42 -627 0
-44 -629 0
-45 -630 0
-46 -632 0
-47 -633 0
-48 -634 0
-42 -636 0
-44 -638 0
-45 -639 0
-46 -640 0
-48 -641 0
-43 -643 0
-44 -645 0
-45 -646 0
-46 -647 0
-48 -648 0
-43 -689 0
-44 -691 0
-45 -692 0
-46 -695 0
-48 -696 0
-42 -697 0
-45 -698 0
-46 -701 0
-47 -702 0
-48 -703 0
-43 -704 0
-45 -706 0
-46 -708 0
-48 -709 0
-43 -724 0
-45 -725 0
-46 -727 0
-47 -728 0
-48 -729 0
-43 -736 0
-44 -738 0
-48 -741 0
-45 -745 0
-47 -747 0
-48 -748 0
-45 -751 0
-46 -754 0
-48 -755 0
-44 -775 0
-45 -776 0
-46 -778 0
-47 -779 0
-48 -780 0
-42 -833 0
-43 -834 0
-44 -835 0
-45 -836 0
-48 -837 0
-42 -874 0
-43 -875 0
-44 -876 0
-45 -877 0
-48 -879 0
-43 -881 0
-44 -882 0
-45 -883 0
-48 -885 0
-42 -906 0
-44 -908 0
-45 -909 0
-48 -912 0
-42 -921 0
-44 -922 0
-47 -924 0
-48 -925 0
-42 -928 0
-44 -929 0
-46 -930 0
-48 -931 0
-43 -934 0
-44 -936 0
-48 -937 0
-43 -984 0
-44 -985 0
-48 -988 0
-42 -996 0
-45 -997 0
-47 -999 0
-48 -1000 0
-42 -1002 0
-45 -1003 0
-46 -1005 0
-48 -1006 0
-43 -1008 0
-45 -1010 0
-48 -1012 0
-43 -1014 0
-47 -1017 0
-48 -1018 0
-43 -1021 0
-46 -1023 0
-48 -1024 0
-43 -1047 0
-45 -1048 0
-48 -1051 0
-42 -1069 0
-44 -1071 0
-45 -1072 0
-46 -1073 0
-48 -1074 0
-42 -1083 0
-44 -1084 0
-45 -1085 0
-48 -1088 0
-43 -1091 0
-44 -1093 0
-45 -1094 0
-46 -1097 0
-48 -1098 0
-42 -1126 0
-45 -1127 0
-46 -1130 0
-47 -1131 0
-48 -1132 0
-43 -1133 0
-45 -1135 0
-46 -1137 0
-48 -1138 0
-43 -1140 0
-45 -1141 0
-46 -1143 0
-47 -1144 0
-48 -1145 0
-43 -1147 0
-45 -1148 0
-48 -1151 0
-45 -1169 0
-46 -1170 0
-48 -1171 0
-46 -1176 0
-47 -1177 0
-48 -1178 0
-48 -1184 0
-45 -1207 0
-46 -1210 0
-48 -1211 0
-44 -1222 0
-45 -1223 0
-46 -1226 0
-47 -1227 0
-48 -1228 0
-44 -1231 0
-45 -1232 0
-48 -1234 0
-44 -1243 0
-47 -1245 0
-48 -1246 0
-44 -1267 0
-45 -1268 0
-46 -1270 0
-47 -1271 0
-48 -1272 0
-42 -1279 0
-44 -1281 0
-45 -1282 0
-47 -1284 0
-48 -1285 0
-42 -1294 0
-44 -1295 0
-46 -1297 0
-47 -1298 0
-48 -1299 0
-43 -1301 0
-44 -1303 0
-47 -1305 0
-48 -1306 0
-43 -1328 0
-44 -1329 0
-46 -1331 0
-47 -1332 0
-48 -1333 0
-44 -1343 0
-47 -1345 0
-48 -1346 0
-44 -1349 0
-45 -1350 0
-48 -1353 0
-44 -1357 0
-45 -1358 0
-46 -1360 0
-47 -1361 0
-48 -1362 0
-44 -1385 0
-47 -1388 0
-48 -1389 0
-44 -1398 0
-45 -1399 0
-46 -1401 0
-47 -1402 0
-48 -1403 0
-46 -1407 0
-47 -1408 0
-48 -1409 0
-45 -1417 0
-46 -1420 0
-48 -1421 0
-44 -1443 0
-45 -1444 0
-46 -1446 0
-47 -1447 0
-48 -1448 0
-44 -1451 0
-47 -1454 0
-48 -1455 0
-42 -1472 0
-43 -1473 0
-44 -1474 0
-45 -1475 0
-46 -1478 0
-48 -1479 0
-42 -1509 0
-45 -1511 0
-46 -1513 0
-48 -1514 0
-42 -1523 0
-46 -1525 0
-47 -1526 0
-48 -1527 0
-42 -1530 0
-46 -1533 0
-48 -1534 0
-43 -1536 0
-46 -1540 0
-48 -1541 0
-43 -1587 0
-46 -1589 0
-48 -1590 0
-42 -1591 0
-44 -1592 0
-45 -1593 0
-46 -1595 0
-48 -1596 0
-43 -1598 0
-44 -1599 0
-46 -1601 0
-48 -1602 0
-43 -1616 0
-44 -1617 0
-45 -1618 0
-46 -1621 0
-48 -1622 0
-42 -1630 0
-45 -1632 0
-48 -1635 0
-42 -1643 0
-45 -1644 0
-46 -1646 0
-48 -1647 0
-43 -1649 0
-45 -1651 0
-48 -1653 0
-43 -1675 0
-44 -1676 0
-45 -1677 0
-46 -1680 0
-48 -1681 0
-44 -1690 0
-45 -1691 0
-48 -1694 0
-44 -1697 0
-47 -1699 0
-48 -1700 0
-44 -1704 0
-46 -1706 0
-48 -1707 0
-44 -1732 0
-45 -1733 0
-48 -1735 0
-44 -1743 0
-46 -1746 0
-48 -1747 0
-44 -1749 0
-45 -1750 0
-46 -1752 0
-48 -1753 0
-44 -1762 0
-46 -1765 0
-47 -1766 0
-48 -1767 0
-44 -1782 0
-45 -1783 0
-47 -1786 0
-48 -1787 0
-42 -1788 0
-44 -1789 0
-46 -1791 0
-47 -1792 0
-48 -1793 0
-45 -1802 0
-46 -1804 0
-47 -1805 0
-48 -1806 0
-46 -1823 0
-47 -1824 0
-48 -1825 0
-45 -1833 0
-46 -1835 0
-47 -1836 0
-48 -1837 0
-46 -1842 0
-47 -1843 0
-48 -1844 0
-42 -1852 0
-44 -1853 0
-45 -1854 0
-47 -1856 0
-48 -1857 0
-43 -1859 0
-44 -1860 0
-45 -1861 0
-47 -1863 0
-48 -1864 0
-45 -1874 0
-47 -1876 0
-48 -1877 0
-46 -1882 0
-47 -1883 0
-48 -1884 0
-45 -1907 0
-47 -1910 0
-48 -1911 0
-44 -1913 0
-45 -1914 0
-46 -1915 0
-47 -1916 0
-48 -1917 0
-45 -1926 0
-46 -1928 0
-47 -1929 0
-48 -1930 0
-45 -1933 0
-47 -1936 0
-48 -1937 0
-44 -1945 0
-45 -1946 0
-47 -1949 0
-48 -1950 0
-44 -1953 0
-46 -1956 0
-47 -1957 0
-48 -1958 0
-49 -81 0
-50 -82 0
-51 -83 0
-52 -84 0
-53 -85 0
-54 -86 0
-49 -136 0
-50 -137 0
-51 -140 0
-53 -141 0
-54 -142 0
-49 -222 0
-50 -223 0
-53 -226 0
-54 -227 0
-49 -238 0
-50 -239 0
-52 -242 0
-53 -243 0
-54 -245 0
-49 -254 0
-50 -255 0
-53 -256 0
-54 -258 0
-50 -260 0
-53 -262 0
-54 -264 0
-50 -292 0
-53 -295 0
-54 -296 0
-49 -340 0
-50 -341 0
-51 -343 0
-52 -344 0
-54 -345 0
-49 -376 0
-50 -377 0
-51 -379 0
-52 -380 0
-54 -382 0
-50 -389 0
-51 -392 0
-52 -393 0
-54 -395 0
-49 -410 0
-51 -413 0
-54 -414 0
-49 -424 0
-51 -428 0
-52 -429 0
-54 -431 0
-49 -439 0
-51 -441 0
-53 -442 0
-54 -444 0
-50 -447 0
-51 -449 0
-54 -451 0
-50 -491 0
-51 -495 0
-54 -496 0
-49 -503 0
-52 -506 0
-54 -508 0
-50 -516 0
-54 -521 0
-49 -523 0
-52 -525 0
-53 -526 0
-54 -528 0
-50 -530 0
-52 -533 0
-54 -535 0
-50 -546 0
-53 -549 0
-54 -551 0
-50 -560 0
-52 -563 0
-54 -565 0
-49 -578 0
-50 -579 0
-51 -583 0
-52 -584 0
-53 -585 0
-54 -587 0
-49 -606 0
-53 -609 0
-54 -611 0
-49 -620 0
-52 -623 0
-53 -624 0
-54 -625 0
-49 -636 0
-53 -640 0
-54 -641 0
-50 -643 0
-53 -647 0
-54 -648 0
-50 -682 0
-53 -685 0
-54 -687 0
-49 -697 0
-51 -699 0
-52 -700 0
-53 -701 0
-54 -703 0
-50 -710 0
-51 -713 0
-53 -714 0
-54 -716 0
-50 -717 0
-51 -720 0
-52 -721 0
-53 -722 0
-54 -723 0
-49 -730 0
-51 -733 0
-52 -734 0
-54 -735 0
-50 -736 0
-51 -739 0
-52 -740 0
-54 -741 0
-52 -746 0
-54 -748 0
-53 -759 0
-54 -761 0
-52 -772 0
-54 -773 0
-51 -782 0
-52 -783 0
-53 -784 0
-54 -786 0
-49 -824 0
-50 -825 0
-51 -827 0
-52 -828 0
-54 -830 0
-49 -868 0
-50 -869 0
-52 -871 0
-54 -873 0
-50 -881 0
-52 -884 0
-54 -885 0
-49 -900 0
-54 -903 0
-49 -915 0
-52 -917 0
-54 -918 0
-49 -928 0
-53 -930 0
-54 -931 0
-50 -934 0
-54 -937 0
-50 -978 0
-54 -981 0
-49 -990 0
-51 -992 0
-52 -993 0
-54 -994 0
-49 -1002 0
-51 -1004 0
-53 -1005 0
-54 -1006 0
-50 -1008 0
-51 -1011 0
-54 -1012 0
-50 -1014 0
-51 -1015 0
-52 -1016 0
-54 -1018 0
-50 -1027 0
-51 -1030 0
-53 -1031 0
-54 -1033 0
-50 -1041 0
-51 -1043 0
-54 -1045 0
-49 -1060 0
-51 -1063 0
-52 -1064 0
-53 -1065 0
-54 -1067 0
-49 -1077 0
-51 -1078 0
-52 -1079 0
-53 -1080 0
-54 -1081 0
-49 -1083 0
-51 -1086 0
-52 -1087 0
-54 -1088 0
-50 -1091 0
-51 -1095 0
-52 -1096 0
-53 -1097 0
-54 -1098 0
-50 -1114 0
-51 -1115 0
-52 -1116 0
-53 -1117 0
-54 -1119 0
-49 -1120 0
-52 -1123 0
-53 -1124 0
-54 -1125 0
-50 -1133 0
-52 -1136 0
-53 -1137 0
-54 -1138 0
-50 -1140 0
-52 -1142 0
-53 -1143 0
-54 -1145 0
-50 -1153 0
-52 -1156 0
-54 -1158 0
-53 -1170 0
-54 -1171 0
-52 -1175 0
-53 -1176 0
-54 -1178 0
-54 -1191 0
-53 -1202 0
-54 -1204 0
-52 -1216 0
-53 -1217 0
-54 -1218 0
-51 -1224 0
-52 -1225 0
-53 -1226 0
-54 -1228 0
-51 -1238 0
-54 -1240 0
-51 -1250 0
-52 -1251 0
-54 -1253 0
-51 -1262 0
-52 -1263 0
-53 -1264 0
-54 -1265 0
-49 -1273 0
-52 -1276 0
-54 -1278 0
-49 -1287 0
-52 -1290 0
-54 -1292 0
-49 -1294 0
-52 -1296 0
-53 -1297 0
-54 -1299 0
-50 -1301 0
-52 -1304 0
-54 -1306 0
-50 -1322 0
-52 -1325 0
-54 -1327 0
-50 -1334 0
-51 -1337 0
-52 -1338 0
-53 -1339 0
-54 -1340 0
-51 -1344 0
-54 -1346 0
-51 -1351 0
-52 -1352 0
-54 -1353 0
-51 -1367 0
-53 -1368 0
-54 -1369 0
-51 -1380 0
-54 -1382 0
-51 -1393 0
-52 -1394 0
-54 -1396 0
-51 -1400 0
-53 -1401 0
-54 -1403 0
-51 -1413 0
-53 -1414 0
-54 -1415 0
-51 -1424 0
-52 -1425 0
-53 -1426 0
-54 -1428 0
-51 -1437 0
-52 -1438 0
-54 -1440 0
-52 -1445 0
-53 -1446 0
-54 -1448 0
-49 -1465 0
-50 -1466 0
-51 -1467 0
-53 -1468 0
-54 -1470 0
-49 -1500 0
-51 -1503 0
-52 -1504 0
-53 -1505 0
-54 -1507 0
-49 -1516 0
-51 -1519 0
-53 -1520 0
-54 -1521 0
-49 -1530 0
-51 -1531 0
-52 -1532 0
-53 -1533 0
-54 -1534 0
-50 -1536 0
-51 -1538 0
-52 -1539 0
-53 -1540 0
-54 -1541 0
-50 -1577 0
-51 -1580 0
-52 -1581 0
-53 -1582 0
-54 -1584 0
-49 -1591 0
-52 -1594 0
-53 -1595 0
-54 -1596 0
-50 -1604 0
-52 -1606 0
-53 -1607 0
-54 -1609 0
-50 -1610 0
-52 -1612 0
-53 -1613 0
-54 -1615 0
-49 -1623 0
-51 -1627 0
-54 -1629 0
-49 -1637 0
-51 -1639 0
-52 -1640 0
-54 -1641 0
-49 -1643 0
-51 -1645 0
-53 -1646 0
-54 -1647 0
-50 -1649 0
-51 -1652 0
-54 -1653 0
-50 -1670 0
-51 -1672 0
-54 -1674 0
-50 -1682 0
-51 -1684 0
-53 -1685 0
-54 -1687 0
-51 -1692 0
-52 -1693 0
-54 -1694 0
-51 -1698 0
-54 -1700 0
-51 -1712 0
-52 -1713 0
-53 -1714 0
-54 -1716 0
-51 -1726 0
-52 -1727 0
-54 -1729 0
-51 -1740 0
-54 -1741 0
-51 -1744 0
-52 -1745 0
-53 -1746 0
-54 -1747 0
-52 -1757 0
-53 -1758 0
-54 -1760 0
-53 -1771 0
-54 -1773 0
-49 -1788 0
-51 -1790 0
-53 -1791 0
-54 -1793 0
-50 -1794 0
-51 -1796 0
-53 -1797 0
-54 -1799 0
-52 -1810 0
-53 -1811 0
-54 -1812 0
-52 -1816 0
-53 -1817 0
-54 -1819 0
-53 -1829 0
-54 -1831 0
-52 -1834 0
-53 -1835 0
-54 -1837 0
-49 -1846 0
-51 -1848 0
-54 -1850 0
-50 -1859 0
-51 -1862 0
-54 -1864 0
-52 -1875 0
-54 -1877 0
-52 -1889 0
-53 -1890 0
-54 -1891 0
-52 -1902 0
-54 -1904 0
-51 -1920 0
-52 -1921 0
-53 -1922 0
-54 -1923 0
-51 -1927 0
-53 -1928 0
-54 -1930 0
-51 -1941 0
-53 -1942 0
-54 -1944 0
-55 -122 0
-59 -124 0
-60 -125 0
-61 -126 0
-55 -216 0
-59 -219 0
-60 -220 0
-61 -221 0
-55 -238 0
-56 -239 0
-58 -242 0
-59 -243 0
-60 -244 0
-61 -245 0
-55 -247 0
-56 -248 0
-59 -250 0
-60 -251 0
-61 -252 0
-55 -254 0
-56 -255 0
-59 -256 0
-60 -257 0
-61 -258 0
-55 -325 0
-58 -327 0
-60 -328 0
-61 -329 0
-55 -376 0
-56 -377 0
-58 -380 0
-60 -381 0
-61 -382 0
-55 -383 0
-56 -384 0
-58 -386 0
-60 -387 0
-61 -388 0
-55 -424 0
-57 -425 0
-58 -429 0
-60 -430 0
-61 -431 0
-55 -434 0
-57 -435 0
-60 -436 0
-61 -437 0
-55 -439 0
-57 -440 0
-59 -442 0
-60 -443 0
-61 -444 0
-55 -476 0
-60 -479 0
-61 -480 0
-55 -503 0
-57 -504 0
-58 -506 0
-60 -507 0
-61 -508 0
-55 -509 0
-57 -510 0
-60 -514 0
-61 -515 0
-56 -530 0
-57 -531 0
-58 -533 0
-60 -534 0
-61 -535 0
-56 -537 0
-57 -538 0
-58 -541 0
-59 -542 0
-60 -543 0
-61 -544 0
-56 -546 0
-57 -547 0
-59 -549 0
-60 -550 0
-61 -551 0
-56 -560 0
-58 -563 0
-60 -564 0
-61 -565 0
-56 -567 0
-60 -570 0
-61 -571 0
-55 -572 0
-58 -575 0
-59 -576 0
-61 -577 0
-55 -620 0
-57 -621 0
-58 -623 0
-59 -624 0
-61 -625 0
-55 -627 0
-57 -628 0
-59 -632 0
-60 -633 0
-61 -634 0
-55 -636 0
-57 -637 0
-59 -640 0
-61 -641 0
-55 -670 0
-59 -673 0
-61 -674 0
-56 -704 0
-57 -705 0
-58 -707 0
-59 -708 0
-61 -709 0
-56 -710 0
-57 -711 0
-59 -714 0
-60 -715 0
-61 -716 0
-56 -717 0
-58 -721 0
-59 -722 0
-61 -723 0
-56 -724 0
-59 -727 0
-60 -728 0
-61 -729 0
-55 -730 0
-57 -731 0
-58 -734 0
-61 -735 0
-57 -744 0
-58 -746 0
-60 -747 0
-61 -748 0
-57 -750 0
-58 -753 0
-59 -754 0
-61 -755 0
-57 -757 0
-59 -759 0
-60 -760 0
-61 -761 0
-57 -769 0
-58 -772 0
-61 -773 0
-55 -915 0
-58 -917 0
-61 -918 0
-55 -921 0
-60 -924 0
-61 -925 0
-55 -928 0
-59 -930 0
-61 -931 0
-55 -990 0
-58 -993 0
-61 -994 0
-55 -996 0
-60 -999 0
-61 -1000 0
-55 -1002 0
-59 -1005 0
-61 -1006 0
-56 -1014 0
-58 -1016 0
-60 -1017 0
-61 -1018 0
-56 -1021 0
-58 -1022 0
-59 -1023 0
-61 -1024 0
-56 -1027 0
-59 -1031 0
-60 -1032 0
-61 -1033 0
-55 -1077 0
-58 -1079 0
-59 -1080 0
-61 -1081 0
-55 -1083 0
-58 -1087 0
-61 -1088 0
-55 -1120 0
-58 -1123 0
-59 -1124 0
-61 -1125 0
-55 -1126 0
-58 -1129 0
-59 -1130 0
-60 -1131 0
-61 -1132 0
-56 -1140 0
-58 -1142 0
-59 -1143 0
-60 -1144 0
-61 -1145 0
-56 -1147 0
-58 -1150 0
-61 -1151 0
-56 -1153 0
-58 -1156 0
-60 -1157 0
-61 -1158 0
-57 -1174 0
-58 -1175 0
-59 -1176 0
-60 -1177 0
-61 -1178 0
-57 -1181 0
-58 -1183 0
-61 -1184 0
-57 -1187 0
-60 -1190 0
-61 -1191 0
-58 -1216 0
-59 -1217 0
-61 -1218 0
-57 -1221 0
-58 -1225 0
-59 -1226 0
-60 -1227 0
-61 -1228 0
-57 -1230 0
-58 -1233 0
-61 -1234 0
-57 -1236 0
-60 -1239 0
-61 -1240 0
-58 -1263 0
-59 -1264 0
-61 -1265 0
-59 -1270 0
-60 -1271 0
-61 -1272 0
-55 -1287 0
-58 -1290 0
-60 -1291 0
-61 -1292 0
-55 -1294 0
-58 -1296 0
-59 -1297 0
-60 -1298 0
-61 -1299 0
-56 -1328 0
-58 -1330 0
-59 -1331 0
-60 -1332 0
-61 -1333 0
-56 -1334 0
-58 -1338 0
-59 -1339 0
-61 -1340 0
-57 -1348 0
-58 -1352 0
-61 -1353 0
-57 -1356 0
-58 -1359 0
-59 -1360 0
-60 -1361 0
-61 -1362 0
-57 -1365 0
-59 -1368 0
-61 -1369 0
-58 -1394 0
-60 -1395 0
-61 -1396 0
-59 -1401 0
-60 -1402 0
-61 -1403 0
-57 -1404 0
-58 -1406 0
-59 -1407 0
-60 -1408 0
-61 -1409 0
-57 -1410 0
-59 -1414 0
-61 -1415 0
-58 -1438 0
-60 -1439 0
-61 -1440 0
-57 -1450 0
-58 -1453 0
-60 -1454 0
-61 -1455 0
-55 -1516 0
-59 -1520 0
-61 -1521 0
-55 -1523 0
-58 -1524 0
-59 -1525 0
-60 -1526 0
-61 -1527 0
-55 -1530 0
-58 -1532 0
-59 -1533 0
-61 -1534 0
-55 -1591 0
-58 -1594 0
-59 -1595 0
-61 -1596 0
-56 -1598 0
-59 -1601 0
-61 -1602 0
-56 -1604 0
-58 -1606 0
-59 -1607 0
-60 -1608 0
-61 -1609 0
-55 -1637 0
-58 -1640 0
-61 -1641 0
-55 -1643 0
-59 -1646 0
-61 -1647 0
-56 -1675 0
-58 -1679 0
-59 -1680 0
-61 -1681 0
-56 -1682 0
-59 -1685 0
-60 -1686 0
-61 -1687 0
-57 -1696 0
-60 -1699 0
-61 -1700 0
-57 -1703 0
-59 -1706 0
-61 -1707 0
-57 -1710 0
-58 -1713 0
-59 -1714 0
-60 -1715 0
-61 -1716 0
-61 -1741 0
-58 -1745 0
-59 -1746 0
-61 -1747 0
-57 -1748 0
-59 -1752 0
-61 -1753 0
-57 -1754 0
-58 -1757 0
-59 -1758 0
-60 -1759 0
-61 -1760 0
-58 -1785 0
-60 -1786 0
-61 -1787 0
-55 -1788 0
-59 -1791 0
-60 -1792 0
-61 -1793 0
-57 -1801 0
-59 -1804 0
-60 -1805 0
-61 -1806 0
-57 -1808 0
-58 -1810 0
-59 -1811 0
-61 -1812 0
-59 -1829 0
-60 -1830 0
-61 -1831 0
-58 -1834 0
-59 -1835 0
-60 -1836 0
-61 -1837 0
-57 -1839 0
-58 -1841 0
-59 -1842 0
-60 -1843 0
-61 -1844 0
-59 -1882 0
-60 -1883 0
-61 -1884 0
-58 -1889 0
-59 -1890 0
-61 -1891 0
-59 -1915 0
-60 -1916 0
-61 -1917 0
-58 -1921 0
-59 -1922 0
-61 -1923 0
-58 -1935 0
-60 -1936 0
-61 -1937 0
-58 -1948 0
-60 -1949 0
-61 -1950 0
-58 -1955 0
-59 -1956 0
-60 -1957 0
-61 -1958 0
-63 -109 0
-66 -112 0
-67 -113 0
-63 -216 0
-66 -219 0
-67 -221 0
-63 -222 0
-64 -223 0
-66 -226 0
-67 -227 0
-63 -228 0
-64 -229 0
-65 -231 0
-66 -234 0
-67 -236 0
-63 -254 0
-64 -255 0
-66 -256 0
-67 -258 0
-63 -410 0
-67 -414 0
-63 -416 0
-65 -418 0
-67 -421 0
-63 -439 0
-66 -442 0
-67 -444 0
-63 -503 0
-67 -508 0
-63 -509 0
-65 -512 0
-67 -515 0
-64 -516 0
-65 -519 0
-67 -521 0
-63 -523 0
-66 -526 0
-67 -528 0
-64 -537 0
-66 -542 0
-67 -544 0
-64 -546 0
-65 -548 0
-66 -549 0
-67 -551 0
-63 -606 0
-65 -608 0
-66 -609 0
-67 -611 0
-63 -612 0
-66 -617 0
-67 -618 0
-63 -636 0
-65 -639 0
-66 -640 0
-67 -641 0
-63 -697 0
-65 -698 0
-66 -701 0
-67 -703 0
-64 -704 0
-65 -706 0
-66 -708 0
-67 -709 0
-64 -710 0
-66 -714 0
-67 -716 0
-65 -751 0
-66 -754 0
-67 -755 0
-66 -759 0
-67 -761 0
-65 -776 0
-66 -778 0
-67 -780 0
-66 -784 0
-67 -786 0
-63 -801 0
-65 -803 0
-67 -805 0
-63 -868 0
-64 -869 0
-65 -870 0
-67 -873 0
-63 -874 0
-64 -875 0
-65 -877 0
-67 -879 0
-62 -899 0
-63 -900 0
-67 -903 0
-62 -905 0
-63 -906 0
-65 -909 0
-67 -912 0
-62 -927 0
-63 -928 0
-66 -930 0
-67 -931 0
-63 -955 0
-67 -959 0
-62 -989 0
-63 -990 0
-67 -994 0
-62 -995 0
-63 -996 0
-65 -997 0
-67 -1000 0
-62 -1007 0
-64 -1008 0
-65 -1010 0
-67 -1012 0
-62 -1020 0
-64 -1021 0
-66 -1023 0
-67 -1024 0
-62 -1026 0
-64 -1027 0
-65 -1029 0
-66 -1031 0
-67 -1033 0
-64 -1041 0
-67 -1045 0
-64 -1047 0
-65 -1048 0
-67 -1051 0
-63 -1060 0
-65 -1062 0
-66 -1065 0
-67 -1067 0
-63 -1069 0
-65 -1072 0
-66 -1073 0
-67 -1074 0
-63 -1083 0
-65 -1085 0
-67 -1088 0
-63 -1120 0
-65 -1122 0
-66 -1124 0
-67 -1125 0
-63 -1126 0
-65 -1127 0
-66 -1130 0
-67 -1132 0
-64 -1133 0
-65 -1135 0
-66 -1137 0
-67 -1138 0
-64 -1147 0
-65 -1148 0
-67 -1151 0
-64 -1153 0
-65 -1155 0
-67 -1158 0
-62 -1167 0
-65 -1169 0
-66 -1170 0
-67 -1171 0
-62 -1180 0
-67 -1184 0
-62 -1186 0
-65 -1189 0
-67 -1191 0
-66 -1202 0
-67 -1204 0
-65 -1207 0
-66 -1210 0
-67 -1211 0
-62 -1220 0
-65 -1223 0
-66 -1226 0
-67 -1228 0
-62 -1242 0
-67 -1246 0
-62 -1248 0
-65 -1249 0
-67 -1253 0
-66 -1264 0
-67 -1265 0
-65 -1268 0
-66 -1270 0
-67 -1272 0
-63 -1273 0
-67 -1278 0
-63 -1279 0
-65 -1282 0
-67 -1285 0
-63 -1294 0
-66 -1297 0
-67 -1299 0
-64 -1328 0
-66 -1331 0
-67 -1333 0
-64 -1334 0
-65 -1336 0
-66 -1339 0
-67 -1340 0
-62 -1341 0
-67 -1346 0
-62 -1355 0
-65 -1358 0
-66 -1360 0
-67 -1362 0
-62 -1364 0
-66 -1368 0
-67 -1369 0
-65 -1379 0
-67 -1382 0
-67 -1389 0
-65 -1399 0
-66 -1401 0
-67 -1403 0
-62 -1416 0
-65 -1417 0
-66 -1420 0
-67 -1421 0
-62 -1422 0
-66 -1426 0
-67 -1428 0
-65 -1436 0
-67 -1440 0
-65 -1444 0
-66 -1446 0
-67 -1448 0
-67 -1455 0
-63 -1457 0
-65 -1458 0
-66 -1461 0
-67 -1463 0
-62 -1499 0
-63 -1500 0
-66 -1505 0
-67 -1507 0
-62 -1508 0
-63 -1509 0
-65 -1511 0
-66 -1513 0
-67 -1514 0
-62 -1529 0
-63 -1530 0
-66 -1533 0
-67 -1534 0
-63 -1556 0
-66 -1559 0
-67 -1561 0
-62 -1597 0
-64 -1598 0
-66 -1601 0
-67 -1602 0
-62 -1603 0
-64 -1604 0
-65 -1605 0
-66 -1607 0
-67 -1609 0
-64 -1610 0
-66 -1613 0
-67 -1615 0
-64 -1616 0
-65 -1618 0
-66 -1621 0
-67 -1622 0
-63 -1623 0
-65 -1626 0
-67 -1629 0
-63 -1630 0
-65 -1632 0
-67 -1635 0
-63 -1643 0
-65 -1644 0
-66 -1646 0
-67 -1647 0
-64 -1675 0
-65 -1677 0
-66 -1680 0
-67 -1681 0
-64 -1682 0
-65 -1683 0
-66 -1685 0
-67 -1687 0
-62 -1688 0
-65 -1691 0
-67 -1694 0
-62 -1702 0
-66 -1706 0
-67 -1707 0
-62 -1709 0
-65 -1711 0
-66 -1714 0
-67 -1716 0
-67 -1729 0
-65 -1733 0
-67 -1735 0
-66 -1746 0
-67 -1747 0
-62 -1761 0
-66 -1765 0
-67 -1767 0
-62 -1768 0
-65 -1770 0
-66 -1771 0
-67 -1773 0
-65 -1783 0
-67 -1787 0
-63 -1788 0
-66 -1791 0
-67 -1793 0
-62 -1800 0
-65 -1802 0
-66 -1804 0
-67 -1806 0
-62 -1807 0
-66 -1811 0
-67 -1812 0
-65 -1815 0
-66 -1817 0
-67 -1819 0
-66 -1823 0
-67 -1825 0
-65 -1833 0
-66 -1835 0
-67 -1837 0
-66 -1842 0
-67 -1844 0
-62 -1845 0
-63 -1846 0
-65 -1847 0
-67 -1850 0
-62 -1851 0
-63 -1852 0
-65 -1854 0
-67 -1857 0
-62 -1872 0
-65 -1874 0
-67 -1877 0
-62 -1880 0
-66 -1882 0
-67 -1884 0
-62 -1886 0
-65 -1888 0
-66 -1890 0
-67 -1891 0
-62 -1900 0
-67 -1904 0
-62 -1906 0
-65 -1907 0
-67 -1911 0
-62 -1924 0
-65 -1926 0
-66 -1928 0
-67 -1930 0
-62 -1932 0
-65 -1933 0
-67 -1937 0
-65 -1940 0
-66 -1942 0
-67 -1944 0
-62 -1952 0
-66 -1956 0
-67 -1958 0
-69 -102 0
-72 -104 0
-73 -106 0
-74 -107 0
-69 -216 0
-72 -218 0
-73 -220 0
-74 -221 0
-69 -228 0
-70 -229 0
-71 -231 0
-72 -232 0
-73 -235 0
-74 -236 0
-69 -247 0
-70 -248 0
-72 -249 0
-73 -251 0
-74 -252 0
-69 -271 0
-70 -272 0
-72 -274 0
-73 -276 0
-74 -277 0
-69 -311 0
-71 -313 0
-73 -315 0
-74 -316 0
-69 -383 0
-70 -384 0
-71 -385 0
-73 -387 0
-74 -388 0
-69 -403 0
-73 -407 0
-74 -408 0
-68 -415 0
-69 -416 0
-71 -418 0
-73 -420 0
-74 -421 0
-68 -432 0
-69 -434 0
-73 -436 0
-74 -437 0
-68 -459 0
-69 -460 0
-72 -463 0
-73 -466 0
-74 -467 0
-69 -503 0
-73 -507 0
-74 -508 0
-70 -516 0
-71 -519 0
-73 -520 0
-74 -521 0
-68 -522 0
-69 -523 0
-73 -527 0
-74 -528 0
-70 -530 0
-73 -534 0
-74 -535 0
-68 -545 0
-70 -546 0
-71 -548 0
-73 -550 0
-74 -551 0
-70 -552 0
-72 -555 0
-73 -557 0
-74 -558 0
-68 -566 0
-70 -567 0
-72 -569 0
-73 -570 0
-74 -571 0
-69 -612 0
-72 -615 0
-74 -618 0
-69 -627 0
-71 -630 0
-72 -631 0
-73 -633 0
-74 -634 0
-69 -656 0
-71 -658 0
-72 -659 0
-74 -661 0
-69 -697 0
-71 -698 0
-72 -699 0
-73 -702 0
-74 -703 0
-70 -710 0
-72 -713 0
-73 -715 0
-74 -716 0
-70 -724 0
-71 -725 0
-72 -726 0
-73 -728 0
-74 -729 0
-71 -745 0
-73 -747 0
-74 -748 0
-68 -756 0
-73 -760 0
-74 -761 0
-71 -764 0
-72 -765 0
-74 -767 0
-71 -776 0
-73 -779 0
-74 -780 0
-69 -794 0
-71 -796 0
-72 -797 0
-74 -799 0
-69 -874 0
-70 -875 0
-71 -877 0
-72 -878 0
-74 -879 0
-69 -893 0
-72 -895 0
-74 -897 0
-68 -904 0
-69 -906 0
-71 -909 0
-72 -910 0
-74 -912 0
-68 -919 0
-69 -921 0
-72 -923 0
-73 -924 0
-74 -925 0
-68 -947 0
-69 -949 0
-72 -950 0
-74 -953 0
-69 -990 0
-72 -992 0
-74 -994 0
-68 -1001 0
-69 -1002 0
-71 -1003 0
-72 -1004 0
-74 -1006 0
-70 -1008 0
-71 -1010 0
-72 -1011 0
-74 -1012 0
-70 -1014 0
-72 -1015 0
-73 -1017 0
-74 -1018 0
-68 -1025 0
-70 -1027 0
-71 -1029 0
-72 -1030 0
-73 -1032 0
-74 -1033 0
-70 -1035 0
-72 -1037 0
-74 -1039 0
-68 -1046 0
-70 -1047 0
-71 -1048 0
-72 -1049 0
-74 -1051 0
-69 -1053 0
-71 -1055 0
-74 -1058 0
-68 -1068 0
-69 -1069 0
-71 -1072 0
-74 -1074 0
-69 -1120 0
-71 -1122 0
-74 -1125 0
-70 -1133 0
-71 -1135 0
-74 -1138 0
-70 -1140 0
-71 -1141 0
-73 -1144 0
-74 -1145 0
-68 -1152 0
-70 -1153 0
-71 -1155 0
-73 -1157 0
-74 -1158 0
-70 -1159 0
-71 -1161 0
-72 -1162 0
-74 -1165 0
-68 -1166 0
-71 -1169 0
-74 -1171 0
-68 -1172 0
-73 -1177 0
-74 -1178 0
-68 -1185 0
-71 -1189 0
-73 -1190 0
-74 -1191 0
-68 -1192 0
-72 -1196 0
-74 -1198 0
-68 -1205 0
-71 -1207 0
-72 -1208 0
-74 -1211 0
-68 -1229 0
-71 -1232 0
-74 -1234 0
-68 -1241 0
-73 -1245 0
-74 -1246 0
-68 -1254 0
-71 -1255 0
-73 -1258 0
-74 -1259 0
-68 -1260 0
-72 -1262 0
-74 -1265 0
-69 -1279 0
-71 -1282 0
-72 -1283 0
-73 -1284 0
-74 -1285 0
-70 -1334 0
-71 -1336 0
-72 -1337 0
-74 -1340 0
-72 -1344 0
-73 -1345 0
-74 -1346 0
-71 -1350 0
-72 -1351 0
-74 -1353 0
-68 -1363 0
-72 -1367 0
-74 -1369 0
-71 -1372 0
-72 -1373 0
-73 -1375 0
-74 -1376 0
-68 -1383 0
-72 -1386 0
-73 -1388 0
-74 -1389 0
-72 -1405 0
-73 -1408 0
-74 -1409 0
-71 -1417 0
-72 -1418 0
-74 -1421 0
-68 -1429 0
-72 -1431 0
-74 -1434 0
-71 -1436 0
-72 -1437 0
-73 -1439 0
-74 -1440 0
-71 -1444 0
-73 -1447 0
-74 -1448 0
-69 -1509 0
-71 -1511 0
-74 -1514 0
-69 -1523 0
-73 -1526 0
-74 -1527 0
-69 -1550 0
-72 -1552 0
-74 -1554 0
-69 -1591 0
-71 -1593 0
-74 -1596 0
-70 -1604 0
-71 -1605 0
-73 -1608 0
-74 -1609 0
-70 -1616 0
-71 -1618 0
-72 -1619 0
-74 -1622 0
-69 -1630 0
-71 -1632 0
-72 -1633 0
-74 -1635 0
-70 -1682 0
-71 -1683 0
-72 -1684 0
-73 -1686 0
-74 -1687 0
-71 -1691 0
-72 -1692 0
-74 -1694 0
-72 -1698 0
-73 -1699 0
-74 -1700 0
-68 -1708 0
-71 -1711 0
-72 -1712 0
-73 -1715 0
-74 -1716 0
-74 -1722 0
-68 -1730 0
-71 -1733 0
-74 -1735 0
-71 -1750 0
-72 -1751 0
-74 -1753 0
-72 -1763 0
-73 -1766 0
-74 -1767 0
-68 -1774 0
-71 -1776 0
-72 -1777 0
-73 -1779 0
-74 -1780 0
-74 -1812 0
-72 -1821 0
-73 -1824 0
-74 -1825 0
-69 -1852 0
-71 -1854 0
-73 -1856 0
-74 -1857 0
-71 -1874 0
-73 -1876 0
-74 -1877 0
-68 -1885 0
-71 -1888 0
-74 -1891 0
-72 -1894 0
-73 -1897 0
-74 -1898 0
-68 -1905 0
-71 -1907 0
-72 -1908 0
-73 -1910 0
-74 -1911 0
-71 -1914 0
-73 -1916 0
-74 -1917 0
-71 -1926 0
-72 -1927 0
-73 -1929 0
-74 -1930 0
-71 -1946 0
-72 -1947 0
-73 -1949 0
-74 -1950 0
-76 -96 0
-78 -98 0
-80 -100 0
-76 -216 0
-78 -217 0
-80 -221 0
-76 -222 0
-77 -223 0
-78 -225 0
-80 -227 0
-76 -238 0
-77 -239 0
-78 -240 0
-79 -242 0
-80 -245 0
-76 -265 0
-77 -266 0
-78 -267 0
-80 -270 0
-76 -304 0
-78 -306 0
-79 -308 0
-80 -310 0
-76 -376 0
-77 -377 0
-78 -378 0
-79 -380 0
-80 -382 0
-76 -403 0
-78 -405 0
-80 -408 0
-75 -409 0
-76 -410 0
-78 -412 0
-80 -414 0
-75 -422 0
-76 -424 0
-78 -426 0
-79 -429 0
-80 -431 0
-75 -452 0
-76 -453 0
-78 -455 0
-80 -458 0
-76 -509 0
-78 -511 0
-80 -515 0
-77 -516 0
-78 -518 0
-80 -521 0
-75 -522 0
-76 -523 0
-78 -524 0
-79 -525 0
-80 -528 0
-77 -530 0
-78 -532 0
-79 -533 0
-80 -535 0
-75 -536 0
-77 -537 0
-78 -539 0
-79 -541 0
-80 -544 0
-77 -552 0
-78 -554 0
-80 -558 0
-75 -559 0
-77 -560 0
-78 -561 0
-79 -563 0
-80 -565 0
-76 -606 0
-80 -611 0
-76 -620 0
-79 -623 0
-80 -625 0
-76 -649 0
-78 -651 0
-80 -655 0
-76 -697 0
-79 -700 0
-80 -703 0
-77 -704 0
-79 -707 0
-80 -709 0
-77 -717 0
-78 -718 0
-79 -721 0
-80 -723 0
-76 -730 0
-79 -734 0
-80 -735 0
-79 -746 0
-80 -748 0
-75 -749 0
-79 -753 0
-80 -755 0
-78 -763 0
-80 -767 0
-75 -768 0
-78 -770 0
-79 -772 0
-80 -773 0
-79 -783 0
-80 -786 0
-76 -788 0
-79 -789 0
-80 -792 0
-76 -868 0
-77 -869 0
-79 -871 0
-80 -873 0
-76 -893 0
-80 -897 0
-75 -898 0
-76 -900 0
-80 -903 0
-75 -913 0
-76 -915 0
-79 -917 0
-80 -918 0
-75 -938 0
-76 -940 0
-78 -941 0
-80 -946 0
-76 -996 0
-80 -1000 0
-75 -1001 0
-76 -1002 0
-80 -1006 0
-77 -1008 0
-80 -1012 0
-77 -1014 0
-79 -1016 0
-80 -1018 0
-75 -1019 0
-77 -1021 0
-79 -1022 0
-80 -1024 0
-77 -1035 0
-78 -1036 0
-80 -1039 0
-75 -1040 0
-77 -1041 0
-78 -1042 0
-80 -1045 0
-76 -1053 0
-79 -1056 0
-80 -1058 0
-75 -1059 0
-76 -1060 0
-79 -1064 0
-80 -1067 0
-75 -1075 0
-76 -1077 0
-79 -1079 0
-80 -1081 0
-75 -1099 0
-76 -1100 0
-78 -1101 0
-79 -1102 0
-80 -1105 0
-76 -1126 0
-79 -1129 0
-80 -1132 0
-77 -1133 0
-79 -1136 0
-80 -1138 0
-77 -1140 0
-79 -1142 0
-80 -1145 0
-75 -1146 0
-77 -1147 0
-79 -1150 0
-80 -1151 0
-77 -1159 0
-78 -1160 0
-79 -1163 0
-80 -1165 0
-75 -1166 0
-80 -1171 0
-75 -1172 0
-79 -1175 0
-80 -1178 0
-75 -1179 0
-79 -1183 0
-80 -1184 0
-75 -1192 0
-78 -1195 0
-80 -1198 0
-75 -1199 0
-78 -1201 0
-80 -1204 0
-75 -1212 0
-78 -1214 0
-79 -1216 0
-80 -1218 0
-75 -1235 0
-80 -1240 0
-75 -1247 0
-79 -1251 0
-80 -1253 0
-75 -1254 0
-79 -1256 0
-80 -1259 0
-75 -1266 0
-78 -1267 0
-80 -1272 0
-76 -1273 0
-78 -1275 0
-79 -1276 0
-80 -1278 0
-76 -1287 0
-78 -1288 0
-79 -1290 0
-80 -1292 0
-76 -1307 0
-79 -1310 0
-80 -1313 0
-77 -1328 0
-78 -1329 0
-79 -1330 0
-80 -1333 0
-78 -1343 0
-80 -1346 0
-78 -1349 0
-79 -1352 0
-80 -1353 0
-75 -1354 0
-78 -1357 0
-79 -1359 0
-80 -1362 0
-80 -1376 0
-75 -1377 0
-80 -1382 0
-75 -1390 0
-79 -1394 0
-80 -1396 0
-78 -1411 0
-80 -1415 0
-78 -1423 0
-79 -1425 0
-80 -1428 0
-75 -1429 0
-78 -1430 0
-79 -1432 0
-80 -1434 0
-78 -1443 0
-79 -1445 0
-80 -1448 0
-75 -1449 0
-78 -1451 0
-79 -1453 0
-80 -1455 0
-76 -1500 0
-78 -1502 0
-79 -1504 0
-80 -1507 0
-76 -1516 0
-78 -1517 0
-80 -1521 0
-76 -1543 0
-78 -1544 0
-79 -1546 0
-80 -1548 0
-76 -1591 0
-78 -1592 0
-79 -1594 0
-80 -1596 0
-77 -1598 0
-78 -1599 0
-80 -1602 0
-77 -1610 0
-78 -1611 0
-79 -1612 0
-80 -1615 0
-76 -1623 0
-78 -1625 0
-80 -1629 0
-76 -1637 0
-78 -1638 0
-79 -1640 0
-80 -1641 0
-76 -1654 0
-78 -1655 0
-80 -1659 0
-77 -1675 0
-78 -1676 0
-79 -1679 0
-80 -1681 0
-78 -1690 0
-79 -1693 0
-80 -1694 0
-78 -1697 0
-80 -1700 0
-75 -1701 0
-78 -1704 0
-80 -1707 0
-78 -1719 0
-79 -1720 0
-80 -1722 0
-75 -1723 0
-78 -1725 0
-79 -1727 0
-80 -1729 0
-75 -1736 0
-78 -1738 0
-80 -1741 0
-78 -1755 0
-79 -1757 0
-80 -1760 0
-78 -1769 0
-80 -1773 0
-75 -1774 0
-78 -1775 0
-80 -1780 0
-78 -1782 0
-79 -1785 0
-80 -1787 0
-80 -1806 0
-78 -1814 0
-79 -1816 0
-80 -1819 0
-78 -1827 0
-80 -1831 0
-79 -1841 0
-80 -1844 0
-76 -1846 0
-80 -1850 0
-79 -1875 0
-80 -1877 0
-75 -1879 0
-80 -1884 0
-78 -1893 0
-79 -1895 0
-80 -1898 0
-75 -1899 0
-78 -1901 0
-79 -1902 0
-80 -1904 0
-79 -1921 0
-80 -1923 0
-80 -1930 0
-75 -1931 0
-79 -1935 0
-80 -1937 0
-75 -1938 0
-78 -1939 0
-80 -1944 0
-78 -1953 0
-79 -1955 0
-80 -1958 0
-81 -102 0
-83 -104 0
-84 -105 0
-86 -107 0
-81 -154 0
-83 -157 0
-84 -158 0
-86 -159 0
-81 -161 0
-82 -162 0
-83 -166 0
-84 -167 0
-85 -168 0
-86 -169 0
-81 -180 0
-82 -181 0
-83 -183 0
-84 -184 0
-86 -185 0
-81 -195 0
-82 -196 0
-83 -198 0
-84 -199 0
-86 -201 0
-81 -271 0
-82 -272 0
-83 -274 0
-84 -275 0
-86 -277 0
-81 -311 0
-85 -314 0
-86 -316 0
-81 -355 0
-82 -356 0
-85 -359 0
-86 -360 0
-81 -403 0
-85 -406 0
-86 -408 0
-81 -416 0
-84 -419 0
-86 -421 0
-81 -434 0
-86 -437 0
-81 -453 0
-85 -457 0
-86 -458 0
-82 -469 0
-84 -472 0
-85 -473 0
-86 -474 0
-81 -476 0
-86 -480 0
-82 -483 0
-85 -487 0
-86 -489 0
-82 -498 0
-84 -500 0
-86 -502 0
-81 -509 0
-83 -513 0
-86 -515 0
-82 -552 0
-83 -555 0
-85 -556 0
-86 -558 0
-82 -567 0
-83 -569 0
-86 -571 0
-81 -612 0
-83 -615 0
-84 -616 0
-85 -617 0
-86 -618 0
-81 -627 0
-83 -631 0
-85 -632 0
-86 -634 0
-81 -649 0
-83 -653 0
-86 -655 0
-82 -662 0
-83 -665 0
-84 -666 0
-86 -668 0
-81 -670 0
-83 -672 0
-85 -673 0
-86 -674 0
-82 -676 0
-83 -679 0
-86 -680 0
-82 -689 0
-83 -693 0
-84 -694 0
-85 -695 0
-86 -696 0
-82 -724 0
-83 -726 0
-85 -727 0
-86 -729 0
-84 -746 0
-86 -748 0
-85 -759 0
-86 -761 0
-84 -772 0
-86 -773 0
-83 -782 0
-84 -783 0
-85 -784 0
-86 -786 0
-81 -794 0
-83 -797 0
-85 -798 0
-86 -799 0
-81 -839 0
-82 -840 0
-83 -841 0
-85 -842 0
-86 -844 0
-81 -852 0
-82 -853 0
-83 -856 0
-84 -857 0
-85 -858 0
-86 -860 0
-81 -893 0
-83 -895 0
-85 -896 0
-86 -897 0
-81 -906 0
-83 -910 0
-84 -911 0
-86 -912 0
-81 -921 0
-83 -923 0
-86 -925 0
-81 -940 0
-83 -943 0
-85 -944 0
-86 -946 0
-81 -955 0
-83 -956 0
-84 -957 0
-86 -959 0
-82 -962 0
-83 -964 0
-84 -965 0
-85 -966 0
-86 -968 0
-82 -971 0
-83 -973 0
-85 -974 0
-86 -975 0
-82 -984 0
-83 -986 0
-84 -987 0
-86 -988 0
-81 -996 0
-83 -998 0
-86 -1000 0
-82 -1035 0
-83 -1037 0
-85 -1038 0
-86 -1039 0
-82 -1047 0
-83 -1049 0
-84 -1050 0
-86 -1051 0
-81 -1053 0
-84 -1056 0
-85 -1057 0
-86 -1058 0
-81 -1069 0
-85 -1073 0
-86 -1074 0
-81 -1100 0
-84 -1102 0
-85 -1103 0
-86 -1105 0
-82 -1107 0
-85 -1110 0
-86 -1112 0
-81 -1126 0
-83 -1128 0
-84 -1129 0
-85 -1130 0
-86 -1132 0
-82 -1159 0
-83 -1162 0
-84 -1163 0
-85 -1164 0
-86 -1165 0
-85 -1170 0
-86 -1171 0
-84 -1175 0
-85 -1176 0
-86 -1178 0
-86 -1191 0
-85 -1202 0
-86 -1204 0
-84 -1216 0
-85 -1217 0
-86 -1218 0
-83 -1224 0
-84 -1225 0
-85 -1226 0
-86 -1228 0
-83 -1238 0
-86 -1240 0
-83 -1250 0
-84 -1251 0
-86 -1253 0
-83 -1262 0
-84 -1263 0
-85 -1264 0
-86 -1265 0
-81 -1279 0
-83 -1283 0
-86 -1285 0
-81 -1307 0
-83 -1309 0
-84 -1310 0
-85 -1311 0
-86 -1313 0
-82 -1314 0
-83 -1317 0
-85 -1318 0
-86 -1320 0
-83 -1344 0
-86 -1346 0
-83 -1351 0
-84 -1352 0
-86 -1353 0
-83 -1367 0
-85 -1368 0
-86 -1369 0
-83 -1380 0
-86 -1382 0
-83 -1393 0
-84 -1394 0
-86 -1396 0
-83 -1400 0
-85 -1401 0
-86 -1403 0
-83 -1413 0
-85 -1414 0
-86 -1415 0
-83 -1424 0
-84 -1425 0
-85 -1426 0
-86 -1428 0
-83 -1437 0
-84 -1438 0
-86 -1440 0
-84 -1445 0
-85 -1446 0
-86 -1448 0
-81 -1487 0
-82 -1488 0
-84 -1490 0
-86 -1492 0
-81 -1509 0
-84 -1512 0
-85 -1513 0
-86 -1514 0
-81 -1523 0
-84 -1524 0
-85 -1525 0
-86 -1527 0
-81 -1543 0
-84 -1546 0
-86 -1548 0
-81 -1556 0
-84 -1558 0
-85 -1559 0
-86 -1561 0
-82 -1563 0
-84 -1566 0
-86 -1568 0
-82 -1570 0
-84 -1573 0
-86 -1574 0
-82 -1587 0
-84 -1588 0
-85 -1589 0
-86 -1590 0
-82 -1616 0
-83 -1619 0
-84 -1620 0
-85 -1621 0
-86 -1622 0
-81 -1630 0
-83 -1633 0
-84 -1634 0
-86 -1635 0
-81 -1654 0
-83 -1656 0
-85 -1657 0
-86 -1659 0
-82 -1660 0
-83 -1664 0
-84 -1665 0
-85 -1666 0
-86 -1668 0
-83 -1692 0
-84 -1693 0
-86 -1694 0
-83 -1698 0
-86 -1700 0
-83 -1712 0
-84 -1713 0
-85 -1714 0
-86 -1716 0
-83 -1726 0
-84 -1727 0
-86 -1729 0
-83 -1740 0
-86 -1741 0
-83 -1744 0
-84 -1745 0
-85 -1746 0
-86 -1747 0
-84 -1757 0
-85 -1758 0
-86 -1760 0
-85 -1771 0
-86 -1773 0
-84 -1810 0
-85 -1811 0
-86 -1812 0
-84 -1816 0
-85 -1817 0
-86 -1819 0
-85 -1829 0
-86 -1831 0
-84 -1834 0
-85 -1835 0
-86 -1837 0
-81 -1852 0
-84 -1855 0
-86 -1857 0
-82 -1866 0
-84 -1868 0
-85 -1869 0
-86 -1871 0
-84 -1875 0
-86 -1877 0
-84 -1889 0
-85 -1890 0
-86 -1891 0
-84 -1902 0
-86 -1904 0
-83 -1920 0
-84 -1921 0
-85 -1922 0
-86 -1923 0
-83 -1927 0
-85 -1928 0
-86 -1930 0
-83 -1941 0
-85 -1942 0
-86 -1944 0
-87 -96 0
-89 -98 0
-90 -99 0
-93 -100 0
-87 -154 0
-89 -155 0
-90 -156 0
-93 -159 0
-87 -161 0
-88 -162 0
-89 -164 0
-90 -165 0
-91 -168 0
-93 -169 0
-87 -171 0
-88 -172 0
-89 -174 0
-90 -175 0
-92 -177 0
-93 -178 0
-87 -188 0
-88 -189 0
-89 -190 0
-90 -191 0
-93 -192 0
-87 -265 0
-88 -266 0
-89 -267 0
-90 -268 0
-93 -270 0
-87 -304 0
-89 -306 0
-91 -309 0
-93 -310 0
-87 -355 0
-88 -356 0
-89 -358 0
-91 -359 0
-93 -360 0
-87 -362 0
-88 -363 0
-89 -364 0
-90 -365 0
-91 -368 0
-93 -369 0
-87 -403 0
-89 -405 0
-91 -406 0
-92 -407 0
-93 -408 0
-87 -410 0
-89 -412 0
-93 -414 0
-87 -424 0
-89 -426 0
-90 -427 0
-92 -430 0
-93 -431 0
-87 -460 0
-89 -462 0
-91 -465 0
-92 -466 0
-93 -467 0
-88 -469 0
-89 -471 0
-91 -473 0
-93 -474 0
-87 -476 0
-89 -477 0
-90 -478 0
-92 -479 0
-93 -480 0
-88 -483 0
-89 -485 0
-90 -486 0
-91 -487 0
-92 -488 0
-93 -489 0
-88 -491 0
-89 -493 0
-90 -494 0
-93 -496 0
-87 -503 0
-89 -505 0
-92 -507 0
-93 -508 0
-88 -552 0
-89 -554 0
-91 -556 0
-92 -557 0
-93 -558 0
-88 -560 0
-89 -561 0
-90 -562 0
-92 -564 0
-93 -565 0
-87 -594 0
-88 -595 0
-90 -596 0
-92 -598 0
-93 -599 0
-87 -606 0
-90 -608 0
-91 -609 0
-92 -610 0
-93 -611 0
-87 -620 0
-90 -622 0
-91 -624 0
-93 -625 0
-87 -656 0
-90 -658 0
-93 -661 0
-88 -662 0
-90 -664 0
-92 -667 0
-93 -668 0
-87 -670 0
-90 -671 0
-91 -673 0
-93 -674 0
-88 -676 0
-90 -678 0
-93 -680 0
-88 -682 0
-90 -684 0
-91 -685 0
-92 -686 0
-93 -687 0
-88 -717 0
-89 -718 0
-90 -719 0
-91 -722 0
-93 -723 0
-87 -730 0
-90 -732 0
-93 -735 0
-90 -745 0
-92 -747 0
-93 -748 0
-90 -751 0
-91 -754 0
-93 -755 0
-89 -775 0
-90 -776 0
-91 -778 0
-92 -779 0
-93 -780 0
-87 -788 0
-91 -790 0
-92 -791 0
-93 -792 0
-87 -839 0
-88 -840 0
-91 -842 0
-92 -843 0
-93 -844 0
-87 -846 0
-88 -847 0
-91 -848 0
-92 -849 0
-93 -850 0
-87 -893 0
-91 -896 0
-93 -897 0
-87 -900 0
-92 -902 0
-93 -903 0
-87 -915 0
-90 -916 0
-93 -918 0
-87 -949 0
-91 -952 0
-93 -953 0
-87 -955 0
-92 -958 0
-93 -959 0
-88 -962 0
-91 -966 0
-92 -967 0
-93 -968 0
-88 -971 0
-90 -972 0
-91 -974 0
-93 -975 0
-88 -978 0
-90 -979 0
-92 -980 0
-93 -981 0
-87 -990 0
-89 -991 0
-93 -994 0
-88 -1035 0
-89 -1036 0
-91 -1038 0
-93 -1039 0
-88 -1041 0
-89 -1042 0
-92 -1044 0
-93 -1045 0
-87 -1053 0
-90 -1055 0
-91 -1057 0
-93 -1058 0
-87 -1060 0
-90 -1062 0
-91 -1065 0
-92 -1066 0
-93 -1067 0
-87 -1077 0
-91 -1080 0
-93 -1081 0
-88 -1107 0
-90 -1109 0
-91 -1110 0
-92 -1111 0
-93 -1112 0
-88 -1114 0
-91 -1117 0
-92 -1118 0
-93 -1119 0
-87 -1120 0
-89 -1121 0
-90 -1122 0
-91 -1124 0
-93 -1125 0
-88 -1159 0
-89 -1160 0
-90 -1161 0
-91 -1164 0
-93 -1165 0
-90 -1169 0
-91 -1170 0
-93 -1171 0
-91 -1176 0
-92 -1177 0
-93 -1178 0
-93 -1184 0
-90 -1207 0
-91 -1210 0
-93 -1211 0
-89 -1222 0
-90 -1223 0
-91 -1226 0
-92 -1227 0
-93 -1228 0
-89 -1231 0
-90 -1232 0
-93 -1234 0
-89 -1243 0
-92 -1245 0
-93 -1246 0
-89 -1267 0
-90 -1268 0
-91 -1270 0
-92 -1271 0
-93 -1272 0
-87 -1273 0
-89 -1275 0
-92 -1277 0
-93 -1278 0
-87 -1287 0
-89 -1288 0
-90 -1289 0
-92 -1291 0
-93 -1292 0
-88 -1314 0
-89 -1316 0
-91 -1318 0
-92 -1319 0
-93 -1320 0
-88 -1322 0
-89 -1323 0
-90 -1324 0
-92 -1326 0
-93 -1327 0
-89 -1343 0
-92 -1345 0
-93 -1346 0
-89 -1349 0
-90 -1350 0
-93 -1353 0
-89 -1357 0
-90 -1358 0
-91 -1360 0
-92 -1361 0
-93 -1362 0
-89 -1385 0
-92 -1388 0
-93 -1389 0
-89 -1398 0
-90 -1399 0
-91 -1401 0
-92 -1402 0
-93 -1403 0
-91 -1407 0
-92 -1408 0
-93 -1409 0
-90 -1417 0
-91 -1420 0
-93 -1421 0
-89 -1443 0
-90 -1444 0
-91 -1446 0
-92 -1447 0
-93 -1448 0
-89 -1451 0
-92 -1454 0
-93 -1455 0
-87 -1480 0
-88 -1481 0
-89 -1482 0
-92 -1485 0
-93 -1486 0
-87 -1500 0
-89 -1502 0
-91 -1505 0
-92 -1506 0
-93 -1507 0
-87 -1516 0
-89 -1517 0
-90 -1518 0
-91 -1520 0
-93 -1521 0
-87 -1550 0
-89 -1551 0
-93 -1554 0
-87 -1556 0
-89 -1557 0
-91 -1559 0
-92 -1560 0
-93 -1561 0
-88 -1563 0
-89 -1565 0
-92 -1567 0
-93 -1568 0
-88 -1570 0
-89 -1571 0
-90 -1572 0
-93 -1574 0
-88 -1577 0
-89 -1578 0
-90 -1579 0
-91 -1582 0
-92 -1583 0
-93 -1584 0
-88 -1610 0
-89 -1611 0
-91 -1613 0
-92 -1614 0
-93 -1615 0
-87 -1623 0
-89 -1625 0
-90 -1626 0
-92 -1628 0
-93 -1629 0
-87 -1637 0
-89 -1638 0
-93 -1641 0
-88 -1660 0
-89 -1662 0
-90 -1663 0
-91 -1666 0
-92 -1667 0
-93 -1668 0
-88 -1670 0
-89 -1671 0
-92 -1673 0
-93 -1674 0
-89 -1690 0
-90 -1691 0
-93 -1694 0
-89 -1697 0
-92 -1699 0
-93 -1700 0
-89 -1704 0
-91 -1706 0
-93 -1707 0
-89 -1732 0
-90 -1733 0
-93 -1735 0
-89 -1743 0
-91 -1746 0
-93 -1747 0
-89 -1749 0
-90 -1750 0
-91 -1752 0
-93 -1753 0
-89 -1762 0
-91 -1765 0
-92 -1766 0
-93 -1767 0
-89 -1782 0
-90 -1783 0
-92 -1786 0
-93 -1787 0
-88 -1794 0
-90 -1795 0
-91 -1797 0
-92 -1798 0
-93 -1799 0
-90 -1802 0
-91 -1804 0
-92 -1805 0
-93 -1806 0
-91 -1823 0
-92 -1824 0
-93 -1825 0
-90 -1833 0
-91 -1835 0
-92 -1836 0
-93 -1837 0
-91 -1842 0
-92 -1843 0
-93 -1844 0
-87 -1846 0
-90 -1847 0
-92 -1849 0
-93 -1850 0
-88 -1866 0
-90 -1867 0
-91 -1869 0
-92 -1870 0
-93 -1871 0
-90 -1874 0
-92 -1876 0
-93 -1877 0
-91 -1882 0
-92 -1883 0
-93 -1884 0
-90 -1907 0
-92 -1910 0
-93 -1911 0
-89 -1913 0
-90 -1914 0
-91 -1915 0
-92 -1916 0
-93 -1917 0
-90 -1926 0
-91 -1928 0
-92 -1929 0
-93 -1930 0
-90 -1933 0
-92 -1936 0
-93 -1937 0
-89 -1945 0
-90 -1946 0
-92 -1949 0
-93 -1950 0
-89 -1953 0
-91 -1956 0
-92 -1957 0
-93 -1958 0
-100 -303 0
-96 -347 0
-97 -349 0
-98 -350 0
-99 -351 0
-100 -354 0
-97 -372 0
-100 -375 0
-96 -383 0
-99 -385 0
-100 -388 0
-97 -390 0
-99 -391 0
-100 -395 0
-98 -397 0
-100 -401 0
-97 -499 0
-100 -502 0
-97 -547 0
-99 -548 0
-100 -551 0
-98 -568 0
-100 -571 0
-96 -588 0
-97 -590 0
-98 -591 0
-100 -593 0
-97 -601 0
-98 -602 0
-99 -603 0
-100 -605 0
-97 -690 0
-98 -691 0
-99 -692 0
-100 -696 0
-97 -711 0
-98 -712 0
-100 -716 0
-99 -725 0
-100 -729 0
-97 -737 0
-98 -738 0
-100 -741 0
-97 -757 0
-98 -758 0
-100 -761 0
-97 -781 0
-100 -786 0
-95 -832 0
-96 -833 0
-98 -835 0
-99 -836 0
-100 -837 0
-96 -852 0
-98 -854 0
-99 -855 0
-100 -860 0
-95 -862 0
-98 -864 0
-100 -867 0
-96 -874 0
-98 -876 0
-99 -877 0
-100 -879 0
-95 -880 0
-98 -882 0
-99 -883 0
-100 -885 0
-99 -887 0
-100 -891 0
-95 -983 0
-98 -985 0
-100 -988 0
-95 -1026 0
-98 -1028 0
-99 -1029 0
-100 -1033 0
-99 -1048 0
-100 -1051 0
-96 -1069 0
-97 -1070 0
-98 -1071 0
-99 -1072 0
-100 -1074 0
-96 -1083 0
-98 -1084 0
-99 -1085 0
-100 -1088 0
-95 -1090 0
-97 -1092 0
-98 -1093 0
-99 -1094 0
-100 -1098 0
-97 -1108 0
-99 -1109 0
-100 -1112 0
-100 -1119 0
-96 -1126 0
-99 -1127 0
-100 -1132 0
-97 -1134 0
-99 -1135 0
-100 -1138 0
-95 -1139 0
-99 -1141 0
-100 -1145 0
-99 -1148 0
-100 -1151 0
-98 -1160 0
-99 -1161 0
-100 -1165 0
-95 -1186 0
-97 -1187 0
-98 -1188 0
-99 -1189 0
-100 -1191 0
-97 -1206 0
-99 -1207 0
-100 -1211 0
-97 -1236 0
-99 -1237 0
-100 -1240 0
-95 -1248 0
-99 -1249 0
-100 -1253 0
-99 -1255 0
-100 -1259 0
-98 -1267 0
-99 -1268 0
-100 -1272 0
-96 -1279 0
-97 -1280 0
-98 -1281 0
-99 -1282 0
-100 -1285 0
-96 -1294 0
-98 -1295 0
-100 -1299 0
-95 -1300 0
-97 -1302 0
-98 -1303 0
-100 -1306 0
-97 -1315 0
-98 -1316 0
-100 -1320 0
-98 -1323 0
-99 -1324 0
-100 -1327 0
-98 -1329 0
-100 -1333 0
-95 -1364 0
-97 -1365 0
-98 -1366 0
-100 -1369 0
-97 -1384 0
-98 -1385 0
-100 -1389 0
-98 -1398 0
-99 -1399 0
-100 -1403 0
-97 -1410 0
-98 -1411 0
-99 -1412 0
-100 -1415 0
-95 -1422 0
-98 -1423 0
-100 -1428 0
-98 -1430 0
-100 -1434 0
-97 -1442 0
-98 -1443 0
-99 -1444 0
-100 -1448 0
-97 -1450 0
-98 -1451 0
-100 -1455 0
-95 -1471 0
-96 -1472 0
-98 -1474 0
-99 -1475 0
-100 -1479 0
-96 -1487 0
-99 -1489 0
-100 -1492 0
-95 -1493 0
-100 -1498 0
-95 -1586 0
-100 -1590 0
-95 -1603 0
-99 -1605 0
-100 -1609 0
-98 -1617 0
-99 -1618 0
-100 -1622 0
-96 -1630 0
-97 -1631 0
-99 -1632 0
-100 -1635 0
-96 -1643 0
-99 -1644 0
-100 -1647 0
-95 -1648 0
-97 -1650 0
-99 -1651 0
-100 -1653 0
-97 -1661 0
-98 -1662 0
-99 -1663 0
-100 -1668 0
-98 -1671 0
-100 -1674 0
-98 -1676 0
-99 -1677 0
-100 -1681 0
-95 -1709 0
-97 -1710 0
-99 -1711 0
-100 -1716 0
-97 -1731 0
-98 -1732 0
-99 -1733 0
-100 -1735 0
-98 -1743 0
-100 -1747 0
-97 -1754 0
-98 -1755 0
-99 -1756 0
-100 -1760 0
-95 -1768 0
-98 -1769 0
-99 -1770 0
-100 -1773 0
-98 -1775 0
-99 -1776 0
-100 -1780 0
-98 -1782 0
-99 -1783 0
-100 -1787 0
-96 -1788 0
-98 -1789 0
-100 -1793 0
-99 -1795 0
-100 -1799 0
-95 -1807 0
-97 -1808 0
-98 -1809 0
-100 -1812 0
-97 -1820 0
-100 -1825 0
-99 -1833 0
-100 -1837 0
-97 -1839 0
-100 -1844 0
-95 -1851 0
-96 -1852 0
-98 -1853 0
-99 -1854 0
-100 -1857 0
-95 -1858 0
-98 -1860 0
-99 -1861 0
-100 -1864 0
-95 -1865 0
-99 -1867 0
-100 -1871 0
-95 -1886 0
-98 -1887 0
-99 -1888 0
-100 -1891 0
-95 -1906 0
-99 -1907 0
-100 -1911 0
-95 -1918 0
-99 -1919 0
-100 -1923 0
-95 -1924 0
-97 -1925 0
-99 -1926 0
-100 -1930 0
-95 -1932 0
-99 -1933 0
-100 -1937 0
-98 -1939 0
-99 -1940 0
-100 -1944 0
-98 -1945 0
-99 -1946 0
-100 -1950 0
-95 -1952 0
-98 -1953 0
-100 -1958 0
-107 -296 0
-102 -340 0
-103 -342 0
-104 -343 0
-105 -344 0
-107 -345 0
-102 -362 0
-104 -366 0
-105 -367 0
-107 -369 0
-103 -372 0
-104 -373 0
-107 -375 0
-102 -376 0
-104 -379 0
-105 -380 0
-106 -381 0
-107 -382 0
-103 -390 0
-104 -392 0
-105 -393 0
-106 -394 0
-107 -395 0
-105 -398 0
-106 -400 0
-107 -401 0
-103 -492 0
-104 -495 0
-107 -496 0
-103 -538 0
-104 -540 0
-105 -541 0
-106 -543 0
-107 -544 0
-105 -563 0
-106 -564 0
-107 -565 0
-102 -578 0
-103 -580 0
-104 -583 0
-105 -584 0
-106 -586 0
-107 -587 0
-102 -594 0
-105 -597 0
-106 -598 0
-107 -599 0
-103 -601 0
-106 -604 0
-107 -605 0
-103 -683 0
-106 -686 0
-107 -687 0
-103 -705 0
-105 -707 0
-107 -709 0
-104 -720 0
-105 -721 0
-107 -723 0
-102 -730 0
-103 -731 0
-104 -733 0
-105 -734 0
-107 -735 0
-103 -737 0
-104 -739 0
-105 -740 0
-107 -741 0
-103 -750 0
-104 -752 0
-105 -753 0
-107 -755 0
-103 -769 0
-105 -772 0
-107 -773 0
-103 -774 0
-105 -777 0
-106 -779 0
-107 -780 0
-101 -823 0
-102 -824 0
-104 -827 0
-105 -828 0
-106 -829 0
-107 -830 0
-102 -846 0
-106 -849 0
-107 -850 0
-101 -862 0
-106 -866 0
-107 -867 0
-102 -868 0
-105 -871 0
-106 -872 0
-107 -873 0
-101 -880 0
-105 -884 0
-107 -885 0
-104 -888 0
-106 -890 0
-107 -891 0
-101 -977 0
-106 -980 0
-107 -981 0
-101 -1020 0
-105 -1022 0
-107 -1024 0
-104 -1043 0
-106 -1044 0
-107 -1045 0
-102 -1060 0
-103 -1061 0
-104 -1063 0
-105 -1064 0
-106 -1066 0
-107 -1067 0
-101 -1076 0
-102 -1077 0
-104 -1078 0
-105 -1079 0
-107 -1081 0
-102 -1083 0
-104 -1086 0
-105 -1087 0
-107 -1088 0
-101 -1090 0
-103 -1092 0
-104 -1095 0
-105 -1096 0
-107 -1098 0
-102 -1100 0
-105 -1102 0
-106 -1104 0
-107 -1105 0
-103 -1108 0
-106 -1111 0
-107 -1112 0
-102 -1120 0
-105 -1123 0
-107 -1125 0
-103 -1134 0
-105 -1136 0
-107 -1138 0
-101 -1139 0
-105 -1142 0
-106 -1144 0
-107 -1145 0
-105 -1156 0
-106 -1157 0
-107 -1158 0
-104 -1162 0
-105 -1163 0
-107 -1165 0
-101 -1180 0
-103 -1181 0
-104 -1182 0
-105 -1183 0
-107 -1184 0
-103 -1200 0
-106 -1203 0
-107 -1204 0
-101 -1213 0
-105 -1216 0
-107 -1218 0
-103 -1230 0
-105 -1233 0
-107 -1234 0
-101 -1242 0
-105 -1244 0
-106 -1245 0
-107 -1246 0
-105 -1256 0
-106 -1258 0
-107 -1259 0
-104 -1262 0
-105 -1263 0
-107 -1265 0
-102 -1273 0
-103 -1274 0
-105 -1276 0
-106 -1277 0
-107 -1278 0
-101 -1286 0
-102 -1287 0
-105 -1290 0
-106 -1291 0
-107 -1292 0
-102 -1294 0
-105 -1296 0
-106 -1298 0
-107 -1299 0
-101 -1300 0
-103 -1302 0
-105 -1304 0
-106 -1305 0
-107 -1306 0
-102 -1307 0
-104 -1309 0
-105 -1310 0
-106 -1312 0
-107 -1313 0
-103 -1315 0
-104 -1317 0
-106 -1319 0
-107 -1320 0
-104 -1337 0
-105 -1338 0
-107 -1340 0
-101 -1355 0
-103 -1356 0
-105 -1359 0
-106 -1361 0
-107 -1362 0
-103 -1378 0
-104 -1380 0
-106 -1381 0
-107 -1382 0
-101 -1391 0
-104 -1393 0
-105 -1394 0
-106 -1395 0
-107 -1396 0
-104 -1400 0
-106 -1402 0
-107 -1403 0
-103 -1404 0
-104 -1405 0
-105 -1406 0
-106 -1408 0
-107 -1409 0
-101 -1416 0
-104 -1418 0
-105 -1419 0
-107 -1421 0
-104 -1431 0
-105 -1432 0
-107 -1434 0
-104 -1437 0
-105 -1438 0
-106 -1439 0
-107 -1440 0
-103 -1442 0
-105 -1445 0
-106 -1447 0
-107 -1448 0
-101 -1464 0
-102 -1465 0
-104 -1467 0
-106 -1469 0
-107 -1470 0
-102 -1480 0
-104 -1483 0
-105 -1484 0
-106 -1485 0
-107 -1486 0
-101 -1493 0
-104 -1495 0
-105 -1496 0
-106 -1497 0
-107 -1498 0
-101 -1576 0
-104 -1580 0
-105 -1581 0
-106 -1583 0
-107 -1584 0
-101 -1597 0
-104 -1600 0
-107 -1602 0
-105 -1612 0
-106 -1614 0
-107 -1615 0
-102 -1623 0
-103 -1624 0
-104 -1627 0
-106 -1628 0
-107 -1629 0
-101 -1636 0
-102 -1637 0
-104 -1639 0
-105 -1640 0
-107 -1641 0
-102 -1643 0
-104 -1645 0
-107 -1647 0
-101 -1648 0
-103 -1650 0
-104 -1652 0
-107 -1653 0
-102 -1654 0
-104 -1656 0
-106 -1658 0
-107 -1659 0
-103 -1661 0
-104 -1664 0
-105 -1665 0
-106 -1667 0
-107 -1668 0
-104 -1684 0
-106 -1686 0
-107 -1687 0
-101 -1702 0
-103 -1703 0
-104 -1705 0
-107 -1707 0
-103 -1724 0
-104 -1726 0
-105 -1727 0
-106 -1728 0
-107 -1729 0
-101 -1737 0
-104 -1740 0
-107 -1741 0
-104 -1744 0
-105 -1745 0
-107 -1747 0
-103 -1748 0
-104 -1751 0
-107 -1753 0
-101 -1761 0
-104 -1763 0
-105 -1764 0
-106 -1766 0
-107 -1767 0
-104 -1777 0
-106 -1779 0
-107 -1780 0
-102 -1788 0
-104 -1790 0
-106 -1792 0
-107 -1793 0
-101 -1800 0
-103 -1801 0
-104 -1803 0
-106 -1805 0
-107 -1806 0
-103 -1813 0
-105 -1816 0
-106 -1818 0
-107 -1819 0
-101 -1826 0
-106 -1830 0
-107 -1831 0
-105 -1834 0
-106 -1836 0
-107 -1837 0
-101 -1845 0
-102 -1846 0
-104 -1848 0
-106 -1849 0
-107 -1850 0
-101 -1858 0
-104 -1862 0
-106 -1863 0
-107 -1864 0
-101 -1865 0
-105 -1868 0
-106 -1870 0
-107 -1871 0
-101 -1880 0
-104 -1881 0
-106 -1883 0
-107 -1884 0
-101 -1900 0
-105 -1902 0
-106 -1903 0
-107 -1904 0
-101 -1912 0
-106 -1916 0
-107 -1917 0
-101 -1924 0
-103 -1925 0
-104 -1927 0
-106 -1929 0
-107 -1930 0
-113 -290 0
-109 -331 0
-110 -333 0
-111 -335 0
-112 -336 0
-113 -338 0
-109 -355 0
-110 -357 0
-112 -359 0
-113 -360 0
-108 -361 0
-109 -362 0
-111 -367 0
-112 -368 0
-113 -369 0
-108 -370 0
-110 -372 0
-112 -374 0
-113 -375 0
-109 -376 0
-111 -380 0
-113 -382 0
-109 -383 0
-111 -386 0
-113 -388 0
-110 -390 0
-111 -393 0
-113 -395 0
-108 -481 0
-110 -484 0
-112 -487 0
-113 -489 0
-110 -531 0
-111 -533 0
-113 -535 0
-110 -553 0
-112 -556 0
-113 -558 0
-108 -559 0
-111 -563 0
-113 -565 0
-108 -566 0
-113 -571 0
-109 -594 0
-111 -597 0
-113 -599 0
-110 -601 0
-113 -605 0
-110 -677 0
-113 -680 0
-111 -721 0
-112 -722 0
-113 -723 0
-112 -727 0
-113 -729 0
-109 -730 0
-110 -731 0
-111 -734 0
-113 -735 0
-110 -737 0
-111 -740 0
-113 -741 0
-110 -744 0
-111 -746 0
-113 -748 0
-110 -762 0
-112 -766 0
-113 -767 0
-108 -768 0
-110 -769 0
-111 -772 0
-113 -773 0
-110 -774 0
-111 -777 0
-112 -778 0
-113 -780 0
-110 -781 0
-111 -783 0
-112 -784 0
-113 -786 0
-109 -816 0
-111 -819 0
-112 -820 0
-113 -821 0
-109 -839 0
-112 -842 0
-113 -844 0
-108 -861 0
-112 -865 0
-113 -867 0
-111 -884 0
-113 -885 0
-112 -889 0
-113 -891 0
-108 -969 0
-112 -974 0
-113 -975 0
-111 -1016 0
-113 -1018 0
-112 -1038 0
-113 -1039 0
-109 -1053 0
-110 -1054 0
-111 -1056 0
-112 -1057 0
-113 -1058 0
-108 -1075 0
-109 -1077 0
-111 -1079 0
-112 -1080 0
-113 -1081 0
-108 -1089 0
-110 -1092 0
-111 -1096 0
-112 -1097 0
-113 -1098 0
-108 -1099 0
-109 -1100 0
-111 -1102 0
-112 -1103 0
-113 -1105 0
-108 -1106 0
-110 -1108 0
-112 -1110 0
-113 -1112 0
-108 -1113 0
-111 -1116 0
-112 -1117 0
-113 -1119 0
-109 -1120 0
-111 -1123 0
-112 -1124 0
-113 -1125 0
-109 -1126 0
-111 -1129 0
-112 -1130 0
-113 -1132 0
-110 -1134 0
-111 -1136 0
-112 -1137 0
-113 -1138 0
-108 -1146 0
-111 -1150 0
-113 -1151 0
-108 -1152 0
-111 -1156 0
-113 -1158 0
-108 -1172 0
-110 -1174 0
-111 -1175 0
-112 -1176 0
-113 -1178 0
-108 -1192 0
-110 -1194 0
-112 -1197 0
-113 -1198 0
-108 -1212 0
-111 -1216 0
-112 -1217 0
-113 -1218 0
-110 -1221 0
-111 -1225 0
-112 -1226 0
-113 -1228 0
-108 -1241 0
-111 -1244 0
-113 -1246 0
-108 -1247 0
-111 -1251 0
-113 -1253 0
-108 -1260 0
-111 -1263 0
-112 -1264 0
-113 -1265 0
-108 -1266 0
-112 -1270 0
-113 -1272 0
-109 -1287 0
-111 -1290 0
-113 -1292 0
-110 -1302 0
-111 -1304 0
-113 -1306 0
-109 -1307 0
-111 -1310 0
-112 -1311 0
-113 -1313 0
-110 -1315 0
-112 -1318 0
-113 -1320 0
-108 -1321 0
-111 -1325 0
-113 -1327 0
-111 -1330 0
-112 -1331 0
-113 -1333 0
-111 -1338 0
-112 -1339 0
-113 -1340 0
-110 -1348 0
-111 -1352 0
-113 -1353 0
-110 -1371 0
-112 -1374 0
-113 -1376 0
-108 -1390 0
-111 -1394 0
-113 -1396 0
-111 -1419 0
-112 -1420 0
-113 -1421 0
-111 -1425 0
-112 -1426 0
-113 -1428 0
-111 -1438 0
-113 -1440 0
-110 -1442 0
-111 -1445 0
-112 -1446 0
-113 -1448 0
-108 -1449 0
-110 -1450 0
-111 -1453 0
-113 -1455 0
-111 -1496 0
-113 -1498 0
-111 -1573 0
-113 -1574 0
-109 -1637 0
-111 -1640 0
-113 -1641 0
-110 -1650 0
-113 -1653 0
-109 -1654 0
-112 -1657 0
-113 -1659 0
-110 -1661 0
-111 -1665 0
-112 -1666 0
-113 -1668 0
-108 -1669 0
-113 -1674 0
-111 -1679 0
-112 -1680 0
-113 -1681 0
-112 -1685 0
-113 -1687 0
-110 -1696 0
-113 -1700 0
-110 -1718 0
-111 -1720 0
-112 -1721 0
-113 -1722 0
-108 -1736 0
-113 -1741 0
-111 -1764 0
-112 -1765 0
-113 -1767 0
-112 -1771 0
-113 -1773 0
-111 -1785 0
-113 -1787 0
-112 -1797 0
-113 -1799 0
-112 -1829 0
-113 -1831 0
-110 -1839 0
-111 -1841 0
-112 -1842 0
-113 -1844 0
-113 -1864 0
-111 -1868 0
-112 -1869 0
-113 -1871 0
-111 -1895 0
-112 -1896 0
-113 -1898 0
-110 -1925 0
-112 -1928 0
-113 -1930 0
-108 -1931 0
-111 -1935 0
-113 -1937 0
-108 -1938 0
-112 -1942 0
-113 -1944 0
-111 -1948 0
-113 -1950 0
-111 -1955 0
-112 -1956 0
-113 -1958 0
-115 -325 0
-118 -327 0
-119 -329 0
-115 -362 0
-116 -363 0
-118 -367 0
-119 -369 0
-115 -376 0
-116 -377 0
-118 -380 0
-119 -382 0
-115 -383 0
-116 -384 0
-118 -386 0
-119 -388 0
-116 -396 0
-118 -398 0
-119 -401 0
-115 -476 0
-119 -480 0
-115 -523 0
-118 -525 0
-119 -528 0
-116 -560 0
-118 -563 0
-119 -565 0
-116 -567 0
-119 -571 0
-115 -572 0
-118 -575 0
-119 -577 0
-115 -594 0
-116 -595 0
-118 -597 0
-119 -599 0
-115 -670 0
-119 -674 0
-115 -697 0
-118 -700 0
-119 -703 0
-116 -717 0
-118 -721 0
-119 -723 0
-116 -724 0
-119 -729 0
-115 -730 0
-117 -731 0
-118 -734 0
-119 -735 0
-117 -769 0
-118 -772 0
-119 -773 0
-117 -774 0
-118 -777 0
-119 -780 0
-117 -781 0
-118 -783 0
-119 -786 0
-114 -1076 0
-115 -1077 0
-118 -1079 0
-119 -1081 0
-115 -1083 0
-118 -1087 0
-119 -1088 0
-115 -1100 0
-118 -1102 0
-119 -1105 0
-116 -1114 0
-118 -1116 0
-119 -1119 0
-115 -1120 0
-118 -1123 0
-119 -1125 0
-115 -1126 0
-118 -1129 0
-119 -1132 0
-114 -1139 0
-116 -1140 0
-118 -1142 0
-119 -1145 0
-116 -1147 0
-118 -1150 0
-119 -1151 0
-116 -1153 0
-118 -1156 0
-119 -1158 0
-116 -1159 0
-118 -1163 0
-119 -1165 0
-114 -1213 0
-118 -1216 0
-119 -1218 0
-114 -1242 0
-118 -1244 0
-119 -1246 0
-114 -1248 0
-118 -1251 0
-119 -1253 0
-118 -1256 0
-119 -1259 0
-118 -1263 0
-119 -1265 0
-119 -1272 0
-114 -1286 0
-115 -1287 0
-118 -1290 0
-119 -1292 0
-115 -1294 0
-118 -1296 0
-119 -1299 0
-115 -1307 0
-118 -1310 0
-119 -1313 0
-116 -1322 0
-118 -1325 0
-119 -1327 0
-116 -1328 0
-118 -1330 0
-119 -1333 0
-116 -1334 0
-118 -1338 0
-119 -1340 0
-114 -1391 0
-118 -1394 0
-119 -1396 0
-119 -1403 0
-114 -1416 0
-118 -1419 0
-119 -1421 0
-114 -1422 0
-118 -1425 0
-119 -1428 0
-118 -1432 0
-119 -1434 0
-118 -1438 0
-119 -1440 0
-117 -1450 0
-118 -1453 0
-119 -1455 0
-114 -1636 0
-115 -1637 0
-118 -1640 0
-119 -1641 0
-115 -1643 0
-119 -1647 0
-115 -1654 0
-119 -1659 0
-116 -1670 0
-119 -1674 0
-116 -1675 0
-118 -1679 0
-119 -1681 0
-116 -1682 0
-119 -1687 0
-114 -1737 0
-119 -1741 0
-118 -1745 0
-119 -1747 0
-114 -1761 0
-118 -1764 0
-119 -1767 0
-114 -1768 0
-119 -1773 0
-119 -1780 0
-118 -1785 0
-119 -1787 0
-115 -1788 0
-119 -1793 0
-116 -1794 0
-119 -1799 0
-114 -1826 0
-119 -1831 0
-118 -1834 0
-119 -1837 0
-117 -1839 0
-118 -1841 0
-119 -1844 0
-114 -1932 0
-118 -1935 0
-119 -1937 0
-119 -1944 0
-118 -1948 0
-119 -1950 0
-114 -1952 0
-118 -1955 0
-119 -1958 0
-126 -283 0
-122 -317 0
-123 -320 0
-124 -322 0
-126 -323 0
-122 -355 0
-124 -359 0
-126 -360 0
-120 -370 0
-124 -374 0
-126 -375 0
-123 -391 0
-125 -394 0
-126 -395 0
-124 -399 0
-125 -400 0
-126 -401 0
-120 -468 0
-124 -473 0
-126 -474 0
-123 -519 0
-125 -520 0
-126 -521 0
-124 -556 0
-125 -557 0
-126 -558 0
-123 -603 0
-125 -604 0
-126 -605 0
-123 -664 0
-125 -667 0
-126 -668 0
-126 -741 0
-123 -764 0
-124 -766 0
-126 -767 0
-121 -806 0
-122 -807 0
-123 -811 0
-124 -812 0
-125 -813 0
-126 -814 0
-121 -838 0
-122 -839 0
-124 -842 0
-125 -843 0
-126 -844 0
-120 -845 0
-122 -846 0
-124 -848 0
-125 -849 0
-126 -850 0
-120 -851 0
-122 -852 0
-123 -855 0
-124 -858 0
-125 -859 0
-126 -860 0
-120 -861 0
-121 -862 0
-124 -865 0
-125 -866 0
-126 -867 0
-122 -868 0
-123 -870 0
-125 -872 0
-126 -873 0
-122 -874 0
-123 -877 0
-126 -879 0
-121 -880 0
-123 -883 0
-126 -885 0
-120 -960 0
-121 -961 0
-124 -966 0
-125 -967 0
-126 -968 0
-121 -1007 0
-123 -1010 0
-126 -1012 0
-121 -1034 0
-124 -1038 0
-126 -1039 0
-120 -1040 0
-125 -1044 0
-126 -1045 0
-120 -1046 0
-123 -1048 0
-126 -1051 0
-121 -1052 0
-122 -1053 0
-123 -1055 0
-124 -1057 0
-126 -1058 0
-120 -1059 0
-122 -1060 0
-123 -1062 0
-124 -1065 0
-125 -1066 0
-126 -1067 0
-120 -1068 0
-122 -1069 0
-123 -1072 0
-124 -1073 0
-126 -1074 0
-120 -1089 0
-121 -1090 0
-123 -1094 0
-124 -1097 0
-126 -1098 0
-120 -1099 0
-122 -1100 0
-124 -1103 0
-125 -1104 0
-126 -1105 0
-120 -1113 0
-124 -1117 0
-125 -1118 0
-126 -1119 0
-122 -1120 0
-123 -1122 0
-124 -1124 0
-126 -1125 0
-122 -1126 0
-123 -1127 0
-124 -1130 0
-125 -1131 0
-126 -1132 0
-121 -1139 0
-123 -1141 0
-124 -1143 0
-125 -1144 0
-126 -1145 0
-120 -1146 0
-123 -1148 0
-126 -1151 0
-120 -1152 0
-123 -1155 0
-125 -1157 0
-126 -1158 0
-120 -1166 0
-121 -1167 0
-123 -1169 0
-124 -1170 0
-126 -1171 0
-120 -1192 0
-121 -1193 0
-124 -1197 0
-126 -1198 0
-120 -1199 0
-124 -1202 0
-125 -1203 0
-126 -1204 0
-120 -1205 0
-123 -1207 0
-124 -1210 0
-126 -1211 0
-121 -1220 0
-123 -1223 0
-124 -1226 0
-125 -1227 0
-126 -1228 0
-120 -1229 0
-123 -1232 0
-126 -1234 0
-120 -1235 0
-123 -1237 0
-125 -1239 0
-126 -1240 0
-120 -1260 0
-124 -1264 0
-126 -1265 0
-120 -1266 0
-123 -1268 0
-124 -1270 0
-125 -1271 0
-126 -1272 0
-122 -1273 0
-125 -1277 0
-126 -1278 0
-122 -1279 0
-123 -1282 0
-125 -1284 0
-126 -1285 0
-121 -1300 0
-125 -1305 0
-126 -1306 0
-122 -1307 0
-123 -1308 0
-124 -1311 0
-125 -1312 0
-126 -1313 0
-120 -1321 0
-123 -1324 0
-125 -1326 0
-126 -1327 0
-124 -1331 0
-125 -1332 0
-126 -1333 0
-123 -1336 0
-124 -1339 0
-126 -1340 0
-121 -1341 0
-125 -1345 0
-126 -1346 0
-121 -1370 0
-123 -1372 0
-124 -1374 0
-125 -1375 0
-126 -1376 0
-120 -1377 0
-123 -1379 0
-125 -1381 0
-126 -1382 0
-120 -1383 0
-125 -1388 0
-126 -1389 0
-124 -1407 0
-125 -1408 0
-126 -1409 0
-123 -1412 0
-124 -1414 0
-126 -1415 0
-123 -1436 0
-125 -1439 0
-126 -1440 0
-120 -1449 0
-125 -1454 0
-126 -1455 0
-122 -1480 0
-125 -1485 0
-126 -1486 0
-122 -1487 0
-123 -1489 0
-125 -1491 0
-126 -1492 0
-121 -1493 0
-125 -1497 0
-126 -1498 0
-121 -1562 0
-125 -1567 0
-126 -1568 0
-124 -1613 0
-125 -1614 0
-126 -1615 0
-123 -1618 0
-124 -1621 0
-126 -1622 0
-122 -1623 0
-123 -1626 0
-125 -1628 0
-126 -1629 0
-122 -1630 0
-123 -1632 0
-126 -1635 0
-121 -1648 0
-123 -1651 0
-126 -1653 0
-122 -1654 0
-124 -1657 0
-125 -1658 0
-126 -1659 0
-120 -1669 0
-125 -1673 0
-126 -1674 0
-123 -1677 0
-124 -1680 0
-126 -1681 0
-123 -1683 0
-124 -1685 0
-125 -1686 0
-126 -1687 0
-121 -1688 0
-123 -1691 0
-126 -1694 0
-121 -1717 0
-124 -1721 0
-126 -1722 0
-120 -1723 0
-125 -1728 0
-126 -1729 0
-120 -1730 0
-123 -1733 0
-126 -1735 0
-123 -1750 0
-124 -1752 0
-126 -1753 0
-123 -1756 0
-124 -1758 0
-125 -1759 0
-126 -1760 0
-123 -1783 0
-125 -1786 0
-126 -1787 0
-123 -1795 0
-124 -1797 0
-125 -1798 0
-126 -1799 0
-123 -1815 0
-124 -1817 0
-125 -1818 0
-126 -1819 0
-124 -1823 0
-125 -1824 0
-126 -1825 0
-124 -1842 0
-125 -1843 0
-126 -1844 0
-121 -1845 0
-122 -1846 0
-123 -1847 0
-125 -1849 0
-126 -1850 0
-121 -1851 0
-122 -1852 0
-123 -1854 0
-125 -1856 0
-126 -1857 0
-121 -1858 0
-123 -1861 0
-125 -1863 0
-126 -1864 0
-121 -1872 0
-123 -1874 0
-125 -1876 0
-126 -1877 0
-121 -1892 0
-124 -1896 0
-125 -1897 0
-126 -1898 0
-120 -1899 0
-121 -1900 0
-125 -1903 0
-126 -1904 0
-120 -1905 0
-121 -1906 0
-123 -1907 0
-125 -1910 0
-126 -1911 0
-121 -1912 0
-123 -1914 0
-124 -1915 0
-125 -1916 0
-126 -1917 0
-121 -1918 0
-123 -1919 0
-124 -1922 0
-126 -1923 0
-120 -1931 0
-121 -1932 0
-123 -1933 0
-125 -1936 0
-126 -1937 0
-121 -1952 0
-124 -1956 0
-125 -1957 0
-126 -1958 0
-128 -801 0
-131 -803 0
-132 -804 0
-133 -805 0
-128 -846 0
-129 -847 0
-132 -849 0
-133 -850 0
-128 -852 0
-129 -853 0
-131 -855 0
-132 -859 0
-133 -860 0
-128 -868 0
-129 -869 0
-131 -870 0
-132 -872 0
-133 -873 0
-128 -874 0
-129 -875 0
-131 -877 0
-133 -879 0
-129 -886 0
-131 -887 0
-132 -890 0
-133 -891 0
-128 -955 0
-132 -958 0
-133 -959 0
-128 -1002 0
-131 -1003 0
-133 -1006 0
-129 -1041 0
-132 -1044 0
-133 -1045 0
-129 -1047 0
-131 -1048 0
-133 -1051 0
-128 -1060 0
-130 -1061 0
-131 -1062 0
-132 -1066 0
-133 -1067 0
-128 -1069 0
-130 -1070 0
-131 -1072 0
-133 -1074 0
-128 -1083 0
-131 -1085 0
-133 -1088 0
-128 -1100 0
-132 -1104 0
-133 -1105 0
-129 -1107 0
-130 -1108 0
-131 -1109 0
-132 -1111 0
-133 -1112 0
-129 -1114 0
-132 -1118 0
-133 -1119 0
-128 -1120 0
-131 -1122 0
-133 -1125 0
-128 -1126 0
-131 -1127 0
-132 -1131 0
-133 -1132 0
-129 -1133 0
-130 -1134 0
-131 -1135 0
-133 -1138 0
-129 -1147 0
-131 -1148 0
-133 -1151 0
-129 -1153 0
-131 -1155 0
-132 -1157 0
-133 -1158 0
-129 -1159 0
-131 -1161 0
-133 -1165 0
-130 -1200 0
-132 -1203 0
-133 -1204 0
-130 -1206 0
-131 -1207 0
-133 -1211 0
-130 -1230 0
-131 -1232 0
-133 -1234 0
-130 -1236 0
-131 -1237 0
-132 -1239 0
-133 -1240 0
-131 -1255 0
-132 -1258 0
-133 -1259 0
-133 -1265 0
-131 -1268 0
-132 -1271 0
-133 -1272 0
-128 -1273 0
-130 -1274 0
-132 -1277 0
-133 -1278 0
-128 -1279 0
-130 -1280 0
-131 -1282 0
-132 -1284 0
-133 -1285 0
-128 -1294 0
-132 -1298 0
-133 -1299 0
-128 -1307 0
-131 -1308 0
-132 -1312 0
-133 -1313 0
-129 -1314 0
-130 -1315 0
-132 -1319 0
-133 -1320 0
-129 -1322 0
-131 -1324 0
-132 -1326 0
-133 -1327 0
-129 -1328 0
-132 -1332 0
-133 -1333 0
-129 -1334 0
-131 -1336 0
-133 -1340 0
-130 -1378 0
-131 -1379 0
-132 -1381 0
-133 -1382 0
-130 -1384 0
-132 -1388 0
-133 -1389 0
-131 -1399 0
-132 -1402 0
-133 -1403 0
-130 -1404 0
-132 -1408 0
-133 -1409 0
-130 -1410 0
-131 -1412 0
-133 -1415 0
-133 -1434 0
-131 -1436 0
-132 -1439 0
-133 -1440 0
-130 -1442 0
-131 -1444 0
-132 -1447 0
-133 -1448 0
-130 -1450 0
-132 -1454 0
-133 -1455 0
-128 -1457 0
-131 -1458 0
-132 -1462 0
-133 -1463 0
-128 -1480 0
-129 -1481 0
-132 -1485 0
-133 -1486 0
-128 -1487 0
-129 -1488 0
-131 -1489 0
-132 -1491 0
-133 -1492 0
-128 -1556 0
-132 -1560 0
-133 -1561 0
-128 -1591 0
-131 -1593 0
-133 -1596 0
-129 -1610 0
-132 -1614 0
-133 -1615 0
-129 -1616 0
-131 -1618 0
-133 -1622 0
-128 -1623 0
-130 -1624 0
-131 -1626 0
-132 -1628 0
-133 -1629 0
-128 -1630 0
-130 -1631 0
-131 -1632 0
-133 -1635 0
-128 -1643 0
-131 -1644 0
-133 -1647 0
-128 -1654 0
-132 -1658 0
-133 -1659 0
-129 -1660 0
-130 -1661 0
-131 -1663 0
-132 -1667 0
-133 -1668 0
-129 -1670 0
-132 -1673 0
-133 -1674 0
-129 -1675 0
-131 -1677 0
-133 -1681 0
-129 -1682 0
-131 -1683 0
-132 -1686 0
-133 -1687 0
-130 -1724 0
-132 -1728 0
-133 -1729 0
-130 -1731 0
-131 -1733 0
-133 -1735 0
-133 -1747 0
-130 -1748 0
-131 -1750 0
-133 -1753 0
-130 -1754 0
-131 -1756 0
-132 -1759 0
-133 -1760 0
-131 -1776 0
-132 -1779 0
-133 -1780 0
-131 -1783 0
-132 -1786 0
-133 -1787 0
-128 -1788 0
-132 -1792 0
-133 -1793 0
-129 -1794 0
-131 -1795 0
-132 -1798 0
-133 -1799 0
-130 -1813 0
-131 -1815 0
-132 -1818 0
-133 -1819 0
-130 -1820 0
-132 -1824 0
-133 -1825 0
-131 -1833 0
-132 -1836 0
-133 -1837 0
-130 -1839 0
-132 -1843 0
-133 -1844 0
-127 -1845 0
-128 -1846 0
-131 -1847 0
-132 -1849 0
-133 -1850 0
-127 -1851 0
-128 -1852 0
-131 -1854 0
-132 -1856 0
-133 -1857 0
-127 -1865 0
-129 -1866 0
-131 -1867 0
-132 -1870 0
-133 -1871 0
-127 -1900 0
-132 -1903 0
-133 -1904 0
-127 -1906 0
-131 -1907 0
-132 -1910 0
-133 -1911 0
-127 -1912 0
-131 -1914 0
-132 -1916 0
-133 -1917 0
-127 -1918 0
-131 -1919 0
-133 -1923 0
-127 -1924 0
-130 -1925 0
-131 -1926 0
-132 -1929 0
-133 -1930 0
-127 -1932 0
-131 -1933 0
-132 -1936 0
-133 -1937 0
-127 -1952 0
-132 -1957 0
-133 -1958 0
-136 -271 0
-137 -272 0
-140 -274 0
-142 -277 0
-136 -311 0
-138 -312 0
-139 -313 0
-141 -314 0
-142 -316 0
-136 -355 0
-137 -356 0
-138 -357 0
-141 -359 0
-142 -360 0
-136 -383 0
-137 -384 0
-139 -385 0
-142 -388 0
-137 -396 0
-141 -399 0
-142 -401 0
-134 -459 0
-136 -460 0
-138 -461 0
-140 -463 0
-141 -465 0
-142 -467 0
-136 -509 0
-138 -510 0
-139 -512 0
-140 -513 0
-142 -515 0
-137 -552 0
-138 -553 0
-140 -555 0
-141 -556 0
-142 -558 0
-134 -566 0
-137 -567 0
-140 -569 0
-142 -571 0
-136 -656 0
-138 -657 0
-139 -658 0
-140 -659 0
-142 -661 0
-137 -724 0
-139 -725 0
-140 -726 0
-141 -727 0
-142 -729 0
-138 -762 0
-139 -764 0
-140 -765 0
-141 -766 0
-142 -767 0
-138 -781 0
-140 -782 0
-141 -784 0
-142 -786 0
-135 -793 0
-136 -794 0
-139 -796 0
-140 -797 0
-141 -798 0
-142 -799 0
-135 -838 0
-136 -839 0
-137 -840 0
-140 -841 0
-141 -842 0
-142 -844 0
-134 -851 0
-136 -852 0
-137 -853 0
-139 -855 0
-140 -856 0
-141 -858 0
-142 -860 0
-136 -874 0
-137 -875 0
-139 -877 0
-140 -878 0
-142 -879 0
-137 -886 0
-139 -887 0
-140 -888 0
-141 -889 0
-142 -891 0
-134 -947 0
-135 -948 0
-136 -949 0
-140 -950 0
-141 -952 0
-142 -953 0
-135 -995 0
-136 -996 0
-139 -997 0
-140 -998 0
-142 -1000 0
-135 -1034 0
-137 -1035 0
-140 -1037 0
-141 -1038 0
-142 -1039 0
-134 -1046 0
-137 -1047 0
-139 -1048 0
-140 -1049 0
-142 -1051 0
-135 -1052 0
-136 -1053 0
-138 -1054 0
-139 -1055 0
-141 -1057 0
-142 -1058 0
-134 -1068 0
-136 -1069 0
-138 -1070 0
-139 -1072 0
-141 -1073 0
-142 -1074 0
-134 -1099 0
-136 -1100 0
-141 -1103 0
-142 -1105 0
-134 -1106 0
-137 -1107 0
-138 -1108 0
-139 -1109 0
-141 -1110 0
-142 -1112 0
-136 -1120 0
-139 -1122 0
-141 -1124 0
-142 -1125 0
-137 -1133 0
-138 -1134 0
-139 -1135 0
-141 -1137 0
-142 -1138 0
-135 -1139 0
-137 -1140 0
-139 -1141 0
-141 -1143 0
-142 -1145 0
-134 -1152 0
-137 -1153 0
-139 -1155 0
-142 -1158 0
-134 -1192 0
-135 -1193 0
-138 -1194 0
-140 -1196 0
-141 -1197 0
-142 -1198 0
-134 -1205 0
-138 -1206 0
-139 -1207 0
-140 -1208 0
-141 -1210 0
-142 -1211 0
-135 -1220 0
-138 -1221 0
-139 -1223 0
-140 -1224 0
-141 -1226 0
-142 -1228 0
-134 -1235 0
-138 -1236 0
-139 -1237 0
-140 -1238 0
-142 -1240 0
-134 -1247 0
-135 -1248 0
-139 -1249 0
-140 -1250 0
-142 -1253 0
-134 -1260 0
-140 -1262 0
-141 -1264 0
-142 -1265 0
-136 -1279 0
-138 -1280 0
-139 -1282 0
-140 -1283 0
-142 -1285 0
-136 -1307 0
-139 -1308 0
-140 -1309 0
-141 -1311 0
-142 -1313 0
-137 -1314 0
-138 -1315 0
-140 -1317 0
-141 -1318 0
-142 -1320 0
-137 -1334 0
-139 -1336 0
-140 -1337 0
-141 -1339 0
-142 -1340 0
-135 -1370 0
-138 -1371 0
-139 -1372 0
-140 -1373 0
-141 -1374 0
-142 -1376 0
-134 -1383 0
-138 -1384 0
-140 -1386 0
-142 -1389 0
-138 -1410 0
-139 -1412 0
-140 -1413 0
-141 -1414 0
-142 -1415 0
-135 -1422 0
-140 -1424 0
-141 -1426 0
-142 -1428 0
-139 -1436 0
-140 -1437 0
-142 -1440 0
-138 -1442 0
-139 -1444 0
-141 -1446 0
-142 -1448 0
-136 -1487 0
-137 -1488 0
-139 -1489 0
-142 -1492 0
-135 -1549 0
-136 -1550 0
-140 -1552 0
-142 -1554 0
-137 -1616 0
-139 -1618 0
-140 -1619 0
-141 -1621 0
-142 -1622 0
-136 -1630 0
-138 -1631 0
-139 -1632 0
-140 -1633 0
-142 -1635 0
-136 -1654 0
-140 -1656 0
-141 -1657 0
-142 -1659 0
-137 -1660 0
-138 -1661 0
-139 -1663 0
-140 -1664 0
-141 -1666 0
-142 -1668 0
-137 -1682 0
-139 -1683 0
-140 -1684 0
-141 -1685 0
-142 -1687 0
-135 -1717 0
-138 -1718 0
-141 -1721 0
-142 -1722 0
-134 -1730 0
-138 -1731 0
-139 -1733 0
-142 -1735 0
-138 -1754 0
-139 -1756 0
-141 -1758 0
-142 -1760 0
-135 -1768 0
-139 -1770 0
-141 -1771 0
-142 -1773 0
-138 -1820 0
-140 -1821 0
-141 -1823 0
-142 -1825 0
-135 -1851 0
-136 -1852 0
-139 -1854 0
-142 -1857 0
-135 -1865 0
-137 -1866 0
-139 -1867 0
-141 -1869 0
-142 -1871 0
-135 -1892 0
-140 -1894 0
-141 -1896 0
-142 -1898 0
-134 -1905 0
-135 -1906 0
-139 -1907 0
-140 -1908 0
-142 -1911 0
-135 -1918 0
-139 -1919 0
-140 -1920 0
-141 -1922 0
-142 -1923 0
-135 -1924 0
-138 -1925 0
-139 -1926 0
-140 -1927 0
-141 -1928 0
-142 -1930 0
-134 -1938 0
-139 -1940 0
-140 -1941 0
-141 -1942 0
-142 -1944 0
-139 -1946 0
-140 -1947 0
-142 -1950 0
-145 -265 0
-146 -266 0
-148 -267 0
-152 -270 0
-145 -304 0
-147 -305 0
-148 -306 0
-149 -308 0
-150 -309 0
-152 -310 0
-145 -355 0
-146 -356 0
-147 -357 0
-148 -358 0
-150 -359 0
-152 -360 0
-143 -361 0
-145 -362 0
-146 -363 0
-148 -364 0
-149 -367 0
-150 -368 0
-152 -369 0
-145 -376 0
-146 -377 0
-148 -378 0
-149 -380 0
-151 -381 0
-152 -382 0
-146 -396 0
-148 -397 0
-149 -398 0
-150 -399 0
-151 -400 0
-152 -401 0
-143 -452 0
-145 -453 0
-147 -454 0
-148 -455 0
-150 -457 0
-152 -458 0
-145 -503 0
-147 -504 0
-148 -505 0
-149 -506 0
-151 -507 0
-152 -508 0
-146 -552 0
-147 -553 0
-148 -554 0
-150 -556 0
-151 -557 0
-152 -558 0
-143 -559 0
-146 -560 0
-148 -561 0
-149 -563 0
-151 -564 0
-152 -565 0
-145 -594 0
-146 -595 0
-149 -597 0
-151 -598 0
-152 -599 0
-145 -649 0
-147 -650 0
-148 -651 0
-151 -654 0
-152 -655 0
-146 -717 0
-148 -718 0
-149 -721 0
-150 -722 0
-152 -723 0
-145 -730 0
-147 -731 0
-149 -734 0
-152 -735 0
-147 -762 0
-148 -763 0
-150 -766 0
-152 -767 0
-143 -768 0
-147 -769 0
-148 -770 0
-149 -772 0
-152 -773 0
-147 -774 0
-148 -775 0
-149 -777 0
-150 -778 0
-151 -779 0
-152 -780 0
-144 -787 0
-145 -788 0
-149 -789 0
-150 -790 0
-151 -791 0
-152 -792 0
-144 -838 0
-145 -839 0
-146 -840 0
-150 -842 0
-151 -843 0
-152 -844 0
-143 -845 0
-145 -846 0
-146 -847 0
-150 -848 0
-151 -849 0
-152 -850 0
-145 -868 0
-146 -869 0
-149 -871 0
-151 -872 0
-152 -873 0
-146 -886 0
-150 -889 0
-151 -890 0
-152 -891 0
-143 -938 0
-144 -939 0
-145 -940 0
-148 -941 0
-150 -944 0
-151 -945 0
-152 -946 0
-144 -989 0
-145 -990 0
-148 -991 0
-149 -993 0
-152 -994 0
-144 -1034 0
-146 -1035 0
-148 -1036 0
-150 -1038 0
-152 -1039 0
-143 -1040 0
-146 -1041 0
-148 -1042 0
-151 -1044 0
-152 -1045 0
-144 -1052 0
-145 -1053 0
-147 -1054 0
-149 -1056 0
-150 -1057 0
-152 -1058 0
-143 -1059 0
-145 -1060 0
-147 -1061 0
-149 -1064 0
-150 -1065 0
-151 -1066 0
-152 -1067 0
-143 -1075 0
-144 -1076 0
-145 -1077 0
-149 -1079 0
-150 -1080 0
-152 -1081 0
-143 -1106 0
-146 -1107 0
-147 -1108 0
-150 -1110 0
-151 -1111 0
-152 -1112 0
-143 -1113 0
-146 -1114 0
-149 -1116 0
-150 -1117 0
-151 -1118 0
-152 -1119 0
-145 -1126 0
-149 -1129 0
-150 -1130 0
-151 -1131 0
-152 -1132 0
-146 -1133 0
-147 -1134 0
-149 -1136 0
-150 -1137 0
-152 -1138 0
-144 -1139 0
-146 -1140 0
-149 -1142 0
-150 -1143 0
-151 -1144 0
-152 -1145 0
-143 -1146 0
-146 -1147 0
-149 -1150 0
-152 -1151 0
-143 -1192 0
-144 -1193 0
-147 -1194 0
-148 -1195 0
-150 -1197 0
-152 -1198 0
-143 -1199 0
-147 -1200 0
-148 -1201 0
-150 -1202 0
-151 -1203 0
-152 -1204 0
-143 -1212 0
-144 -1213 0
-148 -1214 0
-149 -1216 0
-150 -1217 0
-152 -1218 0
-144 -1220 0
-147 -1221 0
-148 -1222 0
-149 -1225 0
-150 -1226 0
-151 -1227 0
-152 -1228 0
-143 -1229 0
-147 -1230 0
-148 -1231 0
-149 -1233 0
-152 -1234 0
-143 -1241 0
-144 -1242 0
-148 -1243 0
-149 -1244 0
-151 -1245 0
-152 -1246 0
-143 -1266 0
-148 -1267 0
-150 -1270 0
-151 -1271 0
-152 -1272 0
-145 -1273 0
-147 -1274 0
-148 -1275 0
-149 -1276 0
-151 -1277 0
-152 -1278 0
-144 -1286 0
-145 -1287 0
-148 -1288 0
-149 -1290 0
-151 -1291 0
-152 -1292 0
-146 -1314 0
-147 -1315 0
-148 -1316 0
-150 -1318 0
-151 -1319 0
-152 -1320 0
-143 -1321 0
-146 -1322 0
-148 -1323 0
-149 -1325 0
-151 -1326 0
-152 -1327 0
-146 -1328 0
-148 -1329 0
-149 -1330 0
-150 -1331 0
-151 -1332 0
-152 -1333 0
-144 -1370 0
-147 -1371 0
-150 -1374 0
-151 -1375 0
-152 -1376 0
-143 -1377 0
-147 -1378 0
-151 -1381 0
-152 -1382 0
-143 -1390 0
-144 -1391 0
-149 -1394 0
-151 -1395 0
-152 -1396 0
-147 -1404 0
-149 -1406 0
-150 -1407 0
-151 -1408 0
-152 -1409 0
-144 -1416 0
-149 -1419 0
-150 -1420 0
-152 -1421 0
-147 -1442 0
-148 -1443 0
-149 -1445 0
-150 -1446 0
-151 -1447 0
-152 -1448 0
-143 -1449 0
-147 -1450 0
-148 -1451 0
-149 -1453 0
-151 -1454 0
-152 -1455 0
-145 -1480 0
-146 -1481 0
-148 -1482 0
-149 -1484 0
-151 -1485 0
-152 -1486 0
-144 -1542 0
-145 -1543 0
-148 -1544 0
-149 -1546 0
-151 -1547 0
-152 -1548 0
-146 -1610 0
-148 -1611 0
-149 -1612 0
-150 -1613 0
-151 -1614 0
-152 -1615 0
-145 -1623 0
-147 -1624 0
-148 -1625 0
-151 -1628 0
-152 -1629 0
-144 -1636 0
-145 -1637 0
-148 -1638 0
-149 -1640 0
-152 -1641 0
-146 -1660 0
-147 -1661 0
-148 -1662 0
-149 -1665 0
-150 -1666 0
-151 -1667 0
-152 -1668 0
-143 -1669 0
-146 -1670 0
-148 -1671 0
-151 -1673 0
-152 -1674 0
-146 -1675 0
-148 -1676 0
-149 -1679 0
-150 -1680 0
-152 -1681 0
-144 -1717 0
-147 -1718 0
-148 -1719 0
-149 -1720 0
-150 -1721 0
-152 -1722 0
-143 -1723 0
-147 -1724 0
-148 -1725 0
-149 -1727 0
-151 -1728 0
-152 -1729 0
-143 -1736 0
-144 -1737 0
-148 -1738 0
-152 -1741 0
-147 -1748 0
-148 -1749 0
-150 -1752 0
-152 -1753 0
-144 -1761 0
-148 -1762 0
-149 -1764 0
-150 -1765 0
-151 -1766 0
-152 -1767 0
-148 -1782 0
-149 -1785 0
-151 -1786 0
-152 -1787 0
-146 -1794 0
-150 -1797 0
-151 -1798 0
-152 -1799 0
-147 -1813 0
-148 -1814 0
-149 -1816 0
-150 -1817 0
-151 -1818 0
-152 -1819 0
-144 -1826 0
-148 -1827 0
-150 -1829 0
-151 -1830 0
-152 -1831 0
-147 -1839 0
-149 -1841 0
-150 -1842 0
-151 -1843 0
-152 -1844 0
-144 -1845 0
-145 -1846 0
-151 -1849 0
-152 -1850 0
-144 -1865 0
-146 -1866 0
-149 -1868 0
-150 -1869 0
-151 -1870 0
-152 -1871 0
-144 -1892 0
-148 -1893 0
-149 -1895 0
-150 -1896 0
-151 -1897 0
-152 -1898 0
-143 -1899 0
-144 -1900 0
-148 -1901 0
-149 -1902 0
-151 -1903 0
-152 -1904 0
-144 -1912 0
-148 -1913 0
-150 -1915 0
-151 -1916 0
-152 -1917 0
-144 -1924 0
-147 -1925 0
-150 -1928 0
-151 -1929 0
-152 -1930 0
-143 -1931 0
-144 -1932 0
-149 -1935 0
-151 -1936 0
-152 -1937 0
-144 -1952 0
-148 -1953 0
-149 -1955 0
-150 -1956 0
-151 -1957 0
-152 -1958 0
-159 -264 0
-154 -317 0
-156 -320 0
-157 -321 0
-159 -323 0
-154 -331 0
-157 -334 0
-158 -335 0
-159 -338 0
-153 -339 0
-154 -340 0
-157 -343 0
-158 -344 0
-159 -345 0
-153 -346 0
-154 -347 0
-155 -350 0
-156 -351 0
-157 -352 0
-159 -354 0
-153 -370 0
-157 -373 0
-159 -375 0
-154 -376 0
-155 -378 0
-157 -379 0
-158 -380 0
-159 -382 0
-154 -383 0
-156 -385 0
-158 -386 0
-159 -388 0
-155 -397 0
-158 -398 0
-159 -401 0
-153 -445 0
-157 -449 0
-159 -451 0
-155 -518 0
-156 -519 0
-159 -521 0
-155 -532 0
-158 -533 0
-159 -535 0
-153 -536 0
-155 -539 0
-157 -540 0
-158 -541 0
-159 -544 0
-153 -545 0
-156 -548 0
-159 -551 0
-154 -578 0
-155 -581 0
-156 -582 0
-157 -583 0
-158 -584 0
-159 -587 0
-154 -588 0
-155 -591 0
-159 -593 0
-155 -602 0
-156 -603 0
-159 -605 0
-155 -645 0
-156 -646 0
-159 -648 0
-156 -706 0
-158 -707 0
-159 -709 0
-155 -712 0
-157 -713 0
-159 -716 0
-154 -730 0
-156 -732 0
-157 -733 0
-158 -734 0
-159 -735 0
-156 -745 0
-158 -746 0
-159 -748 0
-153 -749 0
-156 -751 0
-157 -752 0
-158 -753 0
-159 -755 0
-153 -756 0
-155 -758 0
-159 -761 0
-155 -775 0
-156 -776 0
-158 -777 0
-159 -780 0
-157 -782 0
-158 -783 0
-159 -786 0
-154 -807 0
-155 -810 0
-156 -811 0
-159 -814 0
-154 -816 0
-155 -818 0
-158 -819 0
-159 -821 0
-153 -822 0
-154 -824 0
-155 -826 0
-157 -827 0
-158 -828 0
-159 -830 0
-153 -831 0
-154 -833 0
-155 -835 0
-156 -836 0
-159 -837 0
-153 -861 0
-155 -864 0
-159 -867 0
-154 -868 0
-156 -870 0
-158 -871 0
-159 -873 0
-154 -874 0
-155 -876 0
-156 -877 0
-157 -878 0
-159 -879 0
-156 -887 0
-157 -888 0
-159 -891 0
-153 -932 0
-155 -936 0
-159 -937 0
-156 -1010 0
-157 -1011 0
-159 -1012 0
-157 -1015 0
-158 -1016 0
-159 -1018 0
-153 -1019 0
-158 -1022 0
-159 -1024 0
-153 -1025 0
-155 -1028 0
-156 -1029 0
-157 -1030 0
-159 -1033 0
-154 -1053 0
-156 -1055 0
-158 -1056 0
-159 -1058 0
-153 -1059 0
-154 -1060 0
-156 -1062 0
-157 -1063 0
-158 -1064 0
-159 -1067 0
-153 -1068 0
-154 -1069 0
-155 -1071 0
-156 -1072 0
-159 -1074 0
-153 -1075 0
-154 -1077 0
-157 -1078 0
-158 -1079 0
-159 -1081 0
-153 -1082 0
-154 -1083 0
-155 -1084 0
-156 -1085 0
-157 -1086 0
-158 -1087 0
-159 -1088 0
-153 -1106 0
-156 -1109 0
-159 -1112 0
-153 -1113 0
-157 -1115 0
-158 -1116 0
-159 -1119 0
-154 -1120 0
-155 -1121 0
-156 -1122 0
-158 -1123 0
-159 -1125 0
-154 -1126 0
-156 -1127 0
-157 -1128 0
-158 -1129 0
-159 -1132 0
-155 -1160 0
-156 -1161 0
-157 -1162 0
-158 -1163 0
-159 -1165 0
-153 -1166 0
-156 -1169 0
-159 -1171 0
-153 -1172 0
-158 -1175 0
-159 -1178 0
-153 -1179 0
-157 -1182 0
-158 -1183 0
-159 -1184 0
-153 -1185 0
-155 -1188 0
-156 -1189 0
-159 -1191 0
-155 -1222 0
-156 -1223 0
-157 -1224 0
-158 -1225 0
-159 -1228 0
-153 -1229 0
-155 -1231 0
-156 -1232 0
-158 -1233 0
-159 -1234 0
-153 -1235 0
-156 -1237 0
-157 -1238 0
-159 -1240 0
-153 -1241 0
-155 -1243 0
-158 -1244 0
-159 -1246 0
-153 -1247 0
-156 -1249 0
-157 -1250 0
-158 -1251 0
-159 -1253 0
-153 -1254 0
-156 -1255 0
-158 -1256 0
-159 -1259 0
-154 -1273 0
-155 -1275 0
-158 -1276 0
-159 -1278 0
-154 -1279 0
-155 -1281 0
-156 -1282 0
-157 -1283 0
-159 -1285 0
-154 -1287 0
-155 -1288 0
-156 -1289 0
-158 -1290 0
-159 -1292 0
-153 -1293 0
-154 -1294 0
-155 -1295 0
-158 -1296 0
-159 -1299 0
-155 -1316 0
-157 -1317 0
-159 -1320 0
-153 -1321 0
-155 -1323 0
-156 -1324 0
-158 -1325 0
-159 -1327 0
-155 -1343 0
-157 -1344 0
-159 -1346 0
-155 -1349 0
-156 -1350 0
-157 -1351 0
-158 -1352 0
-159 -1353 0
-153 -1354 0
-155 -1357 0
-156 -1358 0
-158 -1359 0
-159 -1362 0
-153 -1363 0
-155 -1366 0
-157 -1367 0
-159 -1369 0
-157 -1405 0
-158 -1406 0
-159 -1409 0
-155 -1411 0
-156 -1412 0
-157 -1413 0
-159 -1415 0
-156 -1417 0
-157 -1418 0
-158 -1419 0
-159 -1421 0
-155 -1423 0
-157 -1424 0
-158 -1425 0
-159 -1428 0
-153 -1429 0
-155 -1430 0
-157 -1431 0
-158 -1432 0
-159 -1434 0
-154 -1465 0
-157 -1467 0
-159 -1470 0
-154 -1472 0
-155 -1474 0
-156 -1475 0
-157 -1476 0
-158 -1477 0
-159 -1479 0
-157 -1495 0
-158 -1496 0
-159 -1498 0
-157 -1538 0
-158 -1539 0
-159 -1541 0
-155 -1599 0
-157 -1600 0
-159 -1602 0
-156 -1605 0
-158 -1606 0
-159 -1609 0
-154 -1623 0
-155 -1625 0
-156 -1626 0
-157 -1627 0
-159 -1629 0
-154 -1630 0
-156 -1632 0
-157 -1633 0
-158 -1634 0
-159 -1635 0
-154 -1637 0
-155 -1638 0
-157 -1639 0
-158 -1640 0
-159 -1641 0
-153 -1642 0
-154 -1643 0
-156 -1644 0
-157 -1645 0
-159 -1647 0
-155 -1662 0
-156 -1663 0
-157 -1664 0
-158 -1665 0
-159 -1668 0
-153 -1669 0
-155 -1671 0
-157 -1672 0
-159 -1674 0
-155 -1690 0
-156 -1691 0
-157 -1692 0
-158 -1693 0
-159 -1694 0
-155 -1697 0
-157 -1698 0
-159 -1700 0
-153 -1701 0
-155 -1704 0
-157 -1705 0
-159 -1707 0
-153 -1708 0
-156 -1711 0
-157 -1712 0
-158 -1713 0
-159 -1716 0
-155 -1749 0
-156 -1750 0
-157 -1751 0
-159 -1753 0
-155 -1755 0
-156 -1756 0
-158 -1757 0
-159 -1760 0
-155 -1762 0
-157 -1763 0
-158 -1764 0
-159 -1767 0
-155 -1769 0
-156 -1770 0
-159 -1773 0
-153 -1774 0
-155 -1775 0
-156 -1776 0
-157 -1777 0
-159 -1780 0
-154 -1788 0
-155 -1789 0
-157 -1790 0
-159 -1793 0
-156 -1795 0
-157 -1796 0
-159 -1799 0
-156 -1802 0
-157 -1803 0
-159 -1806 0
-155 -1809 0
-158 -1810 0
-159 -1812 0
-154 -1846 0
-156 -1847 0
-157 -1848 0
-159 -1850 0
-154 -1852 0
-155 -1853 0
-156 -1854 0
-158 -1855 0
-159 -1857 0
-156 -1867 0
-158 -1868 0
-159 -1871 0
-156 -1874 0
-158 -1875 0
-159 -1877 0
-153 -1879 0
-157 -1881 0
-159 -1884 0
-153 -1885 0
-155 -1887 0
-156 -1888 0
-158 -1889 0
-159 -1891 0
-155 -1913 0
-156 -1914 0
-159 -1917 0
-156 -1919 0
-157 -1920 0
-158 -1921 0
-159 -1923 0
-153 -1938 0
-155 -1939 0
-156 -1940 0
-157 -1941 0
-159 -1944 0
-161 -254 0
-162 -255 0
-168 -256 0
-169 -258 0
-161 -325 0
-166 -326 0
-167 -327 0
-169 -329 0
-161 -340 0
-162 -341 0
-163 -342 0
-166 -343 0
-167 -344 0
-169 -345 0
-161 -347 0
-162 -348 0
-163 -349 0
-164 -350 0
-165 -351 0
-166 -352 0
-169 -354 0
-161 -376 0
-162 -377 0
-164 -378 0
-166 -379 0
-167 -380 0
-169 -382 0
-161 -383 0
-162 -384 0
-165 -385 0
-167 -386 0
-169 -388 0
-162 -389 0
-163 -390 0
-165 -391 0
-166 -392 0
-167 -393 0
-169 -395 0
-161 -439 0
-163 -440 0
-166 -441 0
-168 -442 0
-169 -444 0
-161 -523 0
-164 -524 0
-167 -525 0
-168 -526 0
-169 -528 0
-162 -537 0
-163 -538 0
-164 -539 0
-166 -540 0
-167 -541 0
-168 -542 0
-169 -544 0
-162 -546 0
-163 -547 0
-165 -548 0
-168 -549 0
-169 -551 0
-161 -572 0
-164 -573 0
-165 -574 0
-167 -575 0
-168 -576 0
-169 -577 0
-161 -578 0
-162 -579 0
-163 -580 0
-164 -581 0
-165 -582 0
-166 -583 0
-167 -584 0
-168 -585 0
-169 -587 0
-161 -588 0
-162 -589 0
-163 -590 0
-164 -591 0
-168 -592 0
-169 -593 0
-161 -636 0
-163 -637 0
-164 -638 0
-165 -639 0
-168 -640 0
-169 -641 0
-161 -697 0
-165 -698 0
-166 -699 0
-167 -700 0
-168 -701 0
-169 -703 0
-162 -704 0
-163 -705 0
-165 -706 0
-167 -707 0
-168 -708 0
-169 -709 0
-162 -710 0
-163 -711 0
-164 -712 0
-166 -713 0
-168 -714 0
-169 -716 0
-161 -730 0
-163 -731 0
-165 -732 0
-166 -733 0
-167 -734 0
-169 -735 0
-162 -736 0
-163 -737 0
-164 -738 0
-166 -739 0
-167 -740 0
-169 -741 0
-163 -750 0
-165 -751 0
-166 -752 0
-167 -753 0
-168 -754 0
-169 -755 0
-163 -757 0
-164 -758 0
-168 -759 0
-169 -761 0
-163 -774 0
-164 -775 0
-165 -776 0
-167 -777 0
-168 -778 0
-169 -780 0
-163 -781 0
-166 -782 0
-167 -783 0
-168 -784 0
-169 -786 0
-161 -801 0
-164 -802 0
-165 -803 0
-169 -805 0
-160 -823 0
-161 -824 0
-162 -825 0
-164 -826 0
-166 -827 0
-167 -828 0
-169 -830 0
-160 -832 0
-161 -833 0
-162 -834 0
-164 -835 0
-165 -836 0
-169 -837 0
-161 -868 0
-162 -869 0
-165 -870 0
-167 -871 0
-169 -873 0
-161 -874 0
-162 -875 0
-164 -876 0
-165 -877 0
-166 -878 0
-169 -879 0
-160 -880 0
-162 -881 0
-164 -882 0
-165 -883 0
-167 -884 0
-169 -885 0
-160 -927 0
-161 -928 0
-164 -929 0
-168 -930 0
-169 -931 0
-161 -1002 0
-165 -1003 0
-166 -1004 0
-168 -1005 0
-169 -1006 0
-160 -1020 0
-162 -1021 0
-167 -1022 0
-168 -1023 0
-169 -1024 0
-160 -1026 0
-162 -1027 0
-164 -1028 0
-165 -1029 0
-166 -1030 0
-168 -1031 0
-169 -1033 0
-161 -1060 0
-163 -1061 0
-165 -1062 0
-166 -1063 0
-167 -1064 0
-168 -1065 0
-169 -1067 0
-161 -1069 0
-163 -1070 0
-164 -1071 0
-165 -1072 0
-168 -1073 0
-169 -1074 0
-160 -1076 0
-161 -1077 0
-166 -1078 0
-167 -1079 0
-168 -1080 0
-169 -1081 0
-160 -1090 0
-162 -1091 0
-163 -1092 0
-164 -1093 0
-165 -1094 0
-166 -1095 0
-167 -1096 0
-168 -1097 0
-169 -1098 0
-162 -1114 0
-166 -1115 0
-167 -1116 0
-168 -1117 0
-169 -1119 0
-161 -1120 0
-164 -1121 0
-165 -1122 0
-167 -1123 0
-168 -1124 0
-169 -1125 0
-161 -1126 0
-165 -1127 0
-166 -1128 0
-167 -1129 0
-168 -1130 0
-169 -1132 0
-162 -1133 0
-163 -1134 0
-165 -1135 0
-167 -1136 0
-168 -1137 0
-169 -1138 0
-160 -1139 0
-162 -1140 0
-165 -1141 0
-167 -1142 0
-168 -1143 0
-169 -1145 0
-160 -1180 0
-163 -1181 0
-166 -1182 0
-167 -1183 0
-169 -1184 0
-160 -1186 0
-163 -1187 0
-164 -1188 0
-165 -1189 0
-169 -1191 0
-163 -1230 0
-164 -1231 0
-165 -1232 0
-167 -1233 0
-169 -1234 0
-163 -1236 0
-165 -1237 0
-166 -1238 0
-169 -1240 0
-160 -1242 0
-164 -1243 0
-167 -1244 0
-169 -1246 0
-160 -1248 0
-165 -1249 0
-166 -1250 0
-167 -1251 0
-169 -1253 0
-161 -1273 0
-163 -1274 0
-164 -1275 0
-167 -1276 0
-169 -1278 0
-161 -1279 0
-163 -1280 0
-164 -1281 0
-165 -1282 0
-166 -1283 0
-169 -1285 0
-160 -1286 0
-161 -1287 0
-164 -1288 0
-165 -1289 0
-167 -1290 0
-169 -1292 0
-160 -1300 0
-162 -1301 0
-163 -1302 0
-164 -1303 0
-167 -1304 0
-169 -1306 0
-162 -1322 0
-164 -1323 0
-165 -1324 0
-167 -1325 0
-169 -1327 0
-160 -1355 0
-163 -1356 0
-164 -1357 0
-165 -1358 0
-167 -1359 0
-168 -1360 0
-169 -1362 0
-160 -1364 0
-163 -1365 0
-164 -1366 0
-166 -1367 0
-168 -1368 0
-169 -1369 0
-164 -1398 0
-165 -1399 0
-166 -1400 0
-168 -1401 0
-169 -1403 0
-163 -1404 0
-166 -1405 0
-167 -1406 0
-168 -1407 0
-169 -1409 0
-163 -1410 0
-164 -1411 0
-165 -1412 0
-166 -1413 0
-168 -1414 0
-169 -1415 0
-160 -1416 0
-165 -1417 0
-166 -1418 0
-167 -1419 0
-168 -1420 0
-169 -1421 0
-160 -1422 0
-164 -1423 0
-166 -1424 0
-167 -1425 0
-168 -1426 0
-169 -1428 0
-163 -1442 0
-164 -1443 0
-165 -1444 0
-167 -1445 0
-168 -1446 0
-169 -1448 0
-161 -1457 0
-165 -1458 0
-166 -1459 0
-167 -1460 0
-168 -1461 0
-169 -1463 0
-160 -1464 0
-161 -1465 0
-162 -1466 0
-166 -1467 0
-168 -1468 0
-169 -1470 0
-160 -1471 0
-161 -1472 0
-162 -1473 0
-164 -1474 0
-165 -1475 0
-166 -1476 0
-167 -1477 0
-168 -1478 0
-169 -1479 0
-160 -1529 0
-161 -1530 0
-166 -1531 0
-167 -1532 0
-168 -1533 0
-169 -1534 0
-161 -1591 0
-164 -1592 0
-165 -1593 0
-167 -1594 0
-168 -1595 0
-169 -1596 0
-160 -1597 0
-162 -1598 0
-164 -1599 0
-166 -1600 0
-168 -1601 0
-169 -1602 0
-160 -1603 0
-162 -1604 0
-165 -1605 0
-167 -1606 0
-168 -1607 0
-169 -1609 0
-161 -1623 0
-163 -1624 0
-164 -1625 0
-165 -1626 0
-166 -1627 0
-169 -1629 0
-161 -1630 0
-163 -1631 0
-165 -1632 0
-166 -1633 0
-167 -1634 0
-169 -1635 0
-160 -1636 0
-161 -1637 0
-164 -1638 0
-166 -1639 0
-167 -1640 0
-169 -1641 0
-160 -1648 0
-162 -1649 0
-163 -1650 0
-165 -1651 0
-166 -1652 0
-169 -1653 0
-162 -1670 0
-164 -1671 0
-166 -1672 0
-169 -1674 0
-160 -1702 0
-163 -1703 0
-164 -1704 0
-166 -1705 0
-168 -1706 0
-169 -1707 0
-160 -1709 0
-163 -1710 0
-165 -1711 0
-166 -1712 0
-167 -1713 0
-168 -1714 0
-169 -1716 0
-164 -1743 0
-166 -1744 0
-167 -1745 0
-168 -1746 0
-169 -1747 0
-163 -1748 0
-164 -1749 0
-165 -1750 0
-166 -1751 0
-168 -1752 0
-169 -1753 0
-163 -1754 0
-164 -1755 0
-165 -1756 0
-167 -1757 0
-168 -1758 0
-169 -1760 0
-160 -1761 0
-164 -1762 0
-166 -1763 0
-167 -1764 0
-168 -1765 0
-169 -1767 0
-160 -1768 0
-164 -1769 0
-165 -1770 0
-168 -1771 0
-169 -1773 0
-162 -1794 0
-165 -1795 0
-166 -1796 0
-168 -1797 0
-169 -1799 0
-160 -1800 0
-163 -1801 0
-165 -1802 0
-166 -1803 0
-168 -1804 0
-169 -1806 0
-160 -1807 0
-163 -1808 0
-164 -1809 0
-167 -1810 0
-168 -1811 0
-169 -1812 0
-165 -1833 0
-167 -1834 0
-168 -1835 0
-169 -1837 0
-160 -1845 0
-161 -1846 0
-165 -1847 0
-166 -1848 0
-169 -1850 0
-160 -1851 0
-161 -1852 0
-164 -1853 0
-165 -1854 0
-167 -1855 0
-169 -1857 0
-160 -1858 0
-162 -1859 0
-164 -1860 0
-165 -1861 0
-166 -1862 0
-169 -1864 0
-160 -1880 0
-166 -1881 0
-168 -1882 0
-169 -1884 0
-160 -1886 0
-164 -1887 0
-165 -1888 0
-167 -1889 0
-168 -1890 0
-169 -1891 0
-160 -1912 0
-164 -1913 0
-165 -1914 0
-168 -1915 0
-169 -1917 0
-160 -1918 0
-165 -1919 0
-166 -1920 0
-167 -1921 0
-168 -1922 0
-169 -1923 0
-160 -1924 0
-163 -1925 0
-165 -1926 0
-166 -1927 0
-168 -1928 0
-169 -1930 0
-164 -1939 0
-165 -1940 0
-166 -1941 0
-168 -1942 0
-169 -1944 0
-171 -247 0
-172 -248 0
-177 -251 0
-178 -252 0
-171 -311 0
-173 -312 0
-175 -313 0
-177 -315 0
-178 -316 0
-170 -324 0
-171 -325 0
-176 -327 0
-177 -328 0
-178 -329 0
-171 -331 0
-172 -332 0
-173 -333 0
-176 -335 0
-177 -337 0
-178 -338 0
-170 -346 0
-171 -347 0
-172 -348 0
-173 -349 0
-174 -350 0
-175 -351 0
-177 -353 0
-178 -354 0
-171 -376 0
-172 -377 0
-174 -378 0
-176 -380 0
-177 -381 0
-178 -382 0
-172 -389 0
-173 -390 0
-175 -391 0
-176 -393 0
-177 -394 0
-178 -395 0
-172 -396 0
-174 -397 0
-176 -398 0
-177 -400 0
-178 -401 0
-170 -432 0
-171 -434 0
-173 -435 0
-177 -436 0
-178 -437 0
-171 -509 0
-173 -510 0
-174 -511 0
-175 -512 0
-177 -514 0
-178 -515 0
-170 -522 0
-171 -523 0
-174 -524 0
-176 -525 0
-177 -527 0
-178 -528 0
-172 -530 0
-173 -531 0
-174 -532 0
-176 -533 0
-177 -534 0
-178 -535 0
-170 -545 0
-172 -546 0
-173 -547 0
-175 -548 0
-177 -550 0
-178 -551 0
-170 -566 0
-172 -567 0
-174 -568 0
-177 -570 0
-178 -571 0
-171 -572 0
-174 -573 0
-175 -574 0
-176 -575 0
-178 -577 0
-171 -588 0
-172 -589 0
-173 -590 0
-174 -591 0
-178 -593 0
-171 -627 0
-173 -628 0
-174 -629 0
-175 -630 0
-177 -633 0
-178 -634 0
-171 -697 0
-175 -698 0
-176 -700 0
-177 -702 0
-178 -703 0
-172 -710 0
-173 -711 0
-174 -712 0
-177 -715 0
-178 -716 0
-172 -724 0
-175 -725 0
-177 -728 0
-178 -729 0
-171 -730 0
-173 -731 0
-175 -732 0
-176 -734 0
-178 -735 0
-172 -736 0
-173 -737 0
-174 -738 0
-176 -740 0
-178 -741 0
-173 -744 0
-175 -745 0
-176 -746 0
-177 -747 0
-178 -748 0
-170 -756 0
-173 -757 0
-174 -758 0
-177 -760 0
-178 -761 0
-173 -774 0
-174 -775 0
-175 -776 0
-176 -777 0
-177 -779 0
-178 -780 0
-171 -794 0
-174 -795 0
-175 -796 0
-178 -799 0
-171 -816 0
-172 -817 0
-174 -818 0
-176 -819 0
-178 -821 0
-170 -831 0
-171 -833 0
-172 -834 0
-174 -835 0
-175 -836 0
-178 -837 0
-171 -874 0
-172 -875 0
-174 -876 0
-175 -877 0
-178 -879 0
-172 -881 0
-174 -882 0
-175 -883 0
-176 -884 0
-178 -885 0
-170 -919 0
-171 -921 0
-174 -922 0
-177 -924 0
-178 -925 0
-171 -996 0
-175 -997 0
-177 -999 0
-178 -1000 0
-172 -1014 0
-176 -1016 0
-177 -1017 0
-178 -1018 0
-170 -1025 0
-172 -1027 0
-174 -1028 0
-175 -1029 0
-177 -1032 0
-178 -1033 0
-171 -1053 0
-173 -1054 0
-175 -1055 0
-176 -1056 0
-178 -1058 0
-170 -1068 0
-171 -1069 0
-173 -1070 0
-174 -1071 0
-175 -1072 0
-178 -1074 0
-170 -1075 0
-171 -1077 0
-176 -1079 0
-178 -1081 0
-170 -1082 0
-171 -1083 0
-174 -1084 0
-175 -1085 0
-176 -1087 0
-178 -1088 0
-170 -1089 0
-172 -1091 0
-173 -1092 0
-174 -1093 0
-175 -1094 0
-176 -1096 0
-178 -1098 0
-171 -1120 0
-174 -1121 0
-175 -1122 0
-176 -1123 0
-178 -1125 0
-172 -1133 0
-173 -1134 0
-175 -1135 0
-176 -1136 0
-178 -1138 0
-170 -1146 0
-172 -1147 0
-175 -1148 0
-176 -1150 0
-178 -1151 0
-172 -1159 0
-174 -1160 0
-175 -1161 0
-176 -1163 0
-178 -1165 0
-170 -1172 0
-173 -1174 0
-176 -1175 0
-177 -1177 0
-178 -1178 0
-170 -1185 0
-173 -1187 0
-174 -1188 0
-175 -1189 0
-177 -1190 0
-178 -1191 0
-173 -1221 0
-174 -1222 0
-175 -1223 0
-176 -1225 0
-177 -1227 0
-178 -1228 0
-170 -1235 0
-173 -1236 0
-175 -1237 0
-177 -1239 0
-178 -1240 0
-170 -1241 0
-174 -1243 0
-176 -1244 0
-177 -1245 0
-178 -1246 0
-170 -1254 0
-175 -1255 0
-176 -1256 0
-177 -1258 0
-178 -1259 0
-170 -1266 0
-174 -1267 0
-175 -1268 0
-177 -1271 0
-178 -1272 0
-171 -1279 0
-173 -1280 0
-174 -1281 0
-175 -1282 0
-177 -1284 0
-178 -1285 0
-171 -1287 0
-174 -1288 0
-175 -1289 0
-176 -1290 0
-177 -1291 0
-178 -1292 0
-170 -1293 0
-171 -1294 0
-174 -1295 0
-176 -1296 0
-177 -1298 0
-178 -1299 0
-172 -1301 0
-173 -1302 0
-174 -1303 0
-176 -1304 0
-177 -1305 0
-178 -1306 0
-172 -1328 0
-174 -1329 0
-176 -1330 0
-177 -1332 0
-178 -1333 0
-173 -1348 0
-174 -1349 0
-175 -1350 0
-176 -1352 0
-178 -1353 0
-170 -1363 0
-173 -1365 0
-174 -1366 0
-178 -1369 0
-173 -1410 0
-174 -1411 0
-175 -1412 0
-178 -1415 0
-175 -1417 0
-176 -1419 0
-178 -1421 0
-170 -1429 0
-174 -1430 0
-176 -1432 0
-178 -1434 0
-173 -1442 0
-174 -1443 0
-175 -1444 0
-176 -1445 0
-177 -1447 0
-178 -1448 0
-170 -1449 0
-173 -1450 0
-174 -1451 0
-176 -1453 0
-177 -1454 0
-178 -1455 0
-171 -1472 0
-172 -1473 0
-174 -1474 0
-175 -1475 0
-176 -1477 0
-178 -1479 0
-171 -1523 0
-176 -1524 0
-177 -1526 0
-178 -1527 0
-172 -1604 0
-175 -1605 0
-176 -1606 0
-177 -1608 0
-178 -1609 0
-171 -1630 0
-173 -1631 0
-175 -1632 0
-176 -1634 0
-178 -1635 0
-171 -1637 0
-174 -1638 0
-176 -1640 0
-178 -1641 0
-170 -1642 0
-171 -1643 0
-175 -1644 0
-178 -1647 0
-172 -1649 0
-173 -1650 0
-175 -1651 0
-178 -1653 0
-172 -1675 0
-174 -1676 0
-175 -1677 0
-176 -1679 0
-178 -1681 0
-173 -1696 0
-174 -1697 0
-177 -1699 0
-178 -1700 0
-170 -1708 0
-173 -1710 0
-175 -1711 0
-176 -1713 0
-177 -1715 0
-178 -1716 0
-173 -1754 0
-174 -1755 0
-175 -1756 0
-176 -1757 0
-177 -1759 0
-178 -1760 0
-174 -1762 0
-176 -1764 0
-177 -1766 0
-178 -1767 0
-170 -1774 0
-174 -1775 0
-175 -1776 0
-177 -1779 0
-178 -1780 0
-174 -1782 0
-175 -1783 0
-176 -1785 0
-177 -1786 0
-178 -1787 0
-171 -1788 0
-174 -1789 0
-177 -1792 0
-178 -1793 0
-173 -1808 0
-174 -1809 0
-176 -1810 0
-178 -1812 0
-173 -1839 0
-176 -1841 0
-177 -1843 0
-178 -1844 0
-171 -1852 0
-174 -1853 0
-175 -1854 0
-176 -1855 0
-177 -1856 0
-178 -1857 0
-172 -1859 0
-174 -1860 0
-175 -1861 0
-177 -1863 0
-178 -1864 0
-170 -1885 0
-174 -1887 0
-175 -1888 0
-176 -1889 0
-178 -1891 0
-175 -1919 0
-176 -1921 0
-178 -1923 0
-173 -1925 0
-175 -1926 0
-177 -1929 0
-178 -1930 0
-170 -1931 0
-175 -1933 0
-176 -1935 0
-177 -1936 0
-178 -1937 0
-174 -1945 0
-175 -1946 0
-176 -1948 0
-177 -1949 0
-178 -1950 0
-174 -1953 0
-176 -1955 0
-177 -1957 0
-178 -1958 0
-180 -238 0
-181 -239 0
-184 -242 0
-185 -245 0
-180 -304 0
-182 -305 0
-183 -307 0
-184 -308 0
-185 -310 0
-179 -324 0
-180 -325 0
-183 -326 0
-184 -327 0
-185 -329 0
-180 -331 0
-181 -332 0
-182 -333 0
-183 -334 0
-184 -335 0
-185 -338 0
-179 -339 0
-180 -340 0
-181 -341 0
-182 -342 0
-183 -343 0
-184 -344 0
-185 -345 0
-179 -361 0
-180 -362 0
-181 -363 0
-183 -366 0
-184 -367 0
-185 -369 0
-180 -383 0
-181 -384 0
-184 -386 0
-185 -388 0
-181 -389 0
-182 -390 0
-183 -392 0
-184 -393 0
-185 -395 0
-181 -396 0
-184 -398 0
-185 -401 0
-179 -422 0
-180 -424 0
-182 -425 0
-183 -428 0
-184 -429 0
-185 -431 0
-180 -503 0
-182 -504 0
-184 -506 0
-185 -508 0
-179 -522 0
-180 -523 0
-184 -525 0
-185 -528 0
-181 -530 0
-182 -531 0
-184 -533 0
-185 -535 0
-179 -536 0
-181 -537 0
-182 -538 0
-183 -540 0
-184 -541 0
-185 -544 0
-179 -559 0
-181 -560 0
-184 -563 0
-185 -565 0
-180 -572 0
-184 -575 0
-185 -577 0
-180 -578 0
-181 -579 0
-182 -580 0
-183 -583 0
-184 -584 0
-185 -587 0
-180 -594 0
-181 -595 0
-184 -597 0
-185 -599 0
-180 -620 0
-182 -621 0
-184 -623 0
-185 -625 0
-180 -697 0
-183 -699 0
-184 -700 0
-185 -703 0
-181 -704 0
-182 -705 0
-184 -707 0
-185 -709 0
-181 -717 0
-183 -720 0
-184 -721 0
-185 -723 0
-181 -736 0
-182 -737 0
-183 -739 0
-184 -740 0
-185 -741 0
-182 -744 0
-184 -746 0
-185 -748 0
-179 -749 0
-182 -750 0
-183 -752 0
-184 -753 0
-185 -755 0
-179 -768 0
-182 -769 0
-184 -772 0
-185 -773 0
-182 -781 0
-183 -782 0
-184 -783 0
-185 -786 0
-180 -788 0
-184 -789 0
-185 -792 0
-180 -816 0
-181 -817 0
-184 -819 0
-185 -821 0
-179 -822 0
-180 -824 0
-181 -825 0
-183 -827 0
-184 -828 0
-185 -830 0
-180 -868 0
-181 -869 0
-184 -871 0
-185 -873 0
-181 -881 0
-184 -884 0
-185 -885 0
-179 -913 0
-180 -915 0
-184 -917 0
-185 -918 0
-180 -990 0
-183 -992 0
-184 -993 0
-185 -994 0
-181 -1014 0
-183 -1015 0
-184 -1016 0
-185 -1018 0
-179 -1019 0
-181 -1021 0
-184 -1022 0
-185 -1024 0
-180 -1053 0
-182 -1054 0
-184 -1056 0
-185 -1058 0
-179 -1059 0
-180 -1060 0
-182 -1061 0
-183 -1063 0
-184 -1064 0
-185 -1067 0
-179 -1082 0
-180 -1083 0
-183 -1086 0
-184 -1087 0
-185 -1088 0
-179 -1089 0
-181 -1091 0
-182 -1092 0
-183 -1095 0
-184 -1096 0
-185 -1098 0
-179 -1099 0
-180 -1100 0
-184 -1102 0
-185 -1105 0
-179 -1113 0
-181 -1114 0
-183 -1115 0
-184 -1116 0
-185 -1119 0
-180 -1126 0
-183 -1128 0
-184 -1129 0
-185 -1132 0
-181 -1133 0
-182 -1134 0
-184 -1136 0
-185 -1138 0
-179 -1152 0
-181 -1153 0
-184 -1156 0
-185 -1158 0
-181 -1159 0
-183 -1162 0
-184 -1163 0
-185 -1165 0
-179 -1172 0
-182 -1174 0
-184 -1175 0
-185 -1178 0
-179 -1179 0
-182 -1181 0
-183 -1182 0
-184 -1183 0
-185 -1184 0
-179 -1212 0
-184 -1216 0
-185 -1218 0
-182 -1221 0
-183 -1224 0
-184 -1225 0
-185 -1228 0
-179 -1229 0
-182 -1230 0
-184 -1233 0
-185 -1234 0
-179 -1247 0
-183 -1250 0
-184 -1251 0
-185 -1253 0
-179 -1254 0
-184 -1256 0
-185 -1259 0
-179 -1260 0
-183 -1262 0
-184 -1263 0
-185 -1265 0
-180 -1273 0
-182 -1274 0
-184 -1276 0
-185 -1278 0
-179 -1293 0
-180 -1294 0
-184 -1296 0
-185 -1299 0
-181 -1301 0
-182 -1302 0
-184 -1304 0
-185 -1306 0
-180 -1307 0
-183 -1309 0
-184 -1310 0
-185 -1313 0
-179 -1321 0
-181 -1322 0
-184 -1325 0
-185 -1327 0
-181 -1334 0
-183 -1337 0
-184 -1338 0
-185 -1340 0
-182 -1348 0
-183 -1351 0
-184 -1352 0
-185 -1353 0
-179 -1354 0
-182 -1356 0
-184 -1359 0
-185 -1362 0
-179 -1390 0
-183 -1393 0
-184 -1394 0
-185 -1396 0
-182 -1404 0
-183 -1405 0
-184 -1406 0
-185 -1409 0
-183 -1424 0
-184 -1425 0
-185 -1428 0
-179 -1429 0
-183 -1431 0
-184 -1432 0
-185 -1434 0
-183 -1437 0
-184 -1438 0
-185 -1440 0
-182 -1442 0
-184 -1445 0
-185 -1448 0
-180 -1465 0
-181 -1466 0
-183 -1467 0
-185 -1470 0
-180 -1516 0
-183 -1519 0
-185 -1521 0
-181 -1598 0
-183 -1600 0
-185 -1602 0
-180 -1623 0
-182 -1624 0
-183 -1627 0
-185 -1629 0
-179 -1642 0
-180 -1643 0
-183 -1645 0
-185 -1647 0
-181 -1649 0
-182 -1650 0
-183 -1652 0
-185 -1653 0
-180 -1654 0
-183 -1656 0
-185 -1659 0
-179 -1669 0
-181 -1670 0
-183 -1672 0
-185 -1674 0
-181 -1682 0
-183 -1684 0
-185 -1687 0
-182 -1696 0
-183 -1698 0
-185 -1700 0
-179 -1701 0
-182 -1703 0
-183 -1705 0
-185 -1707 0
-179 -1736 0
-183 -1740 0
-185 -1741 0
-182 -1748 0
-183 -1751 0
-185 -1753 0
-185 -1773 0
-179 -1774 0
-183 -1777 0
-185 -1780 0
-180 -1788 0
-183 -1790 0
-185 -1793 0
-181 -1794 0
-183 -1796 0
-185 -1799 0
-182 -1801 0
-183 -1803 0
-185 -1806 0
-185 -1831 0
-180 -1846 0
-183 -1848 0
-185 -1850 0
-181 -1859 0
-183 -1862 0
-185 -1864 0
-179 -1879 0
-183 -1881 0
-185 -1884 0
-185 -1917 0
-182 -1925 0
-183 -1927 0
-185 -1930 0
-179 -1938 0
-183 -1941 0
-185 -1944 0
-188 -228 0
-189 -229 0
-191 -231 0
-192 -236 0
-188 -311 0
-191 -313 0
-192 -316 0
-188 -317 0
-189 -318 0
-191 -320 0
-192 -323 0
-186 -346 0
-188 -347 0
-189 -348 0
-190 -350 0
-191 -351 0
-192 -354 0
-188 -383 0
-189 -384 0
-191 -385 0
-192 -388 0
-189 -389 0
-191 -391 0
-192 -395 0
-186 -415 0
-188 -416 0
-191 -418 0
-192 -421 0
-188 -509 0
-190 -511 0
-191 -512 0
-192 -515 0
-189 -516 0
-190 -518 0
-191 -519 0
-192 -521 0
-186 -545 0
-189 -546 0
-191 -548 0
-192 -551 0
-188 -588 0
-189 -589 0
-190 -591 0
-192 -593 0
-188 -612 0
-190 -614 0
-192 -618 0
-189 -710 0
-190 -712 0
-192 -716 0
-189 -736 0
-190 -738 0
-192 -741 0
-186 -756 0
-190 -758 0
-192 -761 0
-192 -786 0
-187 -793 0
-188 -794 0
-190 -795 0
-191 -796 0
-192 -799 0
-186 -800 0
-188 -801 0
-190 -802 0
-191 -803 0
-192 -805 0
-187 -806 0
-188 -807 0
-189 -808 0
-190 -810 0
-191 -811 0
-192 -814 0
-186 -831 0
-187 -832 0
-188 -833 0
-189 -834 0
-190 -835 0
-191 -836 0
-192 -837 0
-186 -851 0
-188 -852 0
-189 -853 0
-190 -854 0
-191 -855 0
-192 -860 0
-188 -868 0
-189 -869 0
-191 -870 0
-192 -873 0
-187 -880 0
-189 -881 0
-190 -882 0
-191 -883 0
-192 -885 0
-189 -886 0
-191 -887 0
-192 -891 0
-186 -904 0
-187 -905 0
-188 -906 0
-190 -908 0
-191 -909 0
-192 -912 0
-187 -995 0
-188 -996 0
-191 -997 0
-192 -1000 0
-186 -1001 0
-188 -1002 0
-191 -1003 0
-192 -1006 0
-187 -1007 0
-189 -1008 0
-191 -1010 0
-192 -1012 0
-186 -1025 0
-187 -1026 0
-189 -1027 0
-190 -1028 0
-191 -1029 0
-192 -1033 0
-186 -1046 0
-189 -1047 0
-191 -1048 0
-192 -1051 0
-187 -1052 0
-188 -1053 0
-191 -1055 0
-192 -1058 0
-186 -1059 0
-188 -1060 0
-191 -1062 0
-192 -1067 0
-186 -1082 0
-188 -1083 0
-190 -1084 0
-191 -1085 0
-192 -1088 0
-186 -1089 0
-187 -1090 0
-189 -1091 0
-190 -1093 0
-191 -1094 0
-192 -1098 0
-186 -1106 0
-189 -1107 0
-191 -1109 0
-192 -1112 0
-188 -1120 0
-190 -1121 0
-191 -1122 0
-192 -1125 0
-187 -1139 0
-189 -1140 0
-191 -1141 0
-192 -1145 0
-186 -1146 0
-189 -1147 0
-191 -1148 0
-192 -1151 0
-189 -1159 0
-190 -1160 0
-191 -1161 0
-192 -1165 0
-186 -1166 0
-187 -1167 0
-191 -1169 0
-192 -1171 0
-186 -1185 0
-187 -1186 0
-190 -1188 0
-191 -1189 0
-192 -1191 0
-186 -1205 0
-191 -1207 0
-192 -1211 0
-187 -1220 0
-190 -1222 0
-191 -1223 0
-192 -1228 0
-186 -1229 0
-190 -1231 0
-191 -1232 0
-192 -1234 0
-186 -1247 0
-187 -1248 0
-191 -1249 0
-192 -1253 0
-186 -1254 0
-191 -1255 0
-192 -1259 0
-186 -1266 0
-190 -1267 0
-191 -1268 0
-192 -1272 0
-188 -1273 0
-190 -1275 0
-192 -1278 0
-186 -1293 0
-188 -1294 0
-190 -1295 0
-192 -1299 0
-187 -1300 0
-189 -1301 0
-190 -1303 0
-192 -1306 0
-189 -1314 0
-190 -1316 0
-192 -1320 0
-189 -1328 0
-190 -1329 0
-192 -1333 0
-187 -1341 0
-190 -1343 0
-192 -1346 0
-186 -1363 0
-187 -1364 0
-190 -1366 0
-192 -1369 0
-186 -1383 0
-190 -1385 0
-192 -1389 0
-192 -1409 0
-187 -1422 0
-190 -1423 0
-192 -1428 0
-186 -1429 0
-190 -1430 0
-192 -1434 0
-186 -1449 0
-190 -1451 0
-192 -1455 0
-188 -1457 0
-191 -1458 0
-192 -1463 0
-187 -1471 0
-188 -1472 0
-189 -1473 0
-190 -1474 0
-191 -1475 0
-192 -1479 0
-188 -1487 0
-189 -1488 0
-191 -1489 0
-192 -1492 0
-187 -1508 0
-188 -1509 0
-191 -1511 0
-192 -1514 0
-188 -1591 0
-190 -1592 0
-191 -1593 0
-192 -1596 0
-187 -1603 0
-189 -1604 0
-191 -1605 0
-192 -1609 0
-189 -1616 0
-190 -1617 0
-191 -1618 0
-192 -1622 0
-188 -1623 0
-190 -1625 0
-191 -1626 0
-192 -1629 0
-186 -1642 0
-188 -1643 0
-191 -1644 0
-192 -1647 0
-187 -1648 0
-189 -1649 0
-191 -1651 0
-192 -1653 0
-189 -1660 0
-190 -1662 0
-191 -1663 0
-192 -1668 0
-189 -1675 0
-190 -1676 0
-191 -1677 0
-192 -1681 0
-187 -1688 0
-190 -1690 0
-191 -1691 0
-192 -1694 0
-186 -1708 0
-187 -1709 0
-191 -1711 0
-192 -1716 0
-186 -1730 0
-190 -1732 0
-191 -1733 0
-192 -1735 0
-190 -1749 0
-191 -1750 0
-192 -1753 0
-187 -1768 0
-190 -1769 0
-191 -1770 0
-192 -1773 0
-186 -1774 0
-190 -1775 0
-191 -1776 0
-192 -1780 0
-190 -1782 0
-191 -1783 0
-192 -1787 0
-188 -1788 0
-190 -1789 0
-192 -1793 0
-187 -1807 0
-190 -1809 0
-192 -1812 0
-192 -1825 0
-192 -1844 0
-187 -1845 0
-188 -1846 0
-191 -1847 0
-192 -1850 0
-187 -1858 0
-189 -1859 0
-190 -1860 0
-191 -1861 0
-192 -1864 0
-187 -1865 0
-189 -1866 0
-191 -1867 0
-192 -1871 0
-187 -1872 0
-191 -1874 0
-192 -1877 0
-186 -1885 0
-187 -1886 0
-190 -1887 0
-191 -1888 0
-192 -1891 0
-186 -1905 0
-187 -1906 0
-191 -1907 0
-192 -1911 0
-187 -1912 0
-190 -1913 0
-191 -1914 0
-192 -1917 0
-186 -1931 0
-187 -1932 0
-191 -1933 0
-192 -1937 0
-186 -1938 0
-190 -1939 0
-191 -1940 0
-192 -1944 0
-187 -1952 0
-190 -1953 0
-192 -1958 0
-195 -222 0
-196 -223 0
-201 -227 0
-195 -304 0
-198 -307 0
-199 -308 0
-201 -310 0
-195 -317 0
-196 -318 0
-197 -320 0
-198 -321 0
-201 -323 0
-193 -339 0
-195 -340 0
-196 -341 0
-198 -343 0
-199 -344 0
-201 -345 0
-195 -376 0
-196 -377 0
-198 -379 0
-199 -380 0
-200 -381 0
-201 -382 0
-196 -389 0
-197 -391 0
-198 -392 0
-199 -393 0
-200 -394 0
-201 -395 0
-193 -409 0
-195 -410 0
-198 -413 0
-201 -414 0
-195 -503 0
-199 -506 0
-200 -507 0
-201 -508 0
-196 -516 0
-197 -519 0
-200 -520 0
-201 -521 0
-193 -536 0
-196 -537 0
-198 -540 0
-199 -541 0
-200 -543 0
-201 -544 0
-195 -578 0
-196 -579 0
-197 -582 0
-198 -583 0
-199 -584 0
-200 -586 0
-201 -587 0
-195 -606 0
-197 -608 0
-200 -610 0
-201 -611 0
-196 -704 0
-197 -706 0
-199 -707 0
-201 -709 0
-195 -730 0
-197 -732 0
-198 -733 0
-199 -734 0
-201 -735 0
-196 -736 0
-198 -739 0
-199 -740 0
-201 -741 0
-193 -749 0
-197 -751 0
-198 -752 0
-199 -753 0
-201 -755 0
-197 -776 0
-199 -777 0
-200 -779 0
-201 -780 0
-194 -787 0
-195 -788 0
-199 -789 0
-200 -791 0
-201 -792 0
-193 -800 0
-195 -801 0
-197 -803 0
-200 -804 0
-201 -805 0
-194 -806 0
-195 -807 0
-196 -808 0
-197 -811 0
-200 -813 0
-201 -814 0
-193 -822 0
-194 -823 0
-195 -824 0
-196 -825 0
-198 -827 0
-199 -828 0
-200 -829 0
-201 -830 0
-193 -845 0
-195 -846 0
-196 -847 0
-200 -849 0
-201 -850 0
-195 -874 0
-196 -875 0
-197 -877 0
-198 -878 0
-201 -879 0
-194 -880 0
-196 -881 0
-197 -883 0
-199 -884 0
-201 -885 0
-196 -886 0
-197 -887 0
-198 -888 0
-200 -890 0
-201 -891 0
-193 -898 0
-194 -899 0
-195 -900 0
-200 -902 0
-201 -903 0
-194 -989 0
-195 -990 0
-198 -992 0
-199 -993 0
-201 -994 0
-193 -1001 0
-195 -1002 0
-197 -1003 0
-198 -1004 0
-201 -1006 0
-194 -1007 0
-196 -1008 0
-197 -1010 0
-198 -1011 0
-201 -1012 0
-193 -1019 0
-194 -1020 0
-196 -1021 0
-199 -1022 0
-201 -1024 0
-193 -1040 0
-196 -1041 0
-198 -1043 0
-200 -1044 0
-201 -1045 0
-194 -1052 0
-195 -1053 0
-197 -1055 0
-199 -1056 0
-201 -1058 0
-193 -1068 0
-195 -1069 0
-197 -1072 0
-201 -1074 0
-193 -1075 0
-194 -1076 0
-195 -1077 0
-198 -1078 0
-199 -1079 0
-201 -1081 0
-193 -1082 0
-195 -1083 0
-197 -1085 0
-198 -1086 0
-199 -1087 0
-201 -1088 0
-193 -1089 0
-194 -1090 0
-196 -1091 0
-197 -1094 0
-198 -1095 0
-199 -1096 0
-201 -1098 0
-193 -1099 0
-195 -1100 0
-199 -1102 0
-200 -1104 0
-201 -1105 0
-193 -1106 0
-196 -1107 0
-197 -1109 0
-200 -1111 0
-201 -1112 0
-193 -1113 0
-196 -1114 0
-198 -1115 0
-199 -1116 0
-200 -1118 0
-201 -1119 0
-195 -1126 0
-197 -1127 0
-198 -1128 0
-199 -1129 0
-200 -1131 0
-201 -1132 0
-194 -1139 0
-196 -1140 0
-197 -1141 0
-199 -1142 0
-200 -1144 0
-201 -1145 0
-193 -1152 0
-196 -1153 0
-197 -1155 0
-199 -1156 0
-200 -1157 0
-201 -1158 0
-196 -1159 0
-197 -1161 0
-198 -1162 0
-199 -1163 0
-201 -1165 0
-193 -1166 0
-194 -1167 0
-197 -1169 0
-201 -1171 0
-193 -1179 0
-194 -1180 0
-198 -1182 0
-199 -1183 0
-201 -1184 0
-193 -1199 0
-200 -1203 0
-201 -1204 0
-194 -1220 0
-197 -1223 0
-198 -1224 0
-199 -1225 0
-200 -1227 0
-201 -1228 0
-193 -1235 0
-197 -1237 0
-198 -1238 0
-200 -1239 0
-201 -1240 0
-193 -1241 0
-194 -1242 0
-199 -1244 0
-200 -1245 0
-201 -1246 0
-193 -1254 0
-197 -1255 0
-199 -1256 0
-200 -1258 0
-201 -1259 0
-193 -1260 0
-198 -1262 0
-199 -1263 0
-201 -1265 0
-195 -1279 0
-197 -1282 0
-198 -1283 0
-200 -1284 0
-201 -1285 0
-194 -1286 0
-195 -1287 0
-197 -1289 0
-199 -1290 0
-200 -1291 0
-201 -1292 0
-193 -1293 0
-195 -1294 0
-199 -1296 0
-200 -1298 0
-201 -1299 0
-194 -1300 0
-196 -1301 0
-199 -1304 0
-200 -1305 0
-201 -1306 0
-195 -1307 0
-197 -1308 0
-198 -1309 0
-199 -1310 0
-200 -1312 0
-201 -1313 0
-196 -1314 0
-198 -1317 0
-200 -1319 0
-201 -1320 0
-193 -1321 0
-196 -1322 0
-197 -1324 0
-199 -1325 0
-200 -1326 0
-201 -1327 0
-196 -1334 0
-197 -1336 0
-198 -1337 0
-199 -1338 0
-201 -1340 0
-194 -1341 0
-198 -1344 0
-200 -1345 0
-201 -1346 0
-193 -1354 0
-194 -1355 0
-197 -1358 0
-199 -1359 0
-200 -1361 0
-201 -1362 0
-193 -1377 0
-197 -1379 0
-198 -1380 0
-200 -1381 0
-201 -1382 0
-197 -1412 0
-198 -1413 0
-201 -1415 0
-194 -1416 0
-197 -1417 0
-198 -1418 0
-199 -1419 0
-201 -1421 0
-193 -1429 0
-198 -1431 0
-199 -1432 0
-201 -1434 0
-197 -1436 0
-198 -1437 0
-199 -1438 0
-200 -1439 0
-201 -1440 0
-195 -1457 0
-197 -1458 0
-198 -1459 0
-199 -1460 0
-200 -1462 0
-201 -1463 0
-194 -1464 0
-195 -1465 0
-196 -1466 0
-198 -1467 0
-200 -1469 0
-201 -1470 0
-195 -1480 0
-196 -1481 0
-198 -1483 0
-199 -1484 0
-200 -1485 0
-201 -1486 0
-194 -1499 0
-195 -1500 0
-198 -1503 0
-199 -1504 0
-200 -1506 0
-201 -1507 0
-195 -1591 0
-197 -1593 0
-199 -1594 0
-201 -1596 0
-194 -1597 0
-196 -1598 0
-198 -1600 0
-201 -1602 0
-196 -1610 0
-199 -1612 0
-200 -1614 0
-201 -1615 0
-195 -1630 0
-197 -1632 0
-198 -1633 0
-199 -1634 0
-201 -1635 0
-194 -1636 0
-195 -1637 0
-198 -1639 0
-199 -1640 0
-201 -1641 0
-193 -1642 0
-195 -1643 0
-197 -1644 0
-198 -1645 0
-201 -1647 0
-194 -1648 0
-196 -1649 0
-197 -1651 0
-198 -1652 0
-201 -1653 0
-195 -1654 0
-198 -1656 0
-200 -1658 0
-201 -1659 0
-196 -1660 0
-197 -1663 0
-198 -1664 0
-199 -1665 0
-200 -1667 0
-201 -1668 0
-193 -1669 0
-196 -1670 0
-198 -1672 0
-200 -1673 0
-201 -1674 0
-196 -1682 0
-197 -1683 0
-198 -1684 0
-200 -1686 0
-201 -1687 0
-194 -1688 0
-197 -1691 0
-198 -1692 0
-199 -1693 0
-201 -1694 0
-193 -1701 0
-194 -1702 0
-198 -1705 0
-201 -1707 0
-193 -1723 0
-198 -1726 0
-199 -1727 0
-200 -1728 0
-201 -1729 0
-197 -1756 0
-199 -1757 0
-200 -1759 0
-201 -1760 0
-194 -1761 0
-198 -1763 0
-199 -1764 0
-200 -1766 0
-201 -1767 0
-193 -1774 0
-197 -1776 0
-198 -1777 0
-200 -1779 0
-201 -1780 0
-195 -1788 0
-198 -1790 0
-200 -1792 0
-201 -1793 0
-196 -1794 0
-197 -1795 0
-198 -1796 0
-200 -1798 0
-201 -1799 0
-194 -1800 0
-197 -1802 0
-198 -1803 0
-200 -1805 0
-201 -1806 0
-197 -1815 0
-199 -1816 0
-200 -1818 0
-201 -1819 0
-194 -1851 0
-195 -1852 0
-197 -1854 0
-199 -1855 0
-200 -1856 0
-201 -1857 0
-194 -1858 0
-196 -1859 0
-197 -1861 0
-198 -1862 0
-200 -1863 0
-201 -1864 0
-194 -1865 0
-196 -1866 0
-197 -1867 0
-199 -1868 0
-200 -1870 0
-201 -1871 0
-194 -1872 0
-197 -1874 0
-199 -1875 0
-200 -1876 0
-201 -1877 0
-193 -1879 0
-194 -1880 0
-198 -1881 0
-200 -1883 0
-201 -1884 0
-193 -1899 0
-194 -1900 0
-199 -1902 0
-200 -1903 0
-201 -1904 0
-194 -1918 0
-197 -1919 0
-198 -1920 0
-199 -1921 0
-201 -1923 0
-203 -304 0
-206 -308 0
-207 -309 0
-208 -310 0
-203 -311 0
-205 -313 0
-207 -314 0
-208 -316 0
-203 -317 0
-204 -318 0
-205 -320 0
-207 -322 0
-208 -323 0
-203 -331 0
-204 -332 0
-206 -335 0
-207 -336 0
-208 -338 0
-203 -355 0
-204 -356 0
-207 -359 0
-208 -360 0
-203 -376 0
-204 -377 0
-206 -380 0
-208 -382 0
-203 -383 0
-204 -384 0
-205 -385 0
-206 -386 0
-208 -388 0
-204 -389 0
-205 -391 0
-206 -393 0
-208 -395 0
-204 -396 0
-206 -398 0
-207 -399 0
-208 -401 0
-203 -403 0
-207 -406 0
-208 -408 0
-203 -503 0
-206 -506 0
-208 -508 0
-203 -509 0
-205 -512 0
-208 -515 0
-204 -516 0
-205 -519 0
-208 -521 0
-204 -530 0
-206 -533 0
-208 -535 0
-204 -552 0
-207 -556 0
-208 -558 0
-203 -730 0
-205 -732 0
-206 -734 0
-208 -735 0
-204 -736 0
-206 -740 0
-208 -741 0
-205 -745 0
-206 -746 0
-208 -748 0
-205 -764 0
-207 -766 0
-208 -767 0
-205 -776 0
-206 -777 0
-207 -778 0
-208 -780 0
-206 -783 0
-207 -784 0
-208 -786 0
-203 -788 0
-206 -789 0
-207 -790 0
-208 -792 0
-203 -794 0
-205 -796 0
-207 -798 0
-208 -799 0
-203 -807 0
-204 -808 0
-205 -811 0
-207 -812 0
-208 -814 0
-203 -816 0
-204 -817 0
-206 -819 0
-207 -820 0
-208 -821 0
-203 -839 0
-204 -840 0
-207 -842 0
-208 -844 0
-203 -868 0
-204 -869 0
-205 -870 0
-206 -871 0
-208 -873 0
-203 -874 0
-204 -875 0
-205 -877 0
-208 -879 0
-204 -881 0
-205 -883 0
-206 -884 0
-208 -885 0
-204 -886 0
-205 -887 0
-207 -889 0
-208 -891 0
-203 -893 0
-207 -896 0
-208 -897 0
-203 -990 0
-206 -993 0
-208 -994 0
-203 -996 0
-205 -997 0
-208 -1000 0
-204 -1008 0
-205 -1010 0
-208 -1012 0
-204 -1014 0
-206 -1016 0
-208 -1018 0
-204 -1035 0
-207 -1038 0
-208 -1039 0
-202 -1059 0
-203 -1060 0
-205 -1062 0
-206 -1064 0
-207 -1065 0
-208 -1067 0
-202 -1068 0
-203 -1069 0
-205 -1072 0
-207 -1073 0
-208 -1074 0
-202 -1075 0
-203 -1077 0
-206 -1079 0
-207 -1080 0
-208 -1081 0
-202 -1089 0
-204 -1091 0
-205 -1094 0
-206 -1096 0
-207 -1097 0
-208 -1098 0
-202 -1099 0
-203 -1100 0
-206 -1102 0
-207 -1103 0
-208 -1105 0
-202 -1106 0
-204 -1107 0
-205 -1109 0
-207 -1110 0
-208 -1112 0
-202 -1146 0
-204 -1147 0
-205 -1148 0
-206 -1150 0
-208 -1151 0
-202 -1152 0
-204 -1153 0
-205 -1155 0
-206 -1156 0
-208 -1158 0
-202 -1166 0
-205 -1169 0
-207 -1170 0
-208 -1171 0
-202 -1172 0
-206 -1175 0
-207 -1176 0
-208 -1178 0
-202 -1192 0
-207 -1197 0
-208 -1198 0
-202 -1229 0
-205 -1232 0
-206 -1233 0
-208 -1234 0
-202 -1235 0
-205 -1237 0
-208 -1240 0
-202 -1241 0
-206 -1244 0
-208 -1246 0
-202 -1247 0
-205 -1249 0
-206 -1251 0
-208 -1253 0
-202 -1260 0
-206 -1263 0
-207 -1264 0
-208 -1265 0
-202 -1266 0
-205 -1268 0
-207 -1270 0
-208 -1272 0
-203 -1273 0
-206 -1276 0
-208 -1278 0
-203 -1279 0
-205 -1282 0
-208 -1285 0
-203 -1287 0
-205 -1289 0
-206 -1290 0
-208 -1292 0
-204 -1301 0
-206 -1304 0
-208 -1306 0
-203 -1307 0
-205 -1308 0
-206 -1310 0
-207 -1311 0
-208 -1313 0
-204 -1314 0
-207 -1318 0
-208 -1320 0
-204 -1328 0
-206 -1330 0
-207 -1331 0
-208 -1333 0
-204 -1334 0
-205 -1336 0
-206 -1338 0
-207 -1339 0
-208 -1340 0
-208 -1346 0
-205 -1350 0
-206 -1352 0
-208 -1353 0
-205 -1372 0
-207 -1374 0
-208 -1376 0
-206 -1406 0
-207 -1407 0
-208 -1409 0
-205 -1412 0
-207 -1414 0
-208 -1415 0
-205 -1417 0
-206 -1419 0
-207 -1420 0
-208 -1421 0
-206 -1425 0
-207 -1426 0
-208 -1428 0
-205 -1436 0
-206 -1438 0
-208 -1440 0
-202 -1449 0
-206 -1453 0
-208 -1455 0
-203 -1623 0
-205 -1626 0
-208 -1629 0
-203 -1630 0
-205 -1632 0
-206 -1634 0
-208 -1635 0
-203 -1637 0
-206 -1640 0
-208 -1641 0
-204 -1649 0
-205 -1651 0
-208 -1653 0
-203 -1654 0
-207 -1657 0
-208 -1659 0
-204 -1660 0
-205 -1663 0
-206 -1665 0
-207 -1666 0
-208 -1668 0
-204 -1675 0
-205 -1677 0
-206 -1679 0
-207 -1680 0
-208 -1681 0
-204 -1682 0
-205 -1683 0
-207 -1685 0
-208 -1687 0
-205 -1691 0
-206 -1693 0
-208 -1694 0
-208 -1700 0
-206 -1720 0
-207 -1721 0
-208 -1722 0
-205 -1750 0
-207 -1752 0
-208 -1753 0
-205 -1756 0
-206 -1757 0
-207 -1758 0
-208 -1760 0
-206 -1764 0
-207 -1765 0
-208 -1767 0
-205 -1770 0
-207 -1771 0
-208 -1773 0
-205 -1783 0
-206 -1785 0
-208 -1787 0
-206 -1841 0
-207 -1842 0
-208 -1844 0
-203 -1846 0
-205 -1847 0
-208 -1850 0
-203 -1852 0
-205 -1854 0
-206 -1855 0
-208 -1857 0
-204 -1859 0
-205 -1861 0
-208 -1864 0
-204 -1866 0
-205 -1867 0
-206 -1868 0
-207 -1869 0
-208 -1871 0
-205 -1874 0
-206 -1875 0
-208 -1877 0
-206 -1895 0
-207 -1896 0
-208 -1898 0
-205 -1914 0
-207 -1915 0
-208 -1917 0
-205 -1919 0
-206 -1921 0
-207 -1922 0
-208 -1923 0
-202 -1931 0
-205 -1933 0
-206 -1935 0
-208 -1937 0
-202 -1938 0
-205 -1940 0
-207 -1942 0
-208 -1944 0
-206 -1955 0
-207 -1956 0
-208 -1958 0
-215 -221 0
-212 -305 0
-214 -308 0
-215 -310 0
-212 -312 0
-213 -313 0
-215 -316 0
-209 -324 0
-214 -327 0
-215 -329 0
-211 -377 0
-214 -380 0
-215 -382 0
-211 -384 0
-213 -385 0
-214 -386 0
-215 -388 0
-212 -504 0
-214 -506 0
-215 -508 0
-212 -510 0
-213 -512 0
-215 -515 0
-209 -522 0
-214 -525 0
-215 -528 0
-213 -574 0
-214 -575 0
-215 -577 0
-213 -698 0
-214 -700 0
-215 -703 0
-212 -731 0
-213 -732 0
-214 -734 0
-215 -735 0
-212 -774 0
-213 -776 0
-214 -777 0
-215 -780 0
-212 -781 0
-214 -783 0
-215 -786 0
-210 -787 0
-214 -789 0
-215 -792 0
-210 -793 0
-213 -796 0
-215 -799 0
-209 -800 0
-213 -803 0
-215 -805 0
-211 -869 0
-213 -870 0
-214 -871 0
-215 -873 0
-211 -875 0
-213 -877 0
-215 -879 0
-210 -989 0
-214 -993 0
-215 -994 0
-210 -995 0
-213 -997 0
-215 -1000 0
-209 -1001 0
-213 -1003 0
-215 -1006 0
-210 -1052 0
-212 -1054 0
-213 -1055 0
-214 -1056 0
-215 -1058 0
-209 -1059 0
-212 -1061 0
-213 -1062 0
-214 -1064 0
-215 -1067 0
-209 -1068 0
-212 -1070 0
-213 -1072 0
-215 -1074 0
-209 -1075 0
-210 -1076 0
-214 -1079 0
-215 -1081 0
-209 -1082 0
-213 -1085 0
-214 -1087 0
-215 -1088 0
-209 -1099 0
-214 -1102 0
-215 -1105 0
-211 -1133 0
-212 -1134 0
-213 -1135 0
-214 -1136 0
-215 -1138 0
-210 -1139 0
-211 -1140 0
-213 -1141 0
-214 -1142 0
-215 -1145 0
-209 -1146 0
-211 -1147 0
-213 -1148 0
-214 -1150 0
-215 -1151 0
-209 -1152 0
-211 -1153 0
-213 -1155 0
-214 -1156 0
-215 -1158 0
-211 -1159 0
-213 -1161 0
-214 -1163 0
-215 -1165 0
-210 -1220 0
-212 -1221 0
-213 -1223 0
-214 -1225 0
-215 -1228 0
-209 -1229 0
-212 -1230 0
-213 -1232 0
-214 -1233 0
-215 -1234 0
-209 -1235 0
-212 -1236 0
-213 -1237 0
-215 -1240 0
-209 -1241 0
-210 -1242 0
-214 -1244 0
-215 -1246 0
-209 -1247 0
-210 -1248 0
-213 -1249 0
-214 -1251 0
-215 -1253 0
-209 -1254 0
-213 -1255 0
-214 -1256 0
-215 -1259 0
-209 -1260 0
-214 -1263 0
-215 -1265 0
-209 -1266 0
-213 -1268 0
-215 -1272 0
-212 -1274 0
-214 -1276 0
-215 -1278 0
-212 -1280 0
-213 -1282 0
-215 -1285 0
-210 -1286 0
-213 -1289 0
-214 -1290 0
-215 -1292 0
-209 -1293 0
-214 -1296 0
-215 -1299 0
-213 -1308 0
-214 -1310 0
-215 -1313 0
-211 -1328 0
-214 -1330 0
-215 -1333 0
-211 -1334 0
-213 -1336 0
-214 -1338 0
-215 -1340 0
-212 -1404 0
-214 -1406 0
-215 -1409 0
-212 -1410 0
-213 -1412 0
-215 -1415 0
-210 -1416 0
-213 -1417 0
-214 -1419 0
-215 -1421 0
-210 -1422 0
-214 -1425 0
-215 -1428 0
-209 -1429 0
-214 -1432 0
-215 -1434 0
-213 -1436 0
-214 -1438 0
-215 -1440 0
-212 -1442 0
-213 -1444 0
-214 -1445 0
-215 -1448 0
-209 -1449 0
-212 -1450 0
-214 -1453 0
-215 -1455 0
-213 -1458 0
-214 -1460 0
-215 -1463 0
-213 -1593 0
-214 -1594 0
-215 -1596 0
-212 -1624 0
-213 -1626 0
-215 -1629 0
-212 -1631 0
-213 -1632 0
-214 -1634 0
-215 -1635 0
-210 -1636 0
-214 -1640 0
-215 -1641 0
-209 -1642 0
-213 -1644 0
-215 -1647 0
-215 -1659 0
-211 -1675 0
-213 -1677 0
-214 -1679 0
-215 -1681 0
-211 -1682 0
-213 -1683 0
-215 -1687 0
-212 -1748 0
-213 -1750 0
-215 -1753 0
-212 -1754 0
-213 -1756 0
-214 -1757 0
-215 -1760 0
-210 -1761 0
-214 -1764 0
-215 -1767 0
-210 -1768 0
-213 -1770 0
-215 -1773 0
-209 -1774 0
-213 -1776 0
-215 -1780 0
-213 -1783 0
-214 -1785 0
-215 -1787 0
-215 -1793 0
-212 -1839 0
-214 -1841 0
-215 -1844 0
-210 -1845 0
-213 -1847 0
-215 -1850 0
-210 -1851 0
-213 -1854 0
-214 -1855 0
-215 -1857 0
-210 -1912 0
-213 -1914 0
-215 -1917 0
-210 -1918 0
-213 -1919 0
-214 -1921 0
-215 -1923 0
-210 -1924 0
-212 -1925 0
-213 -1926 0
-215 -1930 0
-209 -1931 0
-210 -1932 0
-213 -1933 0
-214 -1935 0
-215 -1937 0
-209 -1938 0
-213 -1940 0
-215 -1944 0
-210 -1952 0
-214 -1955 0
-215 -1958 0
-216 -317 0
-218 -321 0
-219 -322 0
-221 -323 0
-216 -331 0
-218 -334 0
-219 -336 0
-220 -337 0
-221 -338 0
-216 -340 0
-218 -343 0
-221 -345 0
-216 -347 0
-217 -350 0
-218 -352 0
-220 -353 0
-221 -354 0
-216 -355 0
-217 -358 0
-219 -359 0
-221 -360 0
-216 -362 0
-217 -364 0
-218 -366 0
-219 -368 0
-221 -369 0
-218 -392 0
-220 -394 0
-221 -395 0
-217 -397 0
-219 -399 0
-220 -400 0
-221 -401 0
-218 -449 0
-220 -450 0
-221 -451 0
-217 -471 0
-219 -473 0
-221 -474 0
-217 -485 0
-219 -487 0
-220 -488 0
-221 -489 0
-217 -493 0
-218 -495 0
-221 -496 0
-220 -501 0
-221 -502 0
-216 -578 0
-217 -581 0
-218 -583 0
-219 -585 0
-220 -586 0
-221 -587 0
-216 -588 0
-217 -591 0
-219 -592 0
-221 -593 0
-216 -594 0
-220 -598 0
-221 -599 0
-217 -645 0
-219 -647 0
-221 -648 0
-218 -665 0
-220 -667 0
-221 -668 0
-218 -679 0
-221 -680 0
-219 -685 0
-220 -686 0
-221 -687 0
-217 -691 0
-218 -693 0
-219 -695 0
-221 -696 0
-216 -730 0
-218 -733 0
-221 -735 0
-220 -747 0
-221 -748 0
-218 -752 0
-219 -754 0
-221 -755 0
-217 -758 0
-219 -759 0
-220 -760 0
-221 -761 0
-217 -763 0
-218 -765 0
-219 -766 0
-221 -767 0
-217 -770 0
-221 -773 0
-216 -807 0
-217 -810 0
-219 -812 0
-220 -813 0
-221 -814 0
-216 -816 0
-217 -818 0
-219 -820 0
-221 -821 0
-216 -824 0
-217 -826 0
-218 -827 0
-220 -829 0
-221 -830 0
-216 -833 0
-217 -835 0
-221 -837 0
-216 -839 0
-218 -841 0
-219 -842 0
-220 -843 0
-221 -844 0
-216 -846 0
-219 -848 0
-220 -849 0
-221 -850 0
-216 -852 0
-217 -854 0
-218 -856 0
-219 -858 0
-220 -859 0
-221 -860 0
-217 -882 0
-221 -885 0
-218 -888 0
-219 -889 0
-220 -890 0
-221 -891 0
-217 -936 0
-221 -937 0
-218 -964 0
-219 -966 0
-220 -967 0
-221 -968 0
-218 -973 0
-219 -974 0
-221 -975 0
-220 -980 0
-221 -981 0
-217 -985 0
-218 -986 0
-221 -988 0
-216 -1053 0
-219 -1057 0
-221 -1058 0
-216 -1060 0
-218 -1063 0
-219 -1065 0
-220 -1066 0
-221 -1067 0
-216 -1069 0
-217 -1071 0
-219 -1073 0
-221 -1074 0
-216 -1077 0
-218 -1078 0
-219 -1080 0
-221 -1081 0
-216 -1083 0
-217 -1084 0
-218 -1086 0
-221 -1088 0
-216 -1100 0
-217 -1101 0
-219 -1103 0
-220 -1104 0
-221 -1105 0
-219 -1137 0
-221 -1138 0
-219 -1143 0
-220 -1144 0
-221 -1145 0
-218 -1149 0
-221 -1151 0
-217 -1154 0
-220 -1157 0
-221 -1158 0
-217 -1160 0
-218 -1162 0
-219 -1164 0
-221 -1165 0
-219 -1170 0
-221 -1171 0
-219 -1176 0
-220 -1177 0
-221 -1178 0
-218 -1182 0
-221 -1184 0
-217 -1188 0
-220 -1190 0
-221 -1191 0
-217 -1195 0
-218 -1196 0
-219 -1197 0
-221 -1198 0
-217 -1201 0
-219 -1202 0
-220 -1203 0
-221 -1204 0
-218 -1208 0
-219 -1210 0
-221 -1211 0
-217 -1214 0
-219 -1217 0
-221 -1218 0
-216 -1273 0
-217 -1275 0
-220 -1277 0
-221 -1278 0
-216 -1279 0
-217 -1281 0
-218 -1283 0
-220 -1284 0
-221 -1285 0
-216 -1287 0
-217 -1288 0
-220 -1291 0
-221 -1292 0
-216 -1294 0
-217 -1295 0
-219 -1297 0
-220 -1298 0
-221 -1299 0
-216 -1307 0
-218 -1309 0
-219 -1311 0
-220 -1312 0
-221 -1313 0
-217 -1329 0
-219 -1331 0
-220 -1332 0
-221 -1333 0
-217 -1335 0
-218 -1337 0
-219 -1339 0
-221 -1340 0
-217 -1343 0
-218 -1344 0
-220 -1345 0
-221 -1346 0
-217 -1349 0
-218 -1351 0
-221 -1353 0
-217 -1357 0
-219 -1360 0
-220 -1361 0
-221 -1362 0
-217 -1366 0
-218 -1367 0
-219 -1368 0
-221 -1369 0
-218 -1373 0
-219 -1374 0
-220 -1375 0
-221 -1376 0
-218 -1380 0
-220 -1381 0
-221 -1382 0
-217 -1385 0
-218 -1386 0
-220 -1388 0
-221 -1389 0
-218 -1393 0
-220 -1395 0
-221 -1396 0
-217 -1398 0
-218 -1400 0
-219 -1401 0
-220 -1402 0
-221 -1403 0
-216 -1465 0
-218 -1467 0
-219 -1468 0
-220 -1469 0
-221 -1470 0
-216 -1472 0
-217 -1474 0
-218 -1476 0
-219 -1478 0
-221 -1479 0
-216 -1480 0
-217 -1482 0
-218 -1483 0
-220 -1485 0
-221 -1486 0
-216 -1487 0
-220 -1491 0
-221 -1492 0
-218 -1538 0
-219 -1540 0
-221 -1541 0
-217 -1565 0
-220 -1567 0
-221 -1568 0
-217 -1571 0
-221 -1574 0
-217 -1578 0
-218 -1580 0
-219 -1582 0
-220 -1583 0
-221 -1584 0
-219 -1589 0
-221 -1590 0
-216 -1623 0
-217 -1625 0
-218 -1627 0
-220 -1628 0
-221 -1629 0
-216 -1630 0
-218 -1633 0
-221 -1635 0
-216 -1637 0
-217 -1638 0
-218 -1639 0
-221 -1641 0
-216 -1643 0
-218 -1645 0
-219 -1646 0
-221 -1647 0
-216 -1654 0
-217 -1655 0
-218 -1656 0
-219 -1657 0
-220 -1658 0
-221 -1659 0
-217 -1676 0
-218 -1678 0
-219 -1680 0
-221 -1681 0
-218 -1684 0
-219 -1685 0
-220 -1686 0
-221 -1687 0
-217 -1690 0
-218 -1692 0
-221 -1694 0
-217 -1697 0
-218 -1698 0
-220 -1699 0
-221 -1700 0
-217 -1704 0
-218 -1705 0
-219 -1706 0
-221 -1707 0
-218 -1712 0
-219 -1714 0
-220 -1715 0
-221 -1716 0
-217 -1719 0
-219 -1721 0
-221 -1722 0
-217 -1725 0
-218 -1726 0
-220 -1728 0
-221 -1729 0
-217 -1732 0
-221 -1735 0
-217 -1738 0
-218 -1740 0
-221 -1741 0
-217 -1743 0
-218 -1744 0
-219 -1746 0
-221 -1747 0
-216 -1788 0
-217 -1789 0
-218 -1790 0
-219 -1791 0
-220 -1792 0
-221 -1793 0
-218 -1803 0
-219 -1804 0
-220 -1805 0
-221 -1806 0
-217 -1809 0
-219 -1811 0
-221 -1812 0
-217 -1814 0
-219 -1817 0
-220 -1818 0
-221 -1819 0
-218 -1821 0
-219 -1823 0
-220 -1824 0
-221 -1825 0
-217 -1827 0
-219 -1829 0
-220 -1830 0
-221 -1831 0
-219 -1835 0
-220 -1836 0
-221 -1837 0
-216 -1846 0
-218 -1848 0
-220 -1849 0
-221 -1850 0
-216 -1852 0
-217 -1853 0
-220 -1856 0
-221 -1857 0
-220 -1876 0
-221 -1877 0
-218 -1881 0
-219 -1882 0
-220 -1883 0
-221 -1884 0
-217 -1887 0
-219 -1890 0
-221 -1891 0
-217 -1893 0
-218 -1894 0
-219 -1896 0
-220 -1897 0
-221 -1898 0
-217 -1901 0
-220 -1903 0
-221 -1904 0
-218 -1908 0
-220 -1910 0
-221 -1911 0
-217 -1945 0
-218 -1947 0
-220 -1949 0
-221 -1950 0
-222 -311 0
-224 -312 0
-226 -314 0
-227 -316 0
-222 -325 0
-227 -329 0
-222 -331 0
-223 -332 0
-224 -333 0
-226 -336 0
-227 -338 0
-222 -347 0
-223 -348 0
-224 -349 0
-225 -350 0
-227 -354 0
-222 -355 0
-223 -356 0
-224 -357 0
-225 -358 0
-226 -359 0
-227 -360 0
-222 -362 0
-223 -363 0
-225 -364 0
-226 -368 0
-227 -369 0
-223 -371 0
-224 -372 0
-226 -374 0
-227 -375 0
-222 -383 0
-223 -384 0
-227 -388 0
-223 -396 0
-225 -397 0
-226 -399 0
-227 -401 0
-222 -434 0
-224 -435 0
-227 -437 0
-222 -460 0
-224 -461 0
-225 -462 0
-226 -465 0
-227 -467 0
-222 -476 0
-225 -477 0
-227 -480 0
-223 -483 0
-224 -484 0
-225 -485 0
-226 -487 0
-227 -489 0
-223 -498 0
-224 -499 0
-227 -502 0
-223 -567 0
-225 -568 0
-227 -571 0
-222 -572 0
-225 -573 0
-226 -576 0
-227 -577 0
-222 -588 0
-223 -589 0
-224 -590 0
-225 -591 0
-226 -592 0
-227 -593 0
-222 -594 0
-223 -595 0
-227 -599 0
-223 -600 0
-224 -601 0
-225 -602 0
-227 -605 0
-222 -627 0
-224 -628 0
-225 -629 0
-226 -632 0
-227 -634 0
-222 -656 0
-224 -657 0
-227 -661 0
-222 -670 0
-226 -673 0
-227 -674 0
-223 -676 0
-224 -677 0
-227 -680 0
-223 -689 0
-224 -690 0
-225 -691 0
-226 -695 0
-227 -696 0
-223 -724 0
-226 -727 0
-227 -729 0
-222 -730 0
-224 -731 0
-227 -735 0
-223 -736 0
-224 -737 0
-225 -738 0
-227 -741 0
-224 -744 0
-227 -748 0
-224 -757 0
-225 -758 0
-226 -759 0
-227 -761 0
-224 -762 0
-225 -763 0
-226 -766 0
-227 -767 0
-224 -769 0
-225 -770 0
-227 -773 0
-224 -781 0
-226 -784 0
-227 -786 0
-222 -794 0
-225 -795 0
-226 -798 0
-227 -799 0
-222 -816 0
-223 -817 0
-225 -818 0
-226 -820 0
-227 -821 0
-222 -833 0
-223 -834 0
-225 -835 0
-227 -837 0
-222 -839 0
-223 -840 0
-226 -842 0
-227 -844 0
-222 -852 0
-223 -853 0
-225 -854 0
-226 -858 0
-227 -860 0
-223 -863 0
-225 -864 0
-226 -865 0
-227 -867 0
-222 -921 0
-225 -922 0
-227 -925 0
-222 -949 0
-226 -952 0
-227 -953 0
-223 -971 0
-226 -974 0
-227 -975 0
-223 -984 0
-225 -985 0
-227 -988 0
-222 -1053 0
-224 -1054 0
-226 -1057 0
-227 -1058 0
-222 -1069 0
-224 -1070 0
-225 -1071 0
-226 -1073 0
-227 -1074 0
-222 -1077 0
-226 -1080 0
-227 -1081 0
-222 -1083 0
-225 -1084 0
-227 -1088 0
-223 -1091 0
-224 -1092 0
-225 -1093 0
-226 -1097 0
-227 -1098 0
-222 -1100 0
-225 -1101 0
-226 -1103 0
-227 -1105 0
-223 -1107 0
-224 -1108 0
-226 -1110 0
-227 -1112 0
-223 -1114 0
-226 -1117 0
-227 -1119 0
-222 -1126 0
-226 -1130 0
-227 -1132 0
-223 -1140 0
-226 -1143 0
-227 -1145 0
-223 -1153 0
-225 -1154 0
-227 -1158 0
-223 -1159 0
-225 -1160 0
-226 -1164 0
-227 -1165 0
-224 -1174 0
-226 -1176 0
-227 -1178 0
-224 -1187 0
-225 -1188 0
-227 -1191 0
-224 -1194 0
-225 -1195 0
-226 -1197 0
-227 -1198 0
-224 -1206 0
-226 -1210 0
-227 -1211 0
-225 -1214 0
-226 -1217 0
-227 -1218 0
-227 -1253 0
-225 -1267 0
-226 -1270 0
-227 -1272 0
-222 -1279 0
-224 -1280 0
-225 -1281 0
-227 -1285 0
-222 -1287 0
-225 -1288 0
-227 -1292 0
-222 -1294 0
-225 -1295 0
-226 -1297 0
-227 -1299 0
-223 -1301 0
-224 -1302 0
-225 -1303 0
-227 -1306 0
-222 -1307 0
-226 -1311 0
-227 -1313 0
-223 -1314 0
-224 -1315 0
-225 -1316 0
-226 -1318 0
-227 -1320 0
-223 -1322 0
-225 -1323 0
-227 -1327 0
-223 -1334 0
-225 -1335 0
-226 -1339 0
-227 -1340 0
-224 -1348 0
-225 -1349 0
-227 -1353 0
-224 -1365 0
-225 -1366 0
-226 -1368 0
-227 -1369 0
-224 -1371 0
-226 -1374 0
-227 -1376 0
-224 -1384 0
-225 -1385 0
-227 -1389 0
-227 -1396 0
-225 -1398 0
-226 -1401 0
-227 -1403 0
-225 -1423 0
-226 -1426 0
-227 -1428 0
-224 -1442 0
-225 -1443 0
-226 -1446 0
-227 -1448 0
-224 -1450 0
-225 -1451 0
-227 -1455 0
-222 -1472 0
-223 -1473 0
-225 -1474 0
-226 -1478 0
-227 -1479 0
-222 -1487 0
-223 -1488 0
-227 -1492 0
-223 -1494 0
-227 -1498 0
-222 -1523 0
-226 -1525 0
-227 -1527 0
-222 -1550 0
-225 -1551 0
-227 -1554 0
-223 -1570 0
-225 -1571 0
-227 -1574 0
-223 -1587 0
-226 -1589 0
-227 -1590 0
-222 -1630 0
-224 -1631 0
-227 -1635 0
-222 -1637 0
-225 -1638 0
-227 -1641 0
-222 -1643 0
-226 -1646 0
-227 -1647 0
-223 -1649 0
-224 -1650 0
-227 -1653 0
-222 -1654 0
-225 -1655 0
-226 -1657 0
-227 -1659 0
-223 -1660 0
-224 -1661 0
-225 -1662 0
-226 -1666 0
-227 -1668 0
-223 -1670 0
-225 -1671 0
-227 -1674 0
-223 -1682 0
-226 -1685 0
-227 -1687 0
-224 -1696 0
-225 -1697 0
-227 -1700 0
-224 -1710 0
-226 -1714 0
-227 -1716 0
-224 -1718 0
-225 -1719 0
-226 -1721 0
-227 -1722 0
-224 -1731 0
-225 -1732 0
-227 -1735 0
-225 -1738 0
-227 -1741 0
-225 -1743 0
-226 -1746 0
-227 -1747 0
-225 -1769 0
-226 -1771 0
-227 -1773 0
-225 -1782 0
-227 -1787 0
-222 -1788 0
-225 -1789 0
-226 -1791 0
-227 -1793 0
-223 -1794 0
-226 -1797 0
-227 -1799 0
-224 -1808 0
-225 -1809 0
-226 -1811 0
-227 -1812 0
-224 -1820 0
-226 -1823 0
-227 -1825 0
-225 -1827 0
-226 -1829 0
-227 -1831 0
-226 -1835 0
-227 -1837 0
-224 -1839 0
-226 -1842 0
-227 -1844 0
-222 -1852 0
-225 -1853 0
-227 -1857 0
-223 -1859 0
-225 -1860 0
-227 -1864 0
-223 -1866 0
-226 -1869 0
-227 -1871 0
-225 -1887 0
-226 -1890 0
-227 -1891 0
-225 -1893 0
-226 -1896 0
-227 -1898 0
-227 -1911 0
-224 -1925 0
-226 -1928 0
-227 -1930 0
-227 -1937 0
-225 -1939 0
-226 -1942 0
-227 -1944 0
-225 -1953 0
-226 -1956 0
-227 -1958 0
-228 -304 0
-230 -305 0
-232 -307 0
-233 -308 0
-234 -309 0
-236 -310 0
-228 -325 0
-232 -326 0
-233 -327 0
-235 -328 0
-236 -329 0
-228 -331 0
-229 -332 0
-230 -333 0
-232 -334 0
-233 -335 0
-234 -336 0
-235 -337 0
-236 -338 0
-228 -340 0
-229 -341 0
-230 -342 0
-232 -343 0
-233 -344 0
-236 -345 0
-228 -355 0
-229 -356 0
-230 -357 0
-234 -359 0
-236 -360 0
-229 -371 0
-230 -372 0
-232 -373 0
-234 -374 0
-236 -375 0
-228 -376 0
-229 -377 0
-232 -379 0
-233 -380 0
-235 -381 0
-236 -382 0
-229 -396 0
-233 -398 0
-234 -399 0
-235 -400 0
-236 -401 0
-228 -424 0
-230 -425 0
-231 -427 0
-232 -428 0
-233 -429 0
-235 -430 0
-236 -431 0
-228 -453 0
-230 -454 0
-231 -456 0
-234 -457 0
-236 -458 0
-228 -476 0
-231 -478 0
-235 -479 0
-236 -480 0
-229 -483 0
-230 -484 0
-231 -486 0
-234 -487 0
-235 -488 0
-236 -489 0
-229 -491 0
-230 -492 0
-231 -494 0
-232 -495 0
-236 -496 0
-229 -560 0
-231 -562 0
-233 -563 0
-235 -564 0
-236 -565 0
-228 -572 0
-231 -574 0
-233 -575 0
-234 -576 0
-236 -577 0
-228 -578 0
-229 -579 0
-230 -580 0
-231 -582 0
-232 -583 0
-233 -584 0
-234 -585 0
-235 -586 0
-236 -587 0
-229 -600 0
-230 -601 0
-231 -603 0
-235 -604 0
-236 -605 0
-228 -620 0
-230 -621 0
-231 -622 0
-233 -623 0
-234 -624 0
-236 -625 0
-228 -649 0
-230 -650 0
-231 -652 0
-232 -653 0
-235 -654 0
-236 -655 0
-228 -670 0
-231 -671 0
-232 -672 0
-234 -673 0
-236 -674 0
-229 -676 0
-230 -677 0
-231 -678 0
-232 -679 0
-236 -680 0
-229 -682 0
-230 -683 0
-231 -684 0
-234 -685 0
-235 -686 0
-236 -687 0
-229 -717 0
-231 -719 0
-232 -720 0
-233 -721 0
-234 -722 0
-236 -723 0
-229 -736 0
-230 -737 0
-232 -739 0
-233 -740 0
-236 -741 0
-230 -744 0
-231 -745 0
-233 -746 0
-235 -747 0
-236 -748 0
-230 -750 0
-231 -751 0
-232 -752 0
-233 -753 0
-234 -754 0
-236 -755 0
-230 -762 0
-231 -764 0
-232 -765 0
-234 -766 0
-236 -767 0
-230 -774 0
-231 -776 0
-233 -777 0
-234 -778 0
-235 -779 0
-236 -780 0
-228 -788 0
-233 -789 0
-234 -790 0
-235 -791 0
-236 -792 0
-228 -816 0
-229 -817 0
-233 -819 0
-234 -820 0
-236 -821 0
-228 -824 0
-229 -825 0
-232 -827 0
-233 -828 0
-235 -829 0
-236 -830 0
-228 -839 0
-229 -840 0
-232 -841 0
-234 -842 0
-235 -843 0
-236 -844 0
-228 -846 0
-229 -847 0
-234 -848 0
-235 -849 0
-236 -850 0
-229 -863 0
-234 -865 0
-235 -866 0
-236 -867 0
-228 -915 0
-231 -916 0
-233 -917 0
-236 -918 0
-228 -940 0
-231 -942 0
-232 -943 0
-234 -944 0
-235 -945 0
-236 -946 0
-229 -971 0
-231 -972 0
-232 -973 0
-234 -974 0
-236 -975 0
-229 -978 0
-231 -979 0
-235 -980 0
-236 -981 0
-228 -1053 0
-230 -1054 0
-231 -1055 0
-233 -1056 0
-234 -1057 0
-236 -1058 0
-228 -1060 0
-230 -1061 0
-231 -1062 0
-232 -1063 0
-233 -1064 0
-234 -1065 0
-235 -1066 0
-236 -1067 0
-228 -1083 0
-231 -1085 0
-232 -1086 0
-233 -1087 0
-236 -1088 0
-229 -1091 0
-230 -1092 0
-231 -1094 0
-232 -1095 0
-233 -1096 0
-234 -1097 0
-236 -1098 0
-229 -1107 0
-230 -1108 0
-231 -1109 0
-234 -1110 0
-235 -1111 0
-236 -1112 0
-228 -1120 0
-231 -1122 0
-233 -1123 0
-234 -1124 0
-236 -1125 0
-229 -1140 0
-231 -1141 0
-233 -1142 0
-234 -1143 0
-235 -1144 0
-236 -1145 0
-229 -1147 0
-231 -1148 0
-232 -1149 0
-233 -1150 0
-236 -1151 0
-229 -1159 0
-231 -1161 0
-232 -1162 0
-233 -1163 0
-234 -1164 0
-236 -1165 0
-230 -1174 0
-233 -1175 0
-234 -1176 0
-235 -1177 0
-236 -1178 0
-230 -1181 0
-232 -1182 0
-233 -1183 0
-236 -1184 0
-230 -1194 0
-232 -1196 0
-234 -1197 0
-236 -1198 0
-230 -1200 0
-234 -1202 0
-235 -1203 0
-236 -1204 0
-233 -1244 0
-235 -1245 0
-236 -1246 0
-232 -1262 0
-233 -1263 0
-234 -1264 0
-236 -1265 0
-228 -1273 0
-230 -1274 0
-233 -1276 0
-235 -1277 0
-236 -1278 0
-228 -1294 0
-233 -1296 0
-234 -1297 0
-235 -1298 0
-236 -1299 0
-229 -1301 0
-230 -1302 0
-233 -1304 0
-235 -1305 0
-236 -1306 0
-229 -1314 0
-230 -1315 0
-232 -1317 0
-234 -1318 0
-235 -1319 0
-236 -1320 0
-229 -1328 0
-233 -1330 0
-234 -1331 0
-235 -1332 0
-236 -1333 0
-230 -1348 0
-231 -1350 0
-232 -1351 0
-233 -1352 0
-236 -1353 0
-230 -1356 0
-231 -1358 0
-233 -1359 0
-234 -1360 0
-235 -1361 0
-236 -1362 0
-230 -1371 0
-231 -1372 0
-232 -1373 0
-234 -1374 0
-235 -1375 0
-236 -1376 0
-230 -1378 0
-231 -1379 0
-232 -1380 0
-235 -1381 0
-236 -1382 0
-231 -1399 0
-232 -1400 0
-234 -1401 0
-235 -1402 0
-236 -1403 0
-231 -1417 0
-232 -1418 0
-233 -1419 0
-234 -1420 0
-236 -1421 0
-231 -1436 0
-232 -1437 0
-233 -1438 0
-235 -1439 0
-236 -1440 0
-230 -1442 0
-231 -1444 0
-233 -1445 0
-234 -1446 0
-235 -1447 0
-236 -1448 0
-228 -1465 0
-229 -1466 0
-232 -1467 0
-234 -1468 0
-235 -1469 0
-236 -1470 0
-228 -1480 0
-229 -1481 0
-232 -1483 0
-233 -1484 0
-235 -1485 0
-236 -1486 0
-229 -1494 0
-232 -1495 0
-233 -1496 0
-235 -1497 0
-236 -1498 0
-228 -1516 0
-231 -1518 0
-232 -1519 0
-234 -1520 0
-236 -1521 0
-228 -1543 0
-231 -1545 0
-233 -1546 0
-235 -1547 0
-236 -1548 0
-229 -1570 0
-231 -1572 0
-233 -1573 0
-236 -1574 0
-229 -1577 0
-231 -1579 0
-232 -1580 0
-233 -1581 0
-234 -1582 0
-235 -1583 0
-236 -1584 0
-228 -1623 0
-230 -1624 0
-231 -1626 0
-232 -1627 0
-235 -1628 0
-236 -1629 0
-228 -1643 0
-231 -1644 0
-232 -1645 0
-234 -1646 0
-236 -1647 0
-229 -1649 0
-230 -1650 0
-231 -1651 0
-232 -1652 0
-236 -1653 0
-229 -1660 0
-230 -1661 0
-231 -1663 0
-232 -1664 0
-233 -1665 0
-234 -1666 0
-235 -1667 0
-236 -1668 0
-229 -1675 0
-231 -1677 0
-232 -1678 0
-233 -1679 0
-234 -1680 0
-236 -1681 0
-230 -1696 0
-232 -1698 0
-235 -1699 0
-236 -1700 0
-230 -1703 0
-232 -1705 0
-234 -1706 0
-236 -1707 0
-230 -1718 0
-233 -1720 0
-234 -1721 0
-236 -1722 0
-230 -1724 0
-232 -1726 0
-233 -1727 0
-235 -1728 0
-236 -1729 0
-232 -1744 0
-233 -1745 0
-234 -1746 0
-236 -1747 0
-232 -1763 0
-233 -1764 0
-234 -1765 0
-235 -1766 0
-236 -1767 0
-228 -1788 0
-232 -1790 0
-234 -1791 0
-235 -1792 0
-236 -1793 0
-230 -1801 0
-231 -1802 0
-232 -1803 0
-234 -1804 0
-235 -1805 0
-236 -1806 0
-230 -1813 0
-231 -1815 0
-233 -1816 0
-234 -1817 0
-235 -1818 0
-236 -1819 0
-231 -1833 0
-233 -1834 0
-234 -1835 0
-235 -1836 0
-236 -1837 0
-228 -1846 0
-231 -1847 0
-232 -1848 0
-235 -1849 0
-236 -1850 0
-229 -1859 0
-231 -1861 0
-232 -1862 0
-235 -1863 0
-236 -1864 0
-229 -1866 0
-231 -1867 0
-233 -1868 0
-234 -1869 0
-235 -1870 0
-236 -1871 0
-232 -1881 0
-234 -1882 0
-235 -1883 0
-236 -1884 0
-232 -1894 0
-233 -1895 0
-234 -1896 0
-235 -1897 0
-236 -1898 0
-233 -1902 0
-235 -1903 0
-236 -1904 0
-230 -1925 0
-231 -1926 0
-232 -1927 0
-234 -1928 0
-235 -1929 0
-236 -1930 0
-231 -1946 0
-232 -1947 0
-233 -1948 0
-235 -1949 0
-236 -1950 0
-238 -311 0
-241 -313 0
-243 -314 0
-244 -315 0
-245 -316 0
-238 -317 0
-239 -318 0
-241 -320 0
-243 -322 0
-245 -323 0
-238 -347 0
-239 -348 0
-240 -350 0
-241 -351 0
-244 -353 0
-245 -354 0
-238 -355 0
-239 -356 0
-240 -358 0
-243 -359 0
-245 -360 0
-239 -371 0
-243 -374 0
-245 -375 0
-238 -416 0
-241 -418 0
-242 -419 0
-244 -420 0
-245 -421 0
-238 -460 0
-240 -462 0
-242 -464 0
-243 -465 0
-244 -466 0
-245 -467 0
-239 -469 0
-240 -471 0
-242 -472 0
-243 -473 0
-245 -474 0
-239 -498 0
-242 -500 0
-244 -501 0
-245 -502 0
-238 -588 0
-239 -589 0
-240 -591 0
-243 -592 0
-245 -593 0
-239 -600 0
-240 -602 0
-241 -603 0
-244 -604 0
-245 -605 0
-238 -612 0
-240 -614 0
-242 -616 0
-243 -617 0
-245 -618 0
-238 -656 0
-241 -658 0
-242 -660 0
-245 -661 0
-239 -662 0
-241 -664 0
-242 -666 0
-244 -667 0
-245 -668 0
-239 -689 0
-240 -691 0
-241 -692 0
-242 -694 0
-243 -695 0
-245 -696 0
-239 -736 0
-240 -738 0
-242 -740 0
-245 -741 0
-240 -758 0
-243 -759 0
-244 -760 0
-245 -761 0
-240 -763 0
-241 -764 0
-243 -766 0
-245 -767 0
-237 -793 0
-238 -794 0
-240 -795 0
-241 -796 0
-243 -798 0
-245 -799 0
-238 -801 0
-240 -802 0
-241 -803 0
-244 -804 0
-245 -805 0
-237 -806 0
-238 -807 0
-239 -808 0
-240 -810 0
-241 -811 0
-243 -812 0
-244 -813 0
-245 -814 0
-237 -832 0
-238 -833 0
-239 -834 0
-240 -835 0
-241 -836 0
-245 -837 0
-237 -838 0
-238 -839 0
-239 -840 0
-243 -842 0
-244 -843 0
-245 -844 0
-238 -846 0
-239 -847 0
-243 -848 0
-244 -849 0
-245 -850 0
-237 -862 0
-239 -863 0
-240 -864 0
-243 -865 0
-244 -866 0
-245 -867 0
-238 -874 0
-239 -875 0
-240 -876 0
-241 -877 0
-245 -879 0
-239 -886 0
-241 -887 0
-243 -889 0
-244 -890 0
-245 -891 0
-237 -905 0
-238 -906 0
-240 -908 0
-241 -909 0
-242 -911 0
-245 -912 0
-237 -948 0
-238 -949 0
-242 -951 0
-243 -952 0
-245 -953 0
-238 -955 0
-242 -957 0
-244 -958 0
-245 -959 0
-237 -961 0
-239 -962 0
-242 -965 0
-243 -966 0
-244 -967 0
-245 -968 0
-237 -983 0
-239 -984 0
-240 -985 0
-242 -987 0
-245 -988 0
-239 -1047 0
-241 -1048 0
-242 -1050 0
-245 -1051 0
-237 -1052 0
-238 -1053 0
-241 -1055 0
-242 -1056 0
-243 -1057 0
-245 -1058 0
-238 -1060 0
-241 -1062 0
-242 -1064 0
-243 -1065 0
-244 -1066 0
-245 -1067 0
-238 -1083 0
-240 -1084 0
-241 -1085 0
-242 -1087 0
-245 -1088 0
-237 -1090 0
-239 -1091 0
-240 -1093 0
-241 -1094 0
-242 -1096 0
-243 -1097 0
-245 -1098 0
-238 -1100 0
-240 -1101 0
-242 -1102 0
-243 -1103 0
-244 -1104 0
-245 -1105 0
-239 -1114 0
-242 -1116 0
-243 -1117 0
-244 -1118 0
-245 -1119 0
-238 -1126 0
-241 -1127 0
-242 -1129 0
-243 -1130 0
-244 -1131 0
-245 -1132 0
-239 -1133 0
-241 -1135 0
-242 -1136 0
-243 -1137 0
-245 -1138 0
-239 -1153 0
-240 -1154 0
-241 -1155 0
-242 -1156 0
-244 -1157 0
-245 -1158 0
-239 -1159 0
-240 -1160 0
-241 -1161 0
-242 -1163 0
-243 -1164 0
-245 -1165 0
-237 -1167 0
-241 -1169 0
-243 -1170 0
-245 -1171 0
-237 -1186 0
-240 -1188 0
-241 -1189 0
-244 -1190 0
-245 -1191 0
-237 -1193 0
-240 -1195 0
-243 -1197 0
-245 -1198 0
-240 -1201 0
-243 -1202 0
-244 -1203 0
-245 -1204 0
-241 -1237 0
-244 -1239 0
-245 -1240 0
-240 -1267 0
-241 -1268 0
-243 -1270 0
-244 -1271 0
-245 -1272 0
-238 -1273 0
-240 -1275 0
-242 -1276 0
-244 -1277 0
-245 -1278 0
-238 -1294 0
-240 -1295 0
-242 -1296 0
-243 -1297 0
-244 -1298 0
-245 -1299 0
-237 -1300 0
-239 -1301 0
-240 -1303 0
-242 -1304 0
-244 -1305 0
-245 -1306 0
-238 -1307 0
-241 -1308 0
-242 -1310 0
-243 -1311 0
-244 -1312 0
-245 -1313 0
-239 -1322 0
-240 -1323 0
-241 -1324 0
-242 -1325 0
-244 -1326 0
-245 -1327 0
-239 -1334 0
-240 -1335 0
-241 -1336 0
-242 -1338 0
-243 -1339 0
-245 -1340 0
-237 -1341 0
-240 -1343 0
-244 -1345 0
-245 -1346 0
-237 -1364 0
-240 -1366 0
-243 -1368 0
-245 -1369 0
-237 -1370 0
-241 -1372 0
-243 -1374 0
-244 -1375 0
-245 -1376 0
-241 -1379 0
-244 -1381 0
-245 -1382 0
-240 -1398 0
-241 -1399 0
-243 -1401 0
-244 -1402 0
-245 -1403 0
-240 -1411 0
-241 -1412 0
-243 -1414 0
-245 -1415 0
-240 -1451 0
-242 -1453 0
-244 -1454 0
-245 -1455 0
-238 -1457 0
-241 -1458 0
-242 -1460 0
-243 -1461 0
-244 -1462 0
-245 -1463 0
-237 -1471 0
-238 -1472 0
-239 -1473 0
-240 -1474 0
-241 -1475 0
-242 -1477 0
-243 -1478 0
-245 -1479 0
-238 -1480 0
-239 -1481 0
-240 -1482 0
-242 -1484 0
-244 -1485 0
-245 -1486 0
-237 -1493 0
-239 -1494 0
-242 -1496 0
-244 -1497 0
-245 -1498 0
-237 -1508 0
-238 -1509 0
-241 -1511 0
-242 -1512 0
-243 -1513 0
-245 -1514 0
-237 -1549 0
-238 -1550 0
-240 -1551 0
-242 -1553 0
-245 -1554 0
-238 -1556 0
-240 -1557 0
-242 -1558 0
-243 -1559 0
-244 -1560 0
-245 -1561 0
-237 -1562 0
-239 -1563 0
-240 -1565 0
-242 -1566 0
-244 -1567 0
-245 -1568 0
-237 -1586 0
-239 -1587 0
-242 -1588 0
-243 -1589 0
-245 -1590 0
-239 -1616 0
-240 -1617 0
-241 -1618 0
-242 -1620 0
-243 -1621 0
-245 -1622 0
-238 -1623 0
-240 -1625 0
-241 -1626 0
-244 -1628 0
-245 -1629 0
-238 -1643 0
-241 -1644 0
-243 -1646 0
-245 -1647 0
-237 -1648 0
-239 -1649 0
-241 -1651 0
-245 -1653 0
-238 -1654 0
-240 -1655 0
-243 -1657 0
-244 -1658 0
-245 -1659 0
-239 -1670 0
-240 -1671 0
-244 -1673 0
-245 -1674 0
-239 -1682 0
-241 -1683 0
-243 -1685 0
-244 -1686 0
-245 -1687 0
-237 -1688 0
-240 -1690 0
-241 -1691 0
-242 -1693 0
-245 -1694 0
-237 -1709 0
-241 -1711 0
-242 -1713 0
-243 -1714 0
-244 -1715 0
-245 -1716 0
-237 -1717 0
-240 -1719 0
-242 -1720 0
-243 -1721 0
-245 -1722 0
-240 -1725 0
-242 -1727 0
-244 -1728 0
-245 -1729 0
-240 -1743 0
-242 -1745 0
-243 -1746 0
-245 -1747 0
-240 -1755 0
-241 -1756 0
-242 -1757 0
-243 -1758 0
-244 -1759 0
-245 -1760 0
-240 -1782 0
-241 -1783 0
-242 -1785 0
-244 -1786 0
-245 -1787 0
-238 -1788 0
-240 -1789 0
-243 -1791 0
-244 -1792 0
-245 -1793 0
-239 -1794 0
-241 -1795 0
-243 -1797 0
-244 -1798 0
-245 -1799 0
-237 -1807 0
-240 -1809 0
-242 -1810 0
-243 -1811 0
-245 -1812 0
-240 -1814 0
-241 -1815 0
-242 -1816 0
-243 -1817 0
-244 -1818 0
-245 -1819 0
-241 -1833 0
-242 -1834 0
-243 -1835 0
-244 -1836 0
-245 -1837 0
-242 -1841 0
-243 -1842 0
-244 -1843 0
-245 -1844 0
-237 -1845 0
-238 -1846 0
-241 -1847 0
-244 -1849 0
-245 -1850 0
-237 -1858 0
-239 -1859 0
-240 -1860 0
-241 -1861 0
-244 -1863 0
-245 -1864 0
-237 -1872 0
-241 -1874 0
-242 -1875 0
-244 -1876 0
-245 -1877 0
-237 -1886 0
-240 -1887 0
-241 -1888 0
-242 -1889 0
-243 -1890 0
-245 -1891 0
-237 -1892 0
-240 -1893 0
-242 -1895 0
-243 -1896 0
-244 -1897 0
-245 -1898 0
-237 -1900 0
-240 -1901 0
-242 -1902 0
-244 -1903 0
-245 -1904 0
-237 -1918 0
-241 -1919 0
-242 -1921 0
-243 -1922 0
-245 -1923 0
-237 -1932 0
-241 -1933 0
-242 -1935 0
-244 -1936 0
-245 -1937 0
-240 -1945 0
-241 -1946 0
-242 -1948 0
-244 -1949 0
-245 -1950 0
-237 -1952 0
-240 -1953 0
-242 -1955 0
-243 -1956 0
-244 -1957 0
-245 -1958 0
-247 -304 0
-249 -307 0
-250 -309 0
-252 -310 0
-247 -317 0
-248 -318 0
-249 -321 0
-250 -322 0
-252 -323 0
-247 -340 0
-248 -341 0
-249 -343 0
-252 -345 0
-247 -355 0
-248 -356 0
-250 -359 0
-252 -360 0
-247 -362 0
-248 -363 0
-249 -366 0
-250 -368 0
-252 -369 0
-248 -371 0
-249 -373 0
-250 -374 0
-252 -375 0
-247 -410 0
-249 -413 0
-252 -414 0
-247 -453 0
-250 -457 0
-252 -458 0
-248 -469 0
-250 -473 0
-252 -474 0
-248 -491 0
-249 -495 0
-252 -496 0
-247 -578 0
-248 -579 0
-249 -583 0
-250 -585 0
-251 -586 0
-252 -587 0
-247 -594 0
-248 -595 0
-251 -598 0
-252 -599 0
-248 -600 0
-251 -604 0
-252 -605 0
-247 -606 0
-250 -609 0
-251 -610 0
-252 -611 0
-247 -649 0
-249 -653 0
-251 -654 0
-252 -655 0
-248 -662 0
-249 -665 0
-251 -667 0
-252 -668 0
-248 -682 0
-250 -685 0
-251 -686 0
-252 -687 0
-247 -730 0
-249 -733 0
-252 -735 0
-248 -736 0
-249 -739 0
-252 -741 0
-249 -752 0
-250 -754 0
-252 -755 0
-249 -765 0
-250 -766 0
-252 -767 0
-252 -773 0
-246 -787 0
-247 -788 0
-250 -790 0
-251 -791 0
-252 -792 0
-247 -801 0
-251 -804 0
-252 -805 0
-246 -806 0
-247 -807 0
-248 -808 0
-250 -812 0
-251 -813 0
-252 -814 0
-246 -823 0
-247 -824 0
-248 -825 0
-249 -827 0
-251 -829 0
-252 -830 0
-246 -838 0
-247 -839 0
-248 -840 0
-249 -841 0
-250 -842 0
-251 -843 0
-252 -844 0
-247 -852 0
-248 -853 0
-249 -856 0
-250 -858 0
-251 -859 0
-252 -860 0
-246 -862 0
-248 -863 0
-250 -865 0
-251 -866 0
-252 -867 0
-247 -868 0
-248 -869 0
-251 -872 0
-252 -873 0
-248 -886 0
-249 -888 0
-250 -889 0
-251 -890 0
-252 -891 0
-246 -899 0
-247 -900 0
-251 -902 0
-252 -903 0
-246 -939 0
-247 -940 0
-249 -943 0
-250 -944 0
-251 -945 0
-252 -946 0
-247 -955 0
-249 -956 0
-251 -958 0
-252 -959 0
-246 -961 0
-248 -962 0
-249 -964 0
-250 -966 0
-251 -967 0
-252 -968 0
-246 -977 0
-248 -978 0
-251 -980 0
-252 -981 0
-248 -1041 0
-249 -1043 0
-251 -1044 0
-252 -1045 0
-246 -1052 0
-247 -1053 0
-250 -1057 0
-252 -1058 0
-247 -1069 0
-250 -1073 0
-252 -1074 0
-246 -1076 0
-247 -1077 0
-249 -1078 0
-250 -1080 0
-252 -1081 0
-247 -1083 0
-249 -1086 0
-252 -1088 0
-246 -1090 0
-248 -1091 0
-249 -1095 0
-250 -1097 0
-252 -1098 0
-247 -1120 0
-250 -1124 0
-252 -1125 0
-248 -1133 0
-250 -1137 0
-252 -1138 0
-248 -1147 0
-249 -1149 0
-252 -1151 0
-248 -1159 0
-249 -1162 0
-250 -1164 0
-252 -1165 0
-246 -1167 0
-250 -1170 0
-252 -1171 0
-246 -1180 0
-249 -1182 0
-252 -1184 0
-246 -1193 0
-249 -1196 0
-250 -1197 0
-252 -1198 0
-249 -1208 0
-250 -1210 0
-252 -1211 0
-246 -1213 0
-250 -1217 0
-252 -1218 0
-252 -1234 0
-249 -1262 0
-250 -1264 0
-252 -1265 0
-247 -1279 0
-249 -1283 0
-251 -1284 0
-252 -1285 0
-246 -1286 0
-247 -1287 0
-251 -1291 0
-252 -1292 0
-247 -1294 0
-250 -1297 0
-251 -1298 0
-252 -1299 0
-246 -1300 0
-248 -1301 0
-251 -1305 0
-252 -1306 0
-248 -1328 0
-250 -1331 0
-251 -1332 0
-252 -1333 0
-246 -1341 0
-249 -1344 0
-251 -1345 0
-252 -1346 0
-246 -1355 0
-250 -1360 0
-251 -1361 0
-252 -1362 0
-246 -1370 0
-249 -1373 0
-250 -1374 0
-251 -1375 0
-252 -1376 0
-249 -1386 0
-251 -1388 0
-252 -1389 0
-246 -1391 0
-249 -1393 0
-251 -1395 0
-252 -1396 0
-249 -1400 0
-250 -1401 0
-251 -1402 0
-252 -1403 0
-249 -1405 0
-250 -1407 0
-251 -1408 0
-252 -1409 0
-249 -1437 0
-251 -1439 0
-252 -1440 0
-247 -1457 0
-249 -1459 0
-250 -1461 0
-251 -1462 0
-252 -1463 0
-246 -1464 0
-247 -1465 0
-248 -1466 0
-249 -1467 0
-250 -1468 0
-251 -1469 0
-252 -1470 0
-247 -1487 0
-248 -1488 0
-251 -1491 0
-252 -1492 0
-246 -1493 0
-248 -1494 0
-249 -1495 0
-251 -1497 0
-252 -1498 0
-246 -1499 0
-247 -1500 0
-249 -1503 0
-250 -1505 0
-251 -1506 0
-252 -1507 0
-246 -1542 0
-247 -1543 0
-251 -1547 0
-252 -1548 0
-247 -1556 0
-250 -1559 0
-251 -1560 0
-252 -1561 0
-246 -1562 0
-248 -1563 0
-251 -1567 0
-252 -1568 0
-246 -1576 0
-248 -1577 0
-249 -1580 0
-250 -1582 0
-251 -1583 0
-252 -1584 0
-248 -1610 0
-250 -1613 0
-251 -1614 0
-252 -1615 0
-247 -1630 0
-249 -1633 0
-252 -1635 0
-246 -1636 0
-247 -1637 0
-249 -1639 0
-252 -1641 0
-247 -1643 0
-249 -1645 0
-250 -1646 0
-252 -1647 0
-246 -1648 0
-248 -1649 0
-249 -1652 0
-252 -1653 0
-248 -1675 0
-249 -1678 0
-250 -1680 0
-252 -1681 0
-246 -1688 0
-249 -1692 0
-252 -1694 0
-246 -1702 0
-249 -1705 0
-250 -1706 0
-252 -1707 0
-246 -1717 0
-250 -1721 0
-252 -1722 0
-252 -1735 0
-246 -1737 0
-249 -1740 0
-252 -1741 0
-249 -1744 0
-250 -1746 0
-252 -1747 0
-249 -1751 0
-250 -1752 0
-252 -1753 0
-247 -1788 0
-249 -1790 0
-250 -1791 0
-251 -1792 0
-252 -1793 0
-246 -1800 0
-249 -1803 0
-250 -1804 0
-251 -1805 0
-252 -1806 0
-249 -1821 0
-250 -1823 0
-251 -1824 0
-252 -1825 0
-246 -1826 0
-250 -1829 0
-251 -1830 0
-252 -1831 0
-250 -1835 0
-251 -1836 0
-252 -1837 0
-246 -1851 0
-247 -1852 0
-251 -1856 0
-252 -1857 0
-246 -1858 0
-248 -1859 0
-249 -1862 0
-251 -1863 0
-252 -1864 0
-246 -1872 0
-251 -1876 0
-252 -1877 0
-246 -1880 0
-249 -1881 0
-250 -1882 0
-251 -1883 0
-252 -1884 0
-246 -1892 0
-249 -1894 0
-250 -1896 0
-251 -1897 0
-252 -1898 0
-246 -1906 0
-249 -1908 0
-251 -1910 0
-252 -1911 0
-246 -1912 0
-250 -1915 0
-251 -1916 0
-252 -1917 0
-254 -304 0
-256 -309 0
-258 -310 0
-254 -311 0
-256 -314 0
-257 -315 0
-258 -316 0
-254 -317 0
-255 -318 0
-256 -322 0
-258 -323 0
-254 -331 0
-255 -332 0
-256 -336 0
-257 -337 0
-258 -338 0
-253 -361 0
-254 -362 0
-255 -363 0
-256 -368 0
-258 -369 0
-253 -370 0
-255 -371 0
-256 -374 0
-258 -375 0
-255 -396 0
-256 -399 0
-257 -400 0
-258 -401 0
-254 -403 0
-256 -406 0
-257 -407 0
-258 -408 0
-253 -452 0
-254 -453 0
-256 -457 0
-258 -458 0
-253 -459 0
-254 -460 0
-256 -465 0
-257 -466 0
-258 -467 0
-253 -468 0
-255 -469 0
-256 -473 0
-258 -474 0
-253 -481 0
-255 -483 0
-256 -487 0
-257 -488 0
-258 -489 0
-255 -552 0
-256 -556 0
-257 -557 0
-258 -558 0
-254 -594 0
-255 -595 0
-257 -598 0
-258 -599 0
-255 -600 0
-257 -604 0
-258 -605 0
-254 -649 0
-257 -654 0
-258 -655 0
-254 -656 0
-258 -661 0
-255 -662 0
-257 -667 0
-258 -668 0
-255 -676 0
-258 -680 0
-254 -730 0
-258 -735 0
-255 -736 0
-258 -741 0
-257 -747 0
-258 -748 0
-253 -768 0
-258 -773 0
-254 -788 0
-256 -790 0
-257 -791 0
-258 -792 0
-254 -794 0
-256 -798 0
-258 -799 0
-254 -807 0
-255 -808 0
-256 -812 0
-257 -813 0
-258 -814 0
-254 -816 0
-255 -817 0
-256 -820 0
-258 -821 0
-253 -845 0
-254 -846 0
-255 -847 0
-256 -848 0
-257 -849 0
-258 -850 0
-253 -851 0
-254 -852 0
-255 -853 0
-256 -858 0
-257 -859 0
-258 -860 0
-253 -861 0
-255 -863 0
-256 -865 0
-257 -866 0
-258 -867 0
-255 -886 0
-256 -889 0
-257 -890 0
-258 -891 0
-254 -893 0
-256 -896 0
-258 -897 0
-253 -938 0
-254 -940 0
-256 -944 0
-257 -945 0
-258 -946 0
-253 -947 0
-254 -949 0
-256 -952 0
-258 -953 0
-253 -960 0
-255 -962 0
-256 -966 0
-257 -967 0
-258 -968 0
-253 -969 0
-255 -971 0
-256 -974 0
-258 -975 0
-255 -1035 0
-256 -1038 0
-258 -1039 0
-253 -1059 0
-254 -1060 0
-256 -1065 0
-257 -1066 0
-258 -1067 0
-253 -1068 0
-254 -1069 0
-256 -1073 0
-258 -1074 0
-253 -1075 0
-254 -1077 0
-256 -1080 0
-258 -1081 0
-253 -1089 0
-255 -1091 0
-256 -1097 0
-258 -1098 0
-253 -1113 0
-255 -1114 0
-256 -1117 0
-257 -1118 0
-258 -1119 0
-254 -1120 0
-256 -1124 0
-258 -1125 0
-254 -1126 0
-256 -1130 0
-257 -1131 0
-258 -1132 0
-255 -1133 0
-256 -1137 0
-258 -1138 0
-255 -1140 0
-256 -1143 0
-257 -1144 0
-258 -1145 0
-253 -1166 0
-256 -1170 0
-258 -1171 0
-253 -1172 0
-256 -1176 0
-257 -1177 0
-258 -1178 0
-253 -1199 0
-256 -1202 0
-257 -1203 0
-258 -1204 0
-253 -1205 0
-256 -1210 0
-258 -1211 0
-253 -1212 0
-256 -1217 0
-258 -1218 0
-256 -1226 0
-257 -1227 0
-258 -1228 0
-253 -1260 0
-256 -1264 0
-258 -1265 0
-253 -1266 0
-256 -1270 0
-257 -1271 0
-258 -1272 0
-254 -1273 0
-257 -1277 0
-258 -1278 0
-254 -1279 0
-257 -1284 0
-258 -1285 0
-254 -1287 0
-257 -1291 0
-258 -1292 0
-255 -1301 0
-257 -1305 0
-258 -1306 0
-253 -1321 0
-255 -1322 0
-257 -1326 0
-258 -1327 0
-257 -1345 0
-258 -1346 0
-258 -1353 0
-253 -1377 0
-257 -1381 0
-258 -1382 0
-253 -1383 0
-257 -1388 0
-258 -1389 0
-253 -1390 0
-257 -1395 0
-258 -1396 0
-257 -1439 0
-258 -1440 0
-253 -1449 0
-257 -1454 0
-258 -1455 0
-254 -1480 0
-255 -1481 0
-257 -1485 0
-258 -1486 0
-254 -1487 0
-255 -1488 0
-257 -1491 0
-258 -1492 0
-255 -1494 0
-257 -1497 0
-258 -1498 0
-254 -1543 0
-257 -1547 0
-258 -1548 0
-254 -1550 0
-258 -1554 0
-255 -1563 0
-257 -1567 0
-258 -1568 0
-255 -1570 0
-258 -1574 0
-254 -1623 0
-257 -1628 0
-258 -1629 0
-254 -1630 0
-258 -1635 0
-254 -1637 0
-258 -1641 0
-255 -1649 0
-258 -1653 0
-253 -1669 0
-255 -1670 0
-257 -1673 0
-258 -1674 0
-258 -1694 0
-257 -1699 0
-258 -1700 0
-253 -1723 0
-257 -1728 0
-258 -1729 0
-253 -1730 0
-258 -1735 0
-253 -1736 0
-258 -1741 0
-257 -1786 0
-258 -1787 0
-255 -1794 0
-256 -1797 0
-257 -1798 0
-258 -1799 0
-256 -1817 0
-257 -1818 0
-258 -1819 0
-256 -1823 0
-257 -1824 0
-258 -1825 0
-256 -1829 0
-257 -1830 0
-258 -1831 0
-256 -1842 0
-257 -1843 0
-258 -1844 0
-254 -1846 0
-257 -1849 0
-258 -1850 0
-254 -1852 0
-257 -1856 0
-258 -1857 0
-255 -1859 0
-257 -1863 0
-258 -1864 0
-257 -1876 0
-258 -1877 0
-253 -1899 0
-257 -1903 0
-258 -1904 0
-253 -1905 0
-257 -1910 0
-258 -1911 0
-253 -1931 0
-257 -1936 0
-258 -1937 0
-257 -1949 0
-258 -1950 0
-256 -1956 0
-257 -1957 0
-258 -1958 0
-261 -305 0
-262 -309 0
-264 -310 0
-261 -312 0
-262 -314 0
-263 -315 0
-264 -316 0
-263 -328 0
-264 -329 0
-260 -356 0
-261 -357 0
-262 -359 0
-264 -360 0
-260 -363 0
-262 -368 0
-264 -369 0
-261 -454 0
-262 -457 0
-264 -458 0
-261 -461 0
-262 -465 0
-263 -466 0
-264 -467 0
-263 -479 0
-264 -480 0
-262 -576 0
-264 -577 0
-260 -595 0
-263 -598 0
-264 -599 0
-261 -650 0
-263 -654 0
-264 -655 0
-261 -657 0
-264 -661 0
-262 -673 0
-264 -674 0
-261 -731 0
-264 -735 0
-261 -762 0
-262 -766 0
-264 -767 0
-261 -769 0
-264 -773 0
-259 -787 0
-262 -790 0
-263 -791 0
-264 -792 0
-259 -793 0
-262 -798 0
-264 -799 0
-263 -804 0
-264 -805 0
-259 -838 0
-260 -840 0
-262 -842 0
-263 -843 0
-264 -844 0
-260 -847 0
-262 -848 0
-263 -849 0
-264 -850 0
-260 -853 0
-262 -858 0
-263 -859 0
-264 -860 0
-259 -939 0
-262 -944 0
-263 -945 0
-264 -946 0
-259 -948 0
-262 -952 0
-264 -953 0
-263 -958 0
-264 -959 0
-259 -1052 0
-261 -1054 0
-262 -1057 0
-264 -1058 0
-261 -1061 0
-262 -1065 0
-263 -1066 0
-264 -1067 0
-261 -1070 0
-262 -1073 0
-264 -1074 0
-259 -1076 0
-262 -1080 0
-264 -1081 0
-264 -1088 0
-260 -1107 0
-261 -1108 0
-262 -1110 0
-263 -1111 0
-264 -1112 0
-260 -1114 0
-262 -1117 0
-263 -1118 0
-264 -1119 0
-262 -1124 0
-264 -1125 0
-262 -1130 0
-263 -1131 0
-264 -1132 0
-260 -1159 0
-262 -1164 0
-264 -1165 0
-259 -1193 0
-261 -1194 0
-262 -1197 0
-264 -1198 0
-261 -1200 0
-262 -1202 0
-263 -1203 0
-264 -1204 0
-261 -1206 0
-262 -1210 0
-264 -1211 0
-259 -1213 0
-262 -1217 0
-264 -1218 0
-262 -1264 0
-264 -1265 0
-262 -1270 0
-263 -1271 0
-264 -1272 0
-261 -1274 0
-263 -1277 0
-264 -1278 0
-261 -1280 0
-263 -1284 0
-264 -1285 0
-259 -1286 0
-263 -1291 0
-264 -1292 0
-262 -1297 0
-263 -1298 0
-264 -1299 0
-260 -1314 0
-261 -1315 0
-262 -1318 0
-263 -1319 0
-264 -1320 0
-260 -1322 0
-263 -1326 0
-264 -1327 0
-259 -1370 0
-261 -1371 0
-262 -1374 0
-263 -1375 0
-264 -1376 0
-261 -1378 0
-263 -1381 0
-264 -1382 0
-261 -1384 0
-263 -1388 0
-264 -1389 0
-259 -1391 0
-263 -1395 0
-264 -1396 0
-262 -1401 0
-263 -1402 0
-264 -1403 0
-263 -1439 0
-264 -1440 0
-261 -1442 0
-262 -1446 0
-263 -1447 0
-264 -1448 0
-261 -1450 0
-263 -1454 0
-264 -1455 0
-262 -1461 0
-263 -1462 0
-264 -1463 0
-260 -1481 0
-263 -1485 0
-264 -1486 0
-260 -1488 0
-263 -1491 0
-264 -1492 0
-259 -1542 0
-263 -1547 0
-264 -1548 0
-259 -1549 0
-264 -1554 0
-262 -1559 0
-263 -1560 0
-264 -1561 0
-261 -1624 0
-263 -1628 0
-264 -1629 0
-261 -1631 0
-264 -1635 0
-259 -1636 0
-264 -1641 0
-262 -1646 0
-264 -1647 0
-260 -1660 0
-261 -1661 0
-262 -1666 0
-263 -1667 0
-264 -1668 0
-260 -1670 0
-263 -1673 0
-264 -1674 0
-259 -1717 0
-261 -1718 0
-262 -1721 0
-264 -1722 0
-261 -1724 0
-263 -1728 0
-264 -1729 0
-261 -1731 0
-264 -1735 0
-259 -1737 0
-264 -1741 0
-262 -1746 0
-264 -1747 0
-263 -1786 0
-264 -1787 0
-262 -1791 0
-263 -1792 0
-264 -1793 0
-260 -1794 0
-262 -1797 0
-263 -1798 0
-264 -1799 0
-261 -1813 0
-262 -1817 0
-263 -1818 0
-264 -1819 0
-261 -1820 0
-262 -1823 0
-263 -1824 0
-264 -1825 0
-259 -1826 0
-262 -1829 0
-263 -1830 0
-264 -1831 0
-262 -1835 0
-263 -1836 0
-264 -1837 0
-261 -1839 0
-262 -1842 0
-263 -1843 0
-264 -1844 0
-259 -1845 0
-263 -1849 0
-264 -1850 0
-259 -1851 0
-263 -1856 0
-264 -1857 0
-259 -1865 0
-260 -1866 0
-262 -1869 0
-263 -1870 0
-264 -1871 0
-259 -1892 0
-262 -1896 0
-263 -1897 0
-264 -1898 0
-259 -1900 0
-263 -1903 0
-264 -1904 0
-259 -1906 0
-263 -1910 0
-264 -1911 0
-259 -1924 0
-261 -1925 0
-262 -1928 0
-263 -1929 0
-264 -1930 0
-259 -1932 0
-263 -1936 0
-264 -1937 0
-263 -1949 0
-264 -1950 0
-259 -1952 0
-262 -1956 0
-263 -1957 0
-264 -1958 0
-265 -311 0
-268 -313 0
-270 -316 0
-265 -317 0
-266 -318 0
-268 -320 0
-269 -321 0
-270 -323 0
-265 -325 0
-269 -326 0
-270 -329 0
-265 -331 0
-266 -332 0
-269 -334 0
-270 -338 0
-265 -340 0
-266 -341 0
-269 -343 0
-270 -345 0
-266 -371 0
-269 -373 0
-270 -375 0
-265 -383 0
-266 -384 0
-268 -385 0
-270 -388 0
-266 -389 0
-268 -391 0
-269 -392 0
-270 -395 0
-265 -416 0
-268 -418 0
-270 -421 0
-265 -434 0
-270 -437 0
-265 -439 0
-269 -441 0
-270 -444 0
-266 -447 0
-269 -449 0
-270 -451 0
-266 -498 0
-270 -502 0
-266 -546 0
-268 -548 0
-270 -551 0
-265 -572 0
-267 -573 0
-268 -574 0
-270 -577 0
-265 -578 0
-266 -579 0
-267 -581 0
-268 -582 0
-269 -583 0
-270 -587 0
-266 -600 0
-267 -602 0
-268 -603 0
-270 -605 0
-265 -612 0
-267 -614 0
-269 -615 0
-270 -618 0
-265 -627 0
-267 -629 0
-268 -630 0
-269 -631 0
-270 -634 0
-265 -636 0
-267 -638 0
-268 -639 0
-270 -641 0
-266 -643 0
-267 -645 0
-268 -646 0
-270 -648 0
-266 -689 0
-267 -691 0
-268 -692 0
-269 -693 0
-270 -696 0
-266 -710 0
-267 -712 0
-269 -713 0
-270 -716 0
-265 -730 0
-268 -732 0
-269 -733 0
-270 -735 0
-268 -745 0
-270 -748 0
-268 -751 0
-269 -752 0
-270 -755 0
-269 -782 0
-270 -786 0
-265 -794 0
-267 -795 0
-268 -796 0
-269 -797 0
-270 -799 0
-265 -801 0
-267 -802 0
-268 -803 0
-270 -805 0
-265 -807 0
-266 -808 0
-267 -810 0
-268 -811 0
-270 -814 0
-265 -816 0
-266 -817 0
-267 -818 0
-270 -821 0
-265 -824 0
-266 -825 0
-267 -826 0
-269 -827 0
-270 -830 0
-265 -852 0
-266 -853 0
-267 -854 0
-268 -855 0
-269 -856 0
-270 -860 0
-266 -863 0
-267 -864 0
-270 -867 0
-265 -874 0
-266 -875 0
-267 -876 0
-268 -877 0
-269 -878 0
-270 -879 0
-266 -881 0
-267 -882 0
-268 -883 0
-270 -885 0
-265 -906 0
-267 -908 0
-268 -909 0
-269 -910 0
-270 -912 0
-265 -921 0
-267 -922 0
-269 -923 0
-270 -925 0
-265 -928 0
-267 -929 0
-270 -931 0
-266 -934 0
-267 -936 0
-270 -937 0
-266 -984 0
-267 -985 0
-269 -986 0
-270 -988 0
-266 -1027 0
-267 -1028 0
-268 -1029 0
-269 -1030 0
-270 -1033 0
-265 -1053 0
-268 -1055 0
-270 -1058 0
-265 -1060 0
-268 -1062 0
-269 -1063 0
-270 -1067 0
-265 -1077 0
-269 -1078 0
-270 -1081 0
-266 -1107 0
-268 -1109 0
-270 -1112 0
-266 -1114 0
-269 -1115 0
-270 -1119 0
-265 -1126 0
-268 -1127 0
-269 -1128 0
-270 -1132 0
-266 -1133 0
-268 -1135 0
-270 -1138 0
-266 -1140 0
-268 -1141 0
-270 -1145 0
-266 -1147 0
-268 -1148 0
-269 -1149 0
-270 -1151 0
-268 -1169 0
-270 -1171 0
-270 -1178 0
-269 -1182 0
-270 -1184 0
-268 -1207 0
-269 -1208 0
-270 -1211 0
-268 -1237 0
-269 -1238 0
-270 -1240 0
-268 -1249 0
-269 -1250 0
-270 -1253 0
-268 -1255 0
-270 -1259 0
-265 -1273 0
-267 -1275 0
-270 -1278 0
-265 -1287 0
-267 -1288 0
-268 -1289 0
-270 -1292 0
-266 -1314 0
-267 -1316 0
-269 -1317 0
-270 -1320 0
-266 -1322 0
-267 -1323 0
-268 -1324 0
-270 -1327 0
-266 -1328 0
-267 -1329 0
-270 -1333 0
-267 -1343 0
-269 -1344 0
-270 -1346 0
-267 -1349 0
-268 -1350 0
-269 -1351 0
-270 -1353 0
-267 -1357 0
-268 -1358 0
-270 -1362 0
-267 -1385 0
-269 -1386 0
-270 -1389 0
-267 -1398 0
-268 -1399 0
-269 -1400 0
-270 -1403 0
-267 -1411 0
-268 -1412 0
-269 -1413 0
-270 -1415 0
-267 -1423 0
-269 -1424 0
-270 -1428 0
-267 -1430 0
-269 -1431 0
-270 -1434 0
-265 -1457 0
-268 -1458 0
-269 -1459 0
-270 -1463 0
-265 -1465 0
-266 -1466 0
-269 -1467 0
-270 -1470 0
-265 -1487 0
-266 -1488 0
-268 -1489 0
-270 -1492 0
-266 -1494 0
-269 -1495 0
-270 -1498 0
-265 -1509 0
-268 -1511 0
-270 -1514 0
-265 -1523 0
-270 -1527 0
-265 -1530 0
-269 -1531 0
-270 -1534 0
-266 -1536 0
-269 -1538 0
-270 -1541 0
-266 -1587 0
-270 -1590 0
-266 -1604 0
-268 -1605 0
-270 -1609 0
-265 -1623 0
-267 -1625 0
-268 -1626 0
-269 -1627 0
-270 -1629 0
-265 -1637 0
-267 -1638 0
-269 -1639 0
-270 -1641 0
-266 -1660 0
-267 -1662 0
-268 -1663 0
-269 -1664 0
-270 -1668 0
-266 -1670 0
-267 -1671 0
-269 -1672 0
-270 -1674 0
-266 -1675 0
-267 -1676 0
-268 -1677 0
-269 -1678 0
-270 -1681 0
-267 -1690 0
-268 -1691 0
-269 -1692 0
-270 -1694 0
-267 -1697 0
-269 -1698 0
-270 -1700 0
-267 -1704 0
-269 -1705 0
-270 -1707 0
-267 -1732 0
-268 -1733 0
-270 -1735 0
-267 -1743 0
-269 -1744 0
-270 -1747 0
-267 -1755 0
-268 -1756 0
-270 -1760 0
-267 -1769 0
-268 -1770 0
-270 -1773 0
-267 -1775 0
-268 -1776 0
-269 -1777 0
-270 -1780 0
-266 -1794 0
-268 -1795 0
-269 -1796 0
-270 -1799 0
-268 -1802 0
-269 -1803 0
-270 -1806 0
-269 -1821 0
-270 -1825 0
-268 -1833 0
-270 -1837 0
-265 -1846 0
-268 -1847 0
-269 -1848 0
-270 -1850 0
-266 -1866 0
-268 -1867 0
-270 -1871 0
-268 -1874 0
-270 -1877 0
-269 -1881 0
-270 -1884 0
-268 -1907 0
-269 -1908 0
-270 -1911 0
-268 -1919 0
-269 -1920 0
-270 -1923 0
-267 -1939 0
-268 -1940 0
-269 -1941 0
-270 -1944 0
-267 -1945 0
-268 -1946 0
-269 -1947 0
-270 -1950 0
-271 -304 0
-273 -306 0
-274 -307 0
-275 -308 0
-277 -310 0
-271 -317 0
-272 -318 0
-274 -321 0
-277 -323 0
-271 -325 0
-274 -326 0
-275 -327 0
-276 -328 0
-277 -329 0
-271 -331 0
-272 -332 0
-274 -334 0
-275 -335 0
-276 -337 0
-277 -338 0
-271 -347 0
-272 -348 0
-273 -350 0
-274 -352 0
-276 -353 0
-277 -354 0
-271 -362 0
-272 -363 0
-273 -364 0
-274 -366 0
-275 -367 0
-277 -369 0
-272 -371 0
-274 -373 0
-277 -375 0
-271 -376 0
-272 -377 0
-273 -378 0
-274 -379 0
-275 -380 0
-276 -381 0
-277 -382 0
-272 -389 0
-274 -392 0
-275 -393 0
-276 -394 0
-277 -395 0
-271 -410 0
-273 -412 0
-274 -413 0
-277 -414 0
-271 -424 0
-273 -426 0
-274 -428 0
-275 -429 0
-276 -430 0
-277 -431 0
-271 -439 0
-274 -441 0
-276 -443 0
-277 -444 0
-272 -447 0
-274 -449 0
-276 -450 0
-277 -451 0
-272 -491 0
-273 -493 0
-274 -495 0
-277 -496 0
-272 -537 0
-273 -539 0
-274 -540 0
-275 -541 0
-276 -543 0
-277 -544 0
-271 -572 0
-273 -573 0
-275 -575 0
-277 -577 0
-271 -588 0
-272 -589 0
-273 -591 0
-277 -593 0
-271 -594 0
-272 -595 0
-275 -597 0
-276 -598 0
-277 -599 0
-272 -600 0
-273 -602 0
-276 -604 0
-277 -605 0
-271 -606 0
-276 -610 0
-277 -611 0
-271 -620 0
-275 -623 0
-277 -625 0
-271 -636 0
-273 -638 0
-277 -641 0
-272 -643 0
-273 -645 0
-277 -648 0
-272 -682 0
-276 -686 0
-277 -687 0
-272 -704 0
-275 -707 0
-277 -709 0
-275 -746 0
-276 -747 0
-277 -748 0
-273 -758 0
-276 -760 0
-277 -761 0
-273 -770 0
-275 -772 0
-277 -773 0
-273 -775 0
-275 -777 0
-276 -779 0
-277 -780 0
-271 -788 0
-275 -789 0
-276 -791 0
-277 -792 0
-271 -801 0
-273 -802 0
-276 -804 0
-277 -805 0
-271 -807 0
-272 -808 0
-273 -810 0
-276 -813 0
-277 -814 0
-271 -816 0
-272 -817 0
-273 -818 0
-275 -819 0
-277 -821 0
-271 -833 0
-272 -834 0
-273 -835 0
-277 -837 0
-271 -846 0
-272 -847 0
-276 -849 0
-277 -850 0
-272 -863 0
-273 -864 0
-276 -866 0
-277 -867 0
-271 -868 0
-272 -869 0
-275 -871 0
-276 -872 0
-277 -873 0
-272 -881 0
-273 -882 0
-275 -884 0
-277 -885 0
-271 -900 0
-276 -902 0
-277 -903 0
-271 -915 0
-275 -917 0
-277 -918 0
-271 -928 0
-273 -929 0
-277 -931 0
-272 -934 0
-273 -936 0
-277 -937 0
-272 -978 0
-276 -980 0
-277 -981 0
-272 -1021 0
-275 -1022 0
-277 -1024 0
-271 -1053 0
-275 -1056 0
-277 -1058 0
-271 -1069 0
-273 -1071 0
-277 -1074 0
-271 -1100 0
-273 -1101 0
-275 -1102 0
-276 -1104 0
-277 -1105 0
-272 -1107 0
-276 -1111 0
-277 -1112 0
-271 -1120 0
-273 -1121 0
-275 -1123 0
-277 -1125 0
-272 -1133 0
-275 -1136 0
-277 -1138 0
-272 -1140 0
-275 -1142 0
-276 -1144 0
-277 -1145 0
-272 -1153 0
-273 -1154 0
-275 -1156 0
-276 -1157 0
-277 -1158 0
-277 -1171 0
-275 -1175 0
-276 -1177 0
-277 -1178 0
-273 -1188 0
-276 -1190 0
-277 -1191 0
-273 -1201 0
-276 -1203 0
-277 -1204 0
-273 -1214 0
-275 -1216 0
-277 -1218 0
-273 -1231 0
-275 -1233 0
-277 -1234 0
-273 -1243 0
-275 -1244 0
-276 -1245 0
-277 -1246 0
-275 -1256 0
-276 -1258 0
-277 -1259 0
-271 -1279 0
-273 -1281 0
-274 -1283 0
-276 -1284 0
-277 -1285 0
-271 -1307 0
-274 -1309 0
-275 -1310 0
-276 -1312 0
-277 -1313 0
-272 -1314 0
-273 -1316 0
-274 -1317 0
-276 -1319 0
-277 -1320 0
-272 -1334 0
-273 -1335 0
-274 -1337 0
-275 -1338 0
-277 -1340 0
-273 -1343 0
-274 -1344 0
-276 -1345 0
-277 -1346 0
-273 -1349 0
-274 -1351 0
-275 -1352 0
-277 -1353 0
-273 -1366 0
-274 -1367 0
-277 -1369 0
-274 -1380 0
-276 -1381 0
-277 -1382 0
-274 -1393 0
-275 -1394 0
-276 -1395 0
-277 -1396 0
-273 -1398 0
-274 -1400 0
-276 -1402 0
-277 -1403 0
-274 -1405 0
-275 -1406 0
-276 -1408 0
-277 -1409 0
-274 -1418 0
-275 -1419 0
-277 -1421 0
-273 -1430 0
-274 -1431 0
-275 -1432 0
-277 -1434 0
-271 -1457 0
-274 -1459 0
-275 -1460 0
-276 -1462 0
-277 -1463 0
-271 -1472 0
-272 -1473 0
-273 -1474 0
-274 -1476 0
-275 -1477 0
-277 -1479 0
-271 -1480 0
-272 -1481 0
-273 -1482 0
-274 -1483 0
-275 -1484 0
-276 -1485 0
-277 -1486 0
-272 -1494 0
-274 -1495 0
-275 -1496 0
-276 -1497 0
-277 -1498 0
-271 -1500 0
-273 -1502 0
-274 -1503 0
-275 -1504 0
-276 -1506 0
-277 -1507 0
-271 -1516 0
-273 -1517 0
-274 -1519 0
-277 -1521 0
-271 -1530 0
-274 -1531 0
-275 -1532 0
-277 -1534 0
-272 -1536 0
-274 -1538 0
-275 -1539 0
-277 -1541 0
-272 -1577 0
-273 -1578 0
-274 -1580 0
-275 -1581 0
-276 -1583 0
-277 -1584 0
-272 -1598 0
-273 -1599 0
-274 -1600 0
-277 -1602 0
-271 -1630 0
-274 -1633 0
-275 -1634 0
-277 -1635 0
-271 -1654 0
-273 -1655 0
-274 -1656 0
-276 -1658 0
-277 -1659 0
-272 -1660 0
-273 -1662 0
-274 -1664 0
-275 -1665 0
-276 -1667 0
-277 -1668 0
-272 -1682 0
-274 -1684 0
-276 -1686 0
-277 -1687 0
-273 -1690 0
-274 -1692 0
-275 -1693 0
-277 -1694 0
-273 -1697 0
-274 -1698 0
-276 -1699 0
-277 -1700 0
-274 -1712 0
-275 -1713 0
-276 -1715 0
-277 -1716 0
-273 -1725 0
-274 -1726 0
-275 -1727 0
-276 -1728 0
-277 -1729 0
-273 -1738 0
-274 -1740 0
-277 -1741 0
-273 -1743 0
-274 -1744 0
-275 -1745 0
-277 -1747 0
-273 -1749 0
-274 -1751 0
-277 -1753 0
-273 -1762 0
-274 -1763 0
-275 -1764 0
-276 -1766 0
-277 -1767 0
-273 -1775 0
-274 -1777 0
-276 -1779 0
-277 -1780 0
-273 -1809 0
-275 -1810 0
-277 -1812 0
-273 -1814 0
-275 -1816 0
-276 -1818 0
-277 -1819 0
-273 -1827 0
-276 -1830 0
-277 -1831 0
-275 -1834 0
-276 -1836 0
-277 -1837 0
-271 -1852 0
-273 -1853 0
-275 -1855 0
-276 -1856 0
-277 -1857 0
-272 -1866 0
-275 -1868 0
-276 -1870 0
-277 -1871 0
-275 -1875 0
-276 -1876 0
-277 -1877 0
-273 -1887 0
-275 -1889 0
-277 -1891 0
-273 -1901 0
-275 -1902 0
-276 -1903 0
-277 -1904 0
-273 -1913 0
-276 -1916 0
-277 -1917 0
-279 -305 0
-280 -306 0
-281 -307 0
-282 -308 0
-283 -310 0
-279 -312 0
-283 -316 0
-278 -332 0
-279 -333 0
-281 -334 0
-282 -335 0
-283 -338 0
-278 -341 0
-279 -342 0
-281 -343 0
-282 -344 0
-283 -345 0
-278 -348 0
-279 -349 0
-280 -350 0
-281 -352 0
-283 -354 0
-278 -363 0
-280 -364 0
-281 -366 0
-282 -367 0
-283 -369 0
-278 -377 0
-280 -378 0
-281 -379 0
-282 -380 0
-283 -382 0
-278 -384 0
-282 -386 0
-283 -388 0
-279 -425 0
-280 -426 0
-281 -428 0
-282 -429 0
-283 -431 0
-279 -435 0
-283 -437 0
-279 -440 0
-281 -441 0
-283 -444 0
-280 -477 0
-283 -480 0
-280 -524 0
-282 -525 0
-283 -528 0
-278 -579 0
-279 -580 0
-280 -581 0
-281 -583 0
-282 -584 0
-283 -587 0
-278 -589 0
-279 -590 0
-280 -591 0
-283 -593 0
-278 -595 0
-282 -597 0
-283 -599 0
-279 -621 0
-282 -623 0
-283 -625 0
-279 -628 0
-280 -629 0
-281 -631 0
-283 -634 0
-279 -637 0
-280 -638 0
-283 -641 0
-281 -672 0
-283 -674 0
-281 -699 0
-282 -700 0
-283 -703 0
-278 -736 0
-279 -737 0
-280 -738 0
-281 -739 0
-282 -740 0
-283 -741 0
-279 -744 0
-282 -746 0
-283 -748 0
-279 -750 0
-281 -752 0
-282 -753 0
-283 -755 0
-279 -757 0
-280 -758 0
-283 -761 0
-279 -769 0
-280 -770 0
-282 -772 0
-283 -773 0
-279 -774 0
-280 -775 0
-282 -777 0
-283 -780 0
-279 -781 0
-281 -782 0
-282 -783 0
-283 -786 0
-282 -789 0
-283 -792 0
-280 -795 0
-281 -797 0
-283 -799 0
-280 -802 0
-283 -805 0
-278 -817 0
-280 -818 0
-282 -819 0
-283 -821 0
-278 -825 0
-280 -826 0
-281 -827 0
-282 -828 0
-283 -830 0
-278 -834 0
-280 -835 0
-283 -837 0
-282 -917 0
-283 -918 0
-280 -922 0
-281 -923 0
-283 -925 0
-280 -929 0
-283 -931 0
-279 -1054 0
-282 -1056 0
-283 -1058 0
-279 -1061 0
-281 -1063 0
-282 -1064 0
-283 -1067 0
-279 -1070 0
-280 -1071 0
-283 -1074 0
-278 -1091 0
-279 -1092 0
-280 -1093 0
-281 -1095 0
-282 -1096 0
-283 -1098 0
-280 -1101 0
-282 -1102 0
-283 -1105 0
-278 -1114 0
-281 -1115 0
-282 -1116 0
-283 -1119 0
-280 -1121 0
-282 -1123 0
-283 -1125 0
-281 -1128 0
-282 -1129 0
-283 -1132 0
-278 -1140 0
-282 -1142 0
-283 -1145 0
-278 -1147 0
-281 -1149 0
-282 -1150 0
-283 -1151 0
-278 -1153 0
-280 -1154 0
-282 -1156 0
-283 -1158 0
-279 -1174 0
-282 -1175 0
-283 -1178 0
-279 -1181 0
-281 -1182 0
-282 -1183 0
-283 -1184 0
-279 -1187 0
-280 -1188 0
-283 -1191 0
-280 -1214 0
-282 -1216 0
-283 -1218 0
-280 -1243 0
-282 -1244 0
-283 -1246 0
-281 -1250 0
-282 -1251 0
-283 -1253 0
-282 -1256 0
-283 -1259 0
-279 -1274 0
-280 -1275 0
-282 -1276 0
-283 -1278 0
-279 -1280 0
-280 -1281 0
-281 -1283 0
-283 -1285 0
-278 -1301 0
-279 -1302 0
-280 -1303 0
-282 -1304 0
-283 -1306 0
-281 -1309 0
-282 -1310 0
-283 -1313 0
-278 -1322 0
-280 -1323 0
-282 -1325 0
-283 -1327 0
-278 -1328 0
-280 -1329 0
-282 -1330 0
-283 -1333 0
-278 -1334 0
-280 -1335 0
-281 -1337 0
-282 -1338 0
-283 -1340 0
-279 -1348 0
-280 -1349 0
-281 -1351 0
-282 -1352 0
-283 -1353 0
-279 -1356 0
-280 -1357 0
-282 -1359 0
-283 -1362 0
-279 -1365 0
-280 -1366 0
-281 -1367 0
-283 -1369 0
-281 -1393 0
-282 -1394 0
-283 -1396 0
-280 -1398 0
-281 -1400 0
-283 -1403 0
-281 -1418 0
-282 -1419 0
-283 -1421 0
-280 -1423 0
-281 -1424 0
-282 -1425 0
-283 -1428 0
-280 -1430 0
-281 -1431 0
-282 -1432 0
-283 -1434 0
-279 -1442 0
-280 -1443 0
-282 -1445 0
-283 -1448 0
-281 -1459 0
-282 -1460 0
-283 -1463 0
-278 -1466 0
-281 -1467 0
-283 -1470 0
-278 -1473 0
-280 -1474 0
-281 -1476 0
-282 -1477 0
-283 -1479 0
-280 -1517 0
-281 -1519 0
-283 -1521 0
-282 -1524 0
-283 -1527 0
-281 -1531 0
-282 -1532 0
-283 -1534 0
-279 -1624 0
-280 -1625 0
-281 -1627 0
-283 -1629 0
-279 -1631 0
-281 -1633 0
-282 -1634 0
-283 -1635 0
-278 -1649 0
-279 -1650 0
-281 -1652 0
-283 -1653 0
-280 -1655 0
-281 -1656 0
-283 -1659 0
-278 -1670 0
-280 -1671 0
-281 -1672 0
-283 -1674 0
-278 -1675 0
-280 -1676 0
-281 -1678 0
-282 -1679 0
-283 -1681 0
-278 -1682 0
-281 -1684 0
-283 -1687 0
-279 -1696 0
-280 -1697 0
-281 -1698 0
-283 -1700 0
-279 -1703 0
-280 -1704 0
-281 -1705 0
-283 -1707 0
-279 -1710 0
-281 -1712 0
-282 -1713 0
-283 -1716 0
-280 -1738 0
-281 -1740 0
-283 -1741 0
-280 -1743 0
-281 -1744 0
-282 -1745 0
-283 -1747 0
-280 -1762 0
-281 -1763 0
-282 -1764 0
-283 -1767 0
-280 -1769 0
-283 -1773 0
-280 -1775 0
-281 -1777 0
-283 -1780 0
-278 -1794 0
-281 -1796 0
-283 -1799 0
-279 -1801 0
-281 -1803 0
-283 -1806 0
-279 -1808 0
-280 -1809 0
-282 -1810 0
-283 -1812 0
-280 -1827 0
-283 -1831 0
-282 -1834 0
-283 -1837 0
-281 -1848 0
-283 -1850 0
-280 -1853 0
-282 -1855 0
-283 -1857 0
-278 -1859 0
-280 -1860 0
-281 -1862 0
-283 -1864 0
-281 -1881 0
-283 -1884 0
-280 -1887 0
-282 -1889 0
-283 -1891 0
-279 -1925 0
-281 -1927 0
-283 -1930 0
-280 -1939 0
-281 -1941 0
-283 -1944 0
-280 -1945 0
-281 -1947 0
-282 -1948 0
-283 -1950 0
-286 -306 0
-288 -307 0
-290 -310 0
-287 -313 0
-289 -315 0
-290 -316 0
-285 -318 0
-287 -320 0
-288 -321 0
-290 -323 0
-288 -326 0
-289 -328 0
-290 -329 0
-285 -341 0
-288 -343 0
-290 -345 0
-285 -348 0
-286 -350 0
-287 -351 0
-288 -352 0
-289 -353 0
-290 -354 0
-286 -412 0
-288 -413 0
-290 -414 0
-287 -418 0
-289 -420 0
-290 -421 0
-288 -441 0
-289 -443 0
-290 -444 0
-286 -573 0
-287 -574 0
-290 -577 0
-285 -579 0
-286 -581 0
-287 -582 0
-288 -583 0
-289 -586 0
-290 -587 0
-285 -589 0
-286 -591 0
-290 -593 0
-287 -608 0
-289 -610 0
-290 -611 0
-286 -614 0
-288 -615 0
-290 -618 0
-286 -638 0
-287 -639 0
-290 -641 0
-287 -732 0
-288 -733 0
-290 -735 0
-285 -736 0
-286 -738 0
-288 -739 0
-290 -741 0
-287 -751 0
-288 -752 0
-290 -755 0
-286 -758 0
-289 -760 0
-290 -761 0
-284 -787 0
-289 -791 0
-290 -792 0
-284 -793 0
-286 -795 0
-287 -796 0
-288 -797 0
-290 -799 0
-284 -806 0
-285 -808 0
-286 -810 0
-287 -811 0
-289 -813 0
-290 -814 0
-284 -823 0
-285 -825 0
-286 -826 0
-288 -827 0
-289 -829 0
-290 -830 0
-284 -832 0
-285 -834 0
-286 -835 0
-287 -836 0
-290 -837 0
-285 -847 0
-289 -849 0
-290 -850 0
-285 -853 0
-286 -854 0
-287 -855 0
-288 -856 0
-289 -859 0
-290 -860 0
-285 -869 0
-287 -870 0
-289 -872 0
-290 -873 0
-285 -875 0
-286 -876 0
-287 -877 0
-288 -878 0
-290 -879 0
-284 -899 0
-289 -902 0
-290 -903 0
-284 -905 0
-286 -908 0
-287 -909 0
-288 -910 0
-290 -912 0
-284 -927 0
-286 -929 0
-290 -931 0
-288 -956 0
-289 -958 0
-290 -959 0
-287 -1003 0
-288 -1004 0
-290 -1006 0
-284 -1052 0
-287 -1055 0
-290 -1058 0
-284 -1076 0
-288 -1078 0
-290 -1081 0
-284 -1090 0
-285 -1091 0
-286 -1093 0
-287 -1094 0
-288 -1095 0
-290 -1098 0
-286 -1101 0
-289 -1104 0
-290 -1105 0
-285 -1107 0
-287 -1109 0
-289 -1111 0
-290 -1112 0
-285 -1114 0
-288 -1115 0
-289 -1118 0
-290 -1119 0
-286 -1121 0
-287 -1122 0
-290 -1125 0
-287 -1127 0
-288 -1128 0
-289 -1131 0
-290 -1132 0
-285 -1133 0
-287 -1135 0
-290 -1138 0
-285 -1147 0
-287 -1148 0
-288 -1149 0
-290 -1151 0
-285 -1153 0
-286 -1154 0
-287 -1155 0
-289 -1157 0
-290 -1158 0
-284 -1167 0
-287 -1169 0
-290 -1171 0
-284 -1180 0
-288 -1182 0
-290 -1184 0
-284 -1186 0
-286 -1188 0
-287 -1189 0
-289 -1190 0
-290 -1191 0
-286 -1201 0
-289 -1203 0
-290 -1204 0
-287 -1207 0
-288 -1208 0
-290 -1211 0
-286 -1231 0
-287 -1232 0
-290 -1234 0
-287 -1237 0
-288 -1238 0
-289 -1239 0
-290 -1240 0
-287 -1255 0
-289 -1258 0
-290 -1259 0
-284 -1286 0
-286 -1288 0
-287 -1289 0
-289 -1291 0
-290 -1292 0
-284 -1300 0
-285 -1301 0
-286 -1303 0
-289 -1305 0
-290 -1306 0
-287 -1308 0
-288 -1309 0
-289 -1312 0
-290 -1313 0
-285 -1314 0
-286 -1316 0
-288 -1317 0
-289 -1319 0
-290 -1320 0
-285 -1322 0
-286 -1323 0
-287 -1324 0
-289 -1326 0
-290 -1327 0
-285 -1328 0
-286 -1329 0
-289 -1332 0
-290 -1333 0
-285 -1334 0
-286 -1335 0
-287 -1336 0
-288 -1337 0
-290 -1340 0
-284 -1341 0
-286 -1343 0
-288 -1344 0
-289 -1345 0
-290 -1346 0
-284 -1355 0
-286 -1357 0
-287 -1358 0
-289 -1361 0
-290 -1362 0
-284 -1364 0
-286 -1366 0
-288 -1367 0
-290 -1369 0
-287 -1379 0
-288 -1380 0
-289 -1381 0
-290 -1382 0
-286 -1385 0
-288 -1386 0
-289 -1388 0
-290 -1389 0
-286 -1398 0
-287 -1399 0
-288 -1400 0
-289 -1402 0
-290 -1403 0
-288 -1405 0
-289 -1408 0
-290 -1409 0
-286 -1411 0
-287 -1412 0
-288 -1413 0
-290 -1415 0
-286 -1430 0
-288 -1431 0
-290 -1434 0
-284 -1464 0
-285 -1466 0
-288 -1467 0
-289 -1469 0
-290 -1470 0
-284 -1471 0
-285 -1473 0
-286 -1474 0
-287 -1475 0
-288 -1476 0
-290 -1479 0
-285 -1481 0
-286 -1482 0
-288 -1483 0
-289 -1485 0
-290 -1486 0
-285 -1488 0
-287 -1489 0
-289 -1491 0
-290 -1492 0
-284 -1499 0
-286 -1502 0
-288 -1503 0
-289 -1506 0
-290 -1507 0
-284 -1508 0
-287 -1511 0
-290 -1514 0
-284 -1529 0
-288 -1531 0
-290 -1534 0
-286 -1557 0
-289 -1560 0
-290 -1561 0
-286 -1592 0
-287 -1593 0
-290 -1596 0
-284 -1636 0
-286 -1638 0
-288 -1639 0
-290 -1641 0
-284 -1648 0
-285 -1649 0
-287 -1651 0
-288 -1652 0
-290 -1653 0
-286 -1655 0
-288 -1656 0
-289 -1658 0
-290 -1659 0
-285 -1660 0
-286 -1662 0
-287 -1663 0
-288 -1664 0
-289 -1667 0
-290 -1668 0
-285 -1670 0
-286 -1671 0
-288 -1672 0
-289 -1673 0
-290 -1674 0
-285 -1675 0
-286 -1676 0
-287 -1677 0
-288 -1678 0
-290 -1681 0
-285 -1682 0
-287 -1683 0
-288 -1684 0
-289 -1686 0
-290 -1687 0
-284 -1688 0
-286 -1690 0
-287 -1691 0
-288 -1692 0
-290 -1694 0
-284 -1702 0
-286 -1704 0
-288 -1705 0
-290 -1707 0
-284 -1709 0
-287 -1711 0
-288 -1712 0
-289 -1715 0
-290 -1716 0
-286 -1725 0
-288 -1726 0
-289 -1728 0
-290 -1729 0
-286 -1732 0
-287 -1733 0
-290 -1735 0
-286 -1743 0
-288 -1744 0
-290 -1747 0
-286 -1749 0
-287 -1750 0
-288 -1751 0
-290 -1753 0
-286 -1755 0
-287 -1756 0
-289 -1759 0
-290 -1760 0
-286 -1775 0
-287 -1776 0
-288 -1777 0
-289 -1779 0
-290 -1780 0
-285 -1794 0
-287 -1795 0
-288 -1796 0
-289 -1798 0
-290 -1799 0
-284 -1800 0
-287 -1802 0
-288 -1803 0
-289 -1805 0
-290 -1806 0
-284 -1807 0
-286 -1809 0
-290 -1812 0
-286 -1814 0
-287 -1815 0
-289 -1818 0
-290 -1819 0
-288 -1821 0
-289 -1824 0
-290 -1825 0
-287 -1833 0
-289 -1836 0
-290 -1837 0
-284 -1858 0
-285 -1859 0
-286 -1860 0
-287 -1861 0
-288 -1862 0
-289 -1863 0
-290 -1864 0
-284 -1865 0
-285 -1866 0
-287 -1867 0
-289 -1870 0
-290 -1871 0
-284 -1872 0
-287 -1874 0
-289 -1876 0
-290 -1877 0
-284 -1880 0
-288 -1881 0
-289 -1883 0
-290 -1884 0
-284 -1886 0
-286 -1887 0
-287 -1888 0
-290 -1891 0
-284 -1900 0
-286 -1901 0
-289 -1903 0
-290 -1904 0
-284 -1906 0
-287 -1907 0
-288 -1908 0
-289 -1910 0
-290 -1911 0
-284 -1912 0
-286 -1913 0
-287 -1914 0
-289 -1916 0
-290 -1917 0
-284 -1918 0
-287 -1919 0
-288 -1920 0
-290 -1923 0
-293 -306 0
-295 -309 0
-296 -310 0
-292 -318 0
-294 -320 0
-295 -322 0
-296 -323 0
-291 -324 0
-296 -329 0
-292 -332 0
-295 -336 0
-296 -338 0
-291 -346 0
-292 -348 0
-293 -350 0
-294 -351 0
-296 -354 0
-292 -356 0
-293 -358 0
-295 -359 0
-296 -360 0
-292 -384 0
-294 -385 0
-296 -388 0
-293 -405 0
-295 -406 0
-296 -408 0
-291 -415 0
-294 -418 0
-296 -421 0
-291 -432 0
-296 -437 0
-291 -459 0
-293 -462 0
-295 -465 0
-296 -467 0
-293 -511 0
-294 -512 0
-296 -515 0
-293 -573 0
-294 -574 0
-295 -576 0
-296 -577 0
-292 -589 0
-293 -591 0
-295 -592 0
-296 -593 0
-293 -614 0
-295 -617 0
-296 -618 0
-293 -629 0
-294 -630 0
-295 -632 0
-296 -634 0
-294 -658 0
-296 -661 0
-294 -732 0
-296 -735 0
-292 -736 0
-293 -738 0
-296 -741 0
-294 -745 0
-296 -748 0
-291 -756 0
-293 -758 0
-295 -759 0
-296 -761 0
-293 -763 0
-294 -764 0
-295 -766 0
-296 -767 0
-295 -784 0
-296 -786 0
-295 -790 0
-296 -792 0
-291 -800 0
-293 -802 0
-294 -803 0
-296 -805 0
-292 -808 0
-293 -810 0
-294 -811 0
-295 -812 0
-296 -814 0
-292 -817 0
-293 -818 0
-295 -820 0
-296 -821 0
-291 -831 0
-292 -834 0
-293 -835 0
-294 -836 0
-296 -837 0
-292 -840 0
-295 -842 0
-296 -844 0
-291 -851 0
-292 -853 0
-293 -854 0
-294 -855 0
-295 -858 0
-296 -860 0
-292 -875 0
-293 -876 0
-294 -877 0
-296 -879 0
-295 -896 0
-296 -897 0
-291 -904 0
-293 -908 0
-294 -909 0
-296 -912 0
-291 -919 0
-293 -922 0
-296 -925 0
-291 -947 0
-295 -952 0
-296 -953 0
-294 -997 0
-296 -1000 0
-291 -1059 0
-294 -1062 0
-295 -1065 0
-296 -1067 0
-291 -1075 0
-295 -1080 0
-296 -1081 0
-291 -1082 0
-293 -1084 0
-294 -1085 0
-296 -1088 0
-291 -1089 0
-292 -1091 0
-293 -1093 0
-294 -1094 0
-295 -1097 0
-296 -1098 0
-291 -1099 0
-293 -1101 0
-295 -1103 0
-296 -1105 0
-291 -1106 0
-292 -1107 0
-294 -1109 0
-295 -1110 0
-296 -1112 0
-293 -1121 0
-294 -1122 0
-295 -1124 0
-296 -1125 0
-292 -1133 0
-294 -1135 0
-295 -1137 0
-296 -1138 0
-292 -1140 0
-294 -1141 0
-295 -1143 0
-296 -1145 0
-291 -1152 0
-292 -1153 0
-293 -1154 0
-294 -1155 0
-296 -1158 0
-292 -1159 0
-293 -1160 0
-294 -1161 0
-295 -1164 0
-296 -1165 0
-291 -1166 0
-294 -1169 0
-295 -1170 0
-296 -1171 0
-291 -1172 0
-295 -1176 0
-296 -1178 0
-291 -1185 0
-293 -1188 0
-294 -1189 0
-296 -1191 0
-291 -1192 0
-293 -1195 0
-295 -1197 0
-296 -1198 0
-291 -1205 0
-294 -1207 0
-295 -1210 0
-296 -1211 0
-293 -1222 0
-294 -1223 0
-295 -1226 0
-296 -1228 0
-291 -1235 0
-294 -1237 0
-296 -1240 0
-291 -1247 0
-294 -1249 0
-296 -1253 0
-291 -1266 0
-293 -1267 0
-294 -1268 0
-295 -1270 0
-296 -1272 0
-293 -1275 0
-296 -1278 0
-293 -1288 0
-294 -1289 0
-296 -1292 0
-291 -1293 0
-293 -1295 0
-295 -1297 0
-296 -1299 0
-292 -1301 0
-293 -1303 0
-296 -1306 0
-294 -1308 0
-295 -1311 0
-296 -1313 0
-292 -1314 0
-293 -1316 0
-295 -1318 0
-296 -1320 0
-292 -1334 0
-293 -1335 0
-294 -1336 0
-295 -1339 0
-296 -1340 0
-293 -1343 0
-296 -1346 0
-293 -1349 0
-294 -1350 0
-296 -1353 0
-291 -1363 0
-293 -1366 0
-295 -1368 0
-296 -1369 0
-294 -1372 0
-295 -1374 0
-296 -1376 0
-291 -1383 0
-293 -1385 0
-296 -1389 0
-293 -1411 0
-294 -1412 0
-295 -1414 0
-296 -1415 0
-293 -1423 0
-295 -1426 0
-296 -1428 0
-291 -1449 0
-293 -1451 0
-296 -1455 0
-294 -1458 0
-295 -1461 0
-296 -1463 0
-292 -1473 0
-293 -1474 0
-294 -1475 0
-295 -1478 0
-296 -1479 0
-292 -1488 0
-294 -1489 0
-296 -1492 0
-294 -1511 0
-295 -1513 0
-296 -1514 0
-295 -1525 0
-296 -1527 0
-293 -1551 0
-296 -1554 0
-293 -1625 0
-294 -1626 0
-296 -1629 0
-293 -1638 0
-296 -1641 0
-291 -1642 0
-294 -1644 0
-295 -1646 0
-296 -1647 0
-292 -1649 0
-294 -1651 0
-296 -1653 0
-293 -1655 0
-295 -1657 0
-296 -1659 0
-292 -1660 0
-293 -1662 0
-294 -1663 0
-295 -1666 0
-296 -1668 0
-292 -1682 0
-294 -1683 0
-295 -1685 0
-296 -1687 0
-293 -1690 0
-294 -1691 0
-296 -1694 0
-293 -1697 0
-296 -1700 0
-291 -1708 0
-294 -1711 0
-295 -1714 0
-296 -1716 0
-293 -1719 0
-295 -1721 0
-296 -1722 0
-291 -1730 0
-293 -1732 0
-294 -1733 0
-296 -1735 0
-293 -1755 0
-294 -1756 0
-295 -1758 0
-296 -1760 0
-293 -1769 0
-294 -1770 0
-295 -1771 0
-296 -1773 0
-293 -1782 0
-294 -1783 0
-296 -1787 0
-293 -1789 0
-295 -1791 0
-296 -1793 0
-293 -1809 0
-295 -1811 0
-296 -1812 0
-295 -1823 0
-296 -1825 0
-295 -1842 0
-296 -1844 0
-294 -1847 0
-296 -1850 0
-292 -1859 0
-293 -1860 0
-294 -1861 0
-296 -1864 0
-292 -1866 0
-294 -1867 0
-295 -1869 0
-296 -1871 0
-294 -1874 0
-296 -1877 0
-291 -1885 0
-293 -1887 0
-294 -1888 0
-295 -1890 0
-296 -1891 0
-293 -1893 0
-295 -1896 0
-296 -1898 0
-291 -1905 0
-294 -1907 0
-296 -1911 0
-294 -1919 0
-295 -1922 0
-296 -1923 0
-291 -1931 0
-294 -1933 0
-296 -1937 0
-291 -1938 0
-293 -1939 0
-294 -1940 0
-295 -1942 0
-296 -1944 0
-293 -1945 0
-294 -1946 0
-296 -1950 0
-293 -1953 0
-295 -1956 0
-296 -1958 0
-301 -314 0
-302 -315 0
-303 -316 0
-298 -318 0
-299 -321 0
-301 -322 0
-303 -323 0
-297 -324 0
-299 -326 0
-300 -327 0
-302 -328 0
-303 -329 0
-298 -332 0
-299 -334 0
-300 -335 0
-301 -336 0
-302 -337 0
-303 -338 0
-297 -339 0
-298 -341 0
-299 -343 0
-300 -344 0
-303 -345 0
-298 -356 0
-301 -359 0
-303 -360 0
-297 -361 0
-298 -363 0
-299 -366 0
-300 -367 0
-301 -368 0
-303 -369 0
-298 -377 0
-299 -379 0
-300 -380 0
-302 -381 0
-303 -382 0
-301 -406 0
-302 -407 0
-303 -408 0
-297 -409 0
-299 -413 0
-303 -414 0
-297 -422 0
-299 -428 0
-300 -429 0
-302 -430 0
-303 -431 0
-297 -452 0
-301 -457 0
-303 -458 0
-300 -506 0
-302 -507 0
-303 -508 0
-300 -575 0
-301 -576 0
-303 -577 0
-298 -579 0
-299 -583 0
-300 -584 0
-301 -585 0
-302 -586 0
-303 -587 0
-298 -595 0
-300 -597 0
-302 -598 0
-303 -599 0
-301 -609 0
-302 -610 0
-303 -611 0
-300 -623 0
-301 -624 0
-303 -625 0
-299 -653 0
-302 -654 0
-303 -655 0
-298 -736 0
-299 -739 0
-300 -740 0
-303 -741 0
-300 -746 0
-302 -747 0
-303 -748 0
-297 -749 0
-299 -752 0
-300 -753 0
-301 -754 0
-303 -755 0
-299 -765 0
-301 -766 0
-303 -767 0
-297 -768 0
-300 -772 0
-303 -773 0
-300 -777 0
-301 -778 0
-302 -779 0
-303 -780 0
-299 -797 0
-301 -798 0
-303 -799 0
-297 -800 0
-302 -804 0
-303 -805 0
-298 -808 0
-301 -812 0
-302 -813 0
-303 -814 0
-298 -817 0
-300 -819 0
-301 -820 0
-303 -821 0
-297 -822 0
-298 -825 0
-299 -827 0
-300 -828 0
-302 -829 0
-303 -830 0
-298 -840 0
-299 -841 0
-301 -842 0
-302 -843 0
-303 -844 0
-297 -845 0
-298 -847 0
-301 -848 0
-302 -849 0
-303 -850 0
-298 -869 0
-300 -871 0
-302 -872 0
-303 -873 0
-299 -895 0
-301 -896 0
-303 -897 0
-297 -898 0
-302 -902 0
-303 -903 0
-297 -913 0
-300 -917 0
-303 -918 0
-297 -938 0
-299 -943 0
-301 -944 0
-302 -945 0
-303 -946 0
-299 -992 0
-300 -993 0
-303 -994 0
-297 -1068 0
-301 -1073 0
-303 -1074 0
-297 -1082 0
-299 -1086 0
-300 -1087 0
-303 -1088 0
-297 -1089 0
-298 -1091 0
-299 -1095 0
-300 -1096 0
-301 -1097 0
-303 -1098 0
-297 -1106 0
-298 -1107 0
-301 -1110 0
-302 -1111 0
-303 -1112 0
-297 -1113 0
-298 -1114 0
-299 -1115 0
-300 -1116 0
-301 -1117 0
-302 -1118 0
-303 -1119 0
-299 -1128 0
-300 -1129 0
-301 -1130 0
-302 -1131 0
-303 -1132 0
-298 -1133 0
-300 -1136 0
-301 -1137 0
-303 -1138 0
-298 -1140 0
-300 -1142 0
-301 -1143 0
-302 -1144 0
-303 -1145 0
-297 -1146 0
-298 -1147 0
-299 -1149 0
-300 -1150 0
-303 -1151 0
-298 -1159 0
-299 -1162 0
-300 -1163 0
-301 -1164 0
-303 -1165 0
-297 -1166 0
-301 -1170 0
-303 -1171 0
-297 -1172 0
-300 -1175 0
-301 -1176 0
-302 -1177 0
-303 -1178 0
-297 -1179 0
-299 -1182 0
-300 -1183 0
-303 -1184 0
-297 -1192 0
-299 -1196 0
-301 -1197 0
-303 -1198 0
-297 -1199 0
-301 -1202 0
-302 -1203 0
-303 -1204 0
-297 -1212 0
-300 -1216 0
-301 -1217 0
-303 -1218 0
-299 -1224 0
-300 -1225 0
-301 -1226 0
-302 -1227 0
-303 -1228 0
-297 -1229 0
-300 -1233 0
-303 -1234 0
-297 -1241 0
-300 -1244 0
-302 -1245 0
-303 -1246 0
-297 -1260 0
-299 -1262 0
-300 -1263 0
-301 -1264 0
-303 -1265 0
-299 -1283 0
-302 -1284 0
-303 -1285 0
-297 -1293 0
-300 -1296 0
-301 -1297 0
-302 -1298 0
-303 -1299 0
-298 -1301 0
-300 -1304 0
-302 -1305 0
-303 -1306 0
-298 -1314 0
-299 -1317 0
-301 -1318 0
-302 -1319 0
-303 -1320 0
-297 -1321 0
-298 -1322 0
-300 -1325 0
-302 -1326 0
-303 -1327 0
-298 -1328 0
-300 -1330 0
-301 -1331 0
-302 -1332 0
-303 -1333 0
-299 -1344 0
-302 -1345 0
-303 -1346 0
-299 -1351 0
-300 -1352 0
-303 -1353 0
-297 -1354 0
-300 -1359 0
-301 -1360 0
-302 -1361 0
-303 -1362 0
-299 -1373 0
-301 -1374 0
-302 -1375 0
-303 -1376 0
-297 -1377 0
-299 -1380 0
-302 -1381 0
-303 -1382 0
-297 -1390 0
-299 -1393 0
-300 -1394 0
-302 -1395 0
-303 -1396 0
-299 -1405 0
-300 -1406 0
-301 -1407 0
-302 -1408 0
-303 -1409 0
-299 -1418 0
-300 -1419 0
-301 -1420 0
-303 -1421 0
-299 -1437 0
-300 -1438 0
-302 -1439 0
-303 -1440 0
-299 -1459 0
-300 -1460 0
-301 -1461 0
-302 -1462 0
-303 -1463 0
-298 -1466 0
-299 -1467 0
-301 -1468 0
-302 -1469 0
-303 -1470 0
-298 -1481 0
-299 -1483 0
-300 -1484 0
-302 -1485 0
-303 -1486 0
-299 -1503 0
-300 -1504 0
-301 -1505 0
-302 -1506 0
-303 -1507 0
-299 -1519 0
-301 -1520 0
-303 -1521 0
-300 -1546 0
-302 -1547 0
-303 -1548 0
-299 -1633 0
-300 -1634 0
-303 -1635 0
-297 -1642 0
-299 -1645 0
-301 -1646 0
-303 -1647 0
-298 -1649 0
-299 -1652 0
-303 -1653 0
-298 -1660 0
-299 -1664 0
-300 -1665 0
-301 -1666 0
-302 -1667 0
-303 -1668 0
-297 -1669 0
-298 -1670 0
-299 -1672 0
-302 -1673 0
-303 -1674 0
-298 -1675 0
-299 -1678 0
-300 -1679 0
-301 -1680 0
-303 -1681 0
-299 -1692 0
-300 -1693 0
-303 -1694 0
-299 -1698 0
-302 -1699 0
-303 -1700 0
-297 -1701 0
-299 -1705 0
-301 -1706 0
-303 -1707 0
-300 -1720 0
-301 -1721 0
-303 -1722 0
-297 -1723 0
-299 -1726 0
-300 -1727 0
-302 -1728 0
-303 -1729 0
-297 -1736 0
-299 -1740 0
-303 -1741 0
-299 -1751 0
-301 -1752 0
-303 -1753 0
-299 -1763 0
-300 -1764 0
-301 -1765 0
-302 -1766 0
-303 -1767 0
-299 -1790 0
-301 -1791 0
-302 -1792 0
-303 -1793 0
-298 -1794 0
-299 -1796 0
-301 -1797 0
-302 -1798 0
-303 -1799 0
-299 -1803 0
-301 -1804 0
-302 -1805 0
-303 -1806 0
-300 -1816 0
-301 -1817 0
-302 -1818 0
-303 -1819 0
-301 -1829 0
-302 -1830 0
-303 -1831 0
-300 -1855 0
-302 -1856 0
-303 -1857 0
-298 -1859 0
-299 -1862 0
-302 -1863 0
-303 -1864 0
-298 -1866 0
-300 -1868 0
-301 -1869 0
-302 -1870 0
-303 -1871 0
-300 -1875 0
-302 -1876 0
-303 -1877 0
-297 -1879 0
-299 -1881 0
-301 -1882 0
-302 -1883 0
-303 -1884 0
-299 -1894 0
-300 -1895 0
-301 -1896 0
-302 -1897 0
-303 -1898 0
-297 -1899 0
-300 -1902 0
-302 -1903 0
-303 -1904 0
-301 -1915 0
-302 -1916 0
-303 -1917 0
-305 -499 0
-308 -500 0
-310 -502 0
-305 -547 0
-309 -549 0
-310 -551 0
-306 -568 0
-307 -569 0
-310 -571 0
-304 -588 0
-305 -590 0
-306 -591 0
-309 -592 0
-310 -593 0
-305 -601 0
-306 -602 0
-310 -605 0
-304 -612 0
-305 -613 0
-306 -614 0
-307 -615 0
-308 -616 0
-309 -617 0
-310 -618 0
-304 -627 0
-305 -628 0
-306 -629 0
-307 -631 0
-309 -632 0
-310 -634 0
-304 -636 0
-305 -637 0
-306 -638 0
-309 -640 0
-310 -641 0
-305 -644 0
-306 -645 0
-309 -647 0
-310 -648 0
-304 -656 0
-305 -657 0
-307 -659 0
-308 -660 0
-310 -661 0
-305 -663 0
-307 -665 0
-308 -666 0
-310 -668 0
-304 -670 0
-307 -672 0
-309 -673 0
-310 -674 0
-305 -677 0
-307 -679 0
-310 -680 0
-305 -683 0
-309 -685 0
-310 -687 0
-304 -697 0
-307 -699 0
-308 -700 0
-309 -701 0
-310 -703 0
-305 -705 0
-308 -707 0
-309 -708 0
-310 -709 0
-306 -718 0
-307 -720 0
-308 -721 0
-309 -722 0
-310 -723 0
-305 -757 0
-306 -758 0
-309 -759 0
-310 -761 0
-305 -781 0
-307 -782 0
-308 -783 0
-309 -784 0
-310 -786 0
-304 -833 0
-306 -835 0
-310 -837 0
-304 -852 0
-306 -854 0
-307 -856 0
-308 -857 0
-309 -858 0
-310 -860 0
-306 -864 0
-309 -865 0
-310 -867 0
-304 -874 0
-306 -876 0
-307 -878 0
-310 -879 0
-306 -882 0
-308 -884 0
-310 -885 0
-307 -888 0
-309 -889 0
-310 -891 0
-304 -906 0
-305 -907 0
-306 -908 0
-307 -910 0
-308 -911 0
-310 -912 0
-304 -921 0
-306 -922 0
-307 -923 0
-310 -925 0
-304 -928 0
-306 -929 0
-309 -930 0
-310 -931 0
-305 -935 0
-306 -936 0
-310 -937 0
-304 -949 0
-307 -950 0
-308 -951 0
-309 -952 0
-310 -953 0
-304 -955 0
-307 -956 0
-308 -957 0
-310 -959 0
-305 -963 0
-307 -964 0
-308 -965 0
-309 -966 0
-310 -968 0
-307 -973 0
-309 -974 0
-310 -975 0
-310 -981 0
-304 -996 0
-307 -998 0
-310 -1000 0
-304 -1002 0
-307 -1004 0
-309 -1005 0
-310 -1006 0
-305 -1009 0
-307 -1011 0
-310 -1012 0
-307 -1015 0
-308 -1016 0
-310 -1018 0
-308 -1022 0
-309 -1023 0
-310 -1024 0
-306 -1036 0
-307 -1037 0
-309 -1038 0
-310 -1039 0
-306 -1042 0
-307 -1043 0
-310 -1045 0
-306 -1154 0
-308 -1156 0
-310 -1158 0
-305 -1187 0
-306 -1188 0
-310 -1191 0
-305 -1206 0
-307 -1208 0
-308 -1209 0
-309 -1210 0
-310 -1211 0
-305 -1236 0
-307 -1238 0
-310 -1240 0
-307 -1250 0
-308 -1251 0
-310 -1253 0
-308 -1256 0
-309 -1257 0
-310 -1259 0
-306 -1267 0
-307 -1269 0
-309 -1270 0
-310 -1272 0
-304 -1279 0
-305 -1280 0
-306 -1281 0
-307 -1283 0
-310 -1285 0
-304 -1294 0
-306 -1295 0
-308 -1296 0
-309 -1297 0
-310 -1299 0
-305 -1302 0
-306 -1303 0
-308 -1304 0
-310 -1306 0
-305 -1315 0
-306 -1316 0
-307 -1317 0
-309 -1318 0
-310 -1320 0
-306 -1323 0
-308 -1325 0
-310 -1327 0
-306 -1329 0
-308 -1330 0
-309 -1331 0
-310 -1333 0
-305 -1342 0
-306 -1343 0
-307 -1344 0
-310 -1346 0
-305 -1348 0
-306 -1349 0
-307 -1351 0
-308 -1352 0
-310 -1353 0
-305 -1356 0
-306 -1357 0
-308 -1359 0
-309 -1360 0
-310 -1362 0
-305 -1371 0
-307 -1373 0
-309 -1374 0
-310 -1376 0
-305 -1378 0
-307 -1380 0
-310 -1382 0
-307 -1393 0
-308 -1394 0
-310 -1396 0
-305 -1404 0
-307 -1405 0
-308 -1406 0
-309 -1407 0
-310 -1409 0
-307 -1418 0
-308 -1419 0
-309 -1420 0
-310 -1421 0
-306 -1435 0
-307 -1437 0
-308 -1438 0
-310 -1440 0
-304 -1472 0
-306 -1474 0
-307 -1476 0
-308 -1477 0
-309 -1478 0
-310 -1479 0
-304 -1487 0
-308 -1490 0
-310 -1492 0
-307 -1495 0
-308 -1496 0
-310 -1498 0
-304 -1509 0
-305 -1510 0
-308 -1512 0
-309 -1513 0
-310 -1514 0
-304 -1523 0
-308 -1524 0
-309 -1525 0
-310 -1527 0
-304 -1530 0
-307 -1531 0
-308 -1532 0
-309 -1533 0
-310 -1534 0
-305 -1537 0
-307 -1538 0
-308 -1539 0
-309 -1540 0
-310 -1541 0
-304 -1550 0
-306 -1551 0
-307 -1552 0
-308 -1553 0
-310 -1554 0
-304 -1556 0
-306 -1557 0
-308 -1558 0
-309 -1559 0
-310 -1561 0
-305 -1564 0
-306 -1565 0
-308 -1566 0
-310 -1568 0
-306 -1571 0
-308 -1573 0
-310 -1574 0
-306 -1578 0
-307 -1580 0
-308 -1581 0
-309 -1582 0
-310 -1584 0
-304 -1591 0
-306 -1592 0
-308 -1594 0
-309 -1595 0
-310 -1596 0
-306 -1599 0
-307 -1600 0
-309 -1601 0
-310 -1602 0
-306 -1611 0
-308 -1612 0
-309 -1613 0
-310 -1615 0
-307 -1684 0
-309 -1685 0
-310 -1687 0
-305 -1710 0
-307 -1712 0
-308 -1713 0
-309 -1714 0
-310 -1716 0
-305 -1731 0
-306 -1732 0
-308 -1734 0
-310 -1735 0
-306 -1743 0
-307 -1744 0
-308 -1745 0
-309 -1746 0
-310 -1747 0
-305 -1754 0
-306 -1755 0
-308 -1757 0
-309 -1758 0
-310 -1760 0
-306 -1769 0
-309 -1771 0
-310 -1773 0
-306 -1775 0
-307 -1777 0
-309 -1778 0
-310 -1780 0
-306 -1782 0
-307 -1784 0
-308 -1785 0
-310 -1787 0
-304 -1788 0
-306 -1789 0
-307 -1790 0
-309 -1791 0
-310 -1793 0
-307 -1796 0
-309 -1797 0
-310 -1799 0
-305 -1801 0
-307 -1803 0
-309 -1804 0
-310 -1806 0
-305 -1813 0
-306 -1814 0
-308 -1816 0
-309 -1817 0
-310 -1819 0
-306 -1827 0
-309 -1829 0
-310 -1831 0
-304 -1852 0
-306 -1853 0
-308 -1855 0
-310 -1857 0
-306 -1860 0
-307 -1862 0
-310 -1864 0
-308 -1868 0
-309 -1869 0
-310 -1871 0
-305 -1873 0
-308 -1875 0
-310 -1877 0
-307 -1881 0
-309 -1882 0
-310 -1884 0
-306 -1893 0
-307 -1894 0
-308 -1895 0
-309 -1896 0
-310 -1898 0
-306 -1901 0
-308 -1902 0
-310 -1904 0
-306 -1913 0
-309 -1915 0
-310 -1917 0
-306 -1953 0
-307 -1954 0
-308 -1955 0
-309 -1956 0
-310 -1958 0
-312 -492 0
-313 -494 0
-316 -496 0
-312 -538 0
-314 -542 0
-315 -543 0
-316 -544 0
-313 -562 0
-315 -564 0
-316 -565 0
-311 -578 0
-312 -580 0
-313 -582 0
-314 -585 0
-315 -586 0
-316 -587 0
-311 -594 0
-313 -596 0
-315 -598 0
-316 -599 0
-312 -601 0
-313 -603 0
-315 -604 0
-316 -605 0
-311 -606 0
-312 -607 0
-313 -608 0
-314 -609 0
-315 -610 0
-316 -611 0
-311 -620 0
-312 -621 0
-313 -622 0
-314 -624 0
-316 -625 0
-311 -636 0
-312 -637 0
-313 -639 0
-314 -640 0
-316 -641 0
-312 -644 0
-313 -646 0
-314 -647 0
-316 -648 0
-311 -649 0
-312 -650 0
-313 -652 0
-315 -654 0
-316 -655 0
-312 -663 0
-313 -664 0
-315 -667 0
-316 -668 0
-311 -670 0
-313 -671 0
-314 -673 0
-316 -674 0
-312 -677 0
-313 -678 0
-316 -680 0
-312 -690 0
-313 -692 0
-314 -695 0
-316 -696 0
-311 -697 0
-313 -698 0
-314 -701 0
-315 -702 0
-316 -703 0
-312 -711 0
-314 -714 0
-315 -715 0
-316 -716 0
-313 -725 0
-314 -727 0
-315 -728 0
-316 -729 0
-312 -750 0
-313 -751 0
-314 -754 0
-316 -755 0
-312 -769 0
-313 -771 0
-316 -773 0
-312 -774 0
-313 -776 0
-314 -778 0
-315 -779 0
-316 -780 0
-311 -824 0
-315 -829 0
-316 -830 0
-311 -846 0
-314 -848 0
-315 -849 0
-316 -850 0
-314 -865 0
-315 -866 0
-316 -867 0
-311 -868 0
-313 -870 0
-315 -872 0
-316 -873 0
-313 -883 0
-316 -885 0
-313 -887 0
-314 -889 0
-315 -890 0
-316 -891 0
-311 -900 0
-312 -901 0
-315 -902 0
-316 -903 0
-311 -915 0
-313 -916 0
-316 -918 0
-311 -928 0
-314 -930 0
-316 -931 0
-312 -935 0
-316 -937 0
-311 -940 0
-313 -942 0
-314 -944 0
-315 -945 0
-316 -946 0
-311 -955 0
-315 -958 0
-316 -959 0
-312 -963 0
-314 -966 0
-315 -967 0
-316 -968 0
-313 -972 0
-314 -974 0
-316 -975 0
-316 -988 0
-311 -990 0
-316 -994 0
-311 -1002 0
-313 -1003 0
-314 -1005 0
-316 -1006 0
-312 -1009 0
-313 -1010 0
-316 -1012 0
-315 -1017 0
-316 -1018 0
-313 -1029 0
-314 -1031 0
-315 -1032 0
-316 -1033 0
-314 -1038 0
-316 -1039 0
-313 -1048 0
-316 -1051 0
-314 -1117 0
-315 -1118 0
-316 -1119 0
-313 -1148 0
-316 -1151 0
-312 -1181 0
-316 -1184 0
-312 -1200 0
-314 -1202 0
-315 -1203 0
-316 -1204 0
-313 -1215 0
-314 -1217 0
-316 -1218 0
-312 -1230 0
-313 -1232 0
-316 -1234 0
-315 -1245 0
-316 -1246 0
-313 -1255 0
-314 -1257 0
-315 -1258 0
-316 -1259 0
-314 -1264 0
-316 -1265 0
-311 -1273 0
-312 -1274 0
-315 -1277 0
-316 -1278 0
-311 -1287 0
-313 -1289 0
-315 -1291 0
-316 -1292 0
-311 -1294 0
-314 -1297 0
-315 -1298 0
-316 -1299 0
-312 -1302 0
-315 -1305 0
-316 -1306 0
-311 -1307 0
-313 -1308 0
-314 -1311 0
-315 -1312 0
-316 -1313 0
-312 -1315 0
-314 -1318 0
-315 -1319 0
-316 -1320 0
-313 -1336 0
-314 -1339 0
-316 -1340 0
-312 -1342 0
-315 -1345 0
-316 -1346 0
-312 -1348 0
-313 -1350 0
-316 -1353 0
-312 -1365 0
-314 -1368 0
-316 -1369 0
-312 -1371 0
-313 -1372 0
-314 -1374 0
-315 -1375 0
-316 -1376 0
-312 -1384 0
-315 -1388 0
-316 -1389 0
-312 -1410 0
-313 -1412 0
-314 -1414 0
-316 -1415 0
-314 -1426 0
-315 -1427 0
-316 -1428 0
-312 -1450 0
-315 -1454 0
-316 -1455 0
-311 -1465 0
-314 -1468 0
-315 -1469 0
-316 -1470 0
-311 -1480 0
-315 -1485 0
-316 -1486 0
-315 -1497 0
-316 -1498 0
-311 -1500 0
-312 -1501 0
-314 -1505 0
-315 -1506 0
-316 -1507 0
-311 -1516 0
-313 -1518 0
-314 -1520 0
-316 -1521 0
-311 -1530 0
-314 -1533 0
-316 -1534 0
-312 -1537 0
-314 -1540 0
-316 -1541 0
-311 -1543 0
-313 -1545 0
-315 -1547 0
-316 -1548 0
-311 -1556 0
-314 -1559 0
-315 -1560 0
-316 -1561 0
-312 -1564 0
-315 -1567 0
-316 -1568 0
-313 -1572 0
-316 -1574 0
-314 -1589 0
-316 -1590 0
-311 -1591 0
-313 -1593 0
-314 -1595 0
-316 -1596 0
-313 -1605 0
-314 -1607 0
-315 -1608 0
-316 -1609 0
-313 -1618 0
-314 -1621 0
-316 -1622 0
-315 -1673 0
-316 -1674 0
-313 -1677 0
-314 -1680 0
-316 -1681 0
-312 -1703 0
-314 -1706 0
-316 -1707 0
-312 -1724 0
-315 -1728 0
-316 -1729 0
-313 -1739 0
-316 -1741 0
-314 -1746 0
-316 -1747 0
-312 -1748 0
-313 -1750 0
-314 -1752 0
-316 -1753 0
-314 -1765 0
-315 -1766 0
-316 -1767 0
-313 -1776 0
-314 -1778 0
-315 -1779 0
-316 -1780 0
-311 -1788 0
-314 -1791 0
-315 -1792 0
-316 -1793 0
-312 -1808 0
-314 -1811 0
-316 -1812 0
-312 -1820 0
-314 -1823 0
-315 -1824 0
-316 -1825 0
-312 -1839 0
-314 -1842 0
-315 -1843 0
-316 -1844 0
-311 -1846 0
-313 -1847 0
-315 -1849 0
-316 -1850 0
-313 -1861 0
-315 -1863 0
-316 -1864 0
-313 -1867 0
-314 -1869 0
-315 -1870 0
-316 -1871 0
-312 -1873 0
-313 -1874 0
-315 -1876 0
-316 -1877 0
-313 -1888 0
-314 -1890 0
-316 -1891 0
-314 -1896 0
-315 -1897 0
-316 -1898 0
-313 -1907 0
-315 -1910 0
-316 -1911 0
-313 -1919 0
-314 -1922 0
-316 -1923 0
-313 -1933 0
-315 -1936 0
-316 -1937 0
-313 -1940 0
-314 -1942 0
-315 -1943 0
-316 -1944 0
-313 -1946 0
-315 -1949 0
-316 -1950 0
-317 -476 0
-320 -478 0
-323 -480 0
-317 -523 0
-322 -526 0
-323 -528 0
-318 -560 0
-320 -562 0
-323 -565 0
-318 -567 0
-321 -569 0
-323 -571 0
-317 -572 0
-320 -574 0
-322 -576 0
-323 -577 0
-317 -594 0
-318 -595 0
-320 -596 0
-323 -599 0
-317 -620 0
-319 -621 0
-320 -622 0
-322 -624 0
-323 -625 0
-317 -627 0
-319 -628 0
-320 -630 0
-321 -631 0
-322 -632 0
-323 -634 0
-317 -636 0
-319 -637 0
-320 -639 0
-322 -640 0
-323 -641 0
-317 -649 0
-319 -650 0
-320 -652 0
-321 -653 0
-323 -655 0
-317 -656 0
-319 -657 0
-320 -658 0
-321 -659 0
-323 -661 0
-318 -676 0
-319 -677 0
-320 -678 0
-321 -679 0
-323 -680 0
-318 -682 0
-319 -683 0
-320 -684 0
-322 -685 0
-323 -687 0
-318 -689 0
-319 -690 0
-320 -692 0
-321 -693 0
-322 -695 0
-323 -696 0
-318 -704 0
-319 -705 0
-320 -706 0
-322 -708 0
-323 -709 0
-318 -710 0
-319 -711 0
-321 -713 0
-322 -714 0
-323 -716 0
-319 -769 0
-320 -771 0
-323 -773 0
-319 -774 0
-320 -776 0
-322 -778 0
-323 -780 0
-319 -781 0
-321 -782 0
-322 -784 0
-323 -786 0
-317 -915 0
-320 -916 0
-323 -918 0
-317 -921 0
-321 -923 0
-323 -925 0
-317 -928 0
-322 -930 0
-323 -931 0
-317 -940 0
-320 -942 0
-321 -943 0
-322 -944 0
-323 -946 0
-317 -949 0
-321 -950 0
-322 -952 0
-323 -953 0
-317 -955 0
-321 -956 0
-323 -959 0
-318 -971 0
-320 -972 0
-321 -973 0
-322 -974 0
-323 -975 0
-318 -978 0
-320 -979 0
-323 -981 0
-318 -984 0
-321 -986 0
-323 -988 0
-317 -990 0
-321 -992 0
-323 -994 0
-317 -996 0
-320 -997 0
-321 -998 0
-323 -1000 0
-317 -1002 0
-320 -1003 0
-321 -1004 0
-322 -1005 0
-323 -1006 0
-318 -1014 0
-321 -1015 0
-323 -1018 0
-318 -1021 0
-322 -1023 0
-323 -1024 0
-318 -1027 0
-320 -1029 0
-321 -1030 0
-322 -1031 0
-323 -1033 0
-318 -1035 0
-321 -1037 0
-322 -1038 0
-323 -1039 0
-318 -1041 0
-321 -1043 0
-323 -1045 0
-318 -1047 0
-320 -1048 0
-321 -1049 0
-323 -1051 0
-320 -1215 0
-322 -1217 0
-323 -1218 0
-323 -1246 0
-320 -1249 0
-321 -1250 0
-323 -1253 0
-320 -1255 0
-322 -1257 0
-323 -1259 0
-321 -1262 0
-322 -1264 0
-323 -1265 0
-320 -1268 0
-321 -1269 0
-322 -1270 0
-323 -1272 0
-317 -1287 0
-320 -1289 0
-323 -1292 0
-317 -1294 0
-322 -1297 0
-323 -1299 0
-317 -1307 0
-320 -1308 0
-321 -1309 0
-322 -1311 0
-323 -1313 0
-318 -1322 0
-320 -1324 0
-323 -1327 0
-318 -1328 0
-322 -1331 0
-323 -1333 0
-318 -1334 0
-320 -1336 0
-321 -1337 0
-322 -1339 0
-323 -1340 0
-319 -1348 0
-320 -1350 0
-321 -1351 0
-323 -1353 0
-319 -1356 0
-320 -1358 0
-322 -1360 0
-323 -1362 0
-319 -1365 0
-321 -1367 0
-322 -1368 0
-323 -1369 0
-319 -1371 0
-320 -1372 0
-321 -1373 0
-322 -1374 0
-323 -1376 0
-319 -1378 0
-320 -1379 0
-321 -1380 0
-323 -1382 0
-319 -1384 0
-321 -1386 0
-323 -1389 0
-319 -1404 0
-321 -1405 0
-322 -1407 0
-323 -1409 0
-319 -1410 0
-320 -1412 0
-321 -1413 0
-322 -1414 0
-323 -1415 0
-317 -1516 0
-320 -1518 0
-321 -1519 0
-322 -1520 0
-323 -1521 0
-317 -1523 0
-322 -1525 0
-323 -1527 0
-317 -1530 0
-321 -1531 0
-322 -1533 0
-323 -1534 0
-317 -1543 0
-320 -1545 0
-323 -1548 0
-317 -1550 0
-321 -1552 0
-323 -1554 0
-317 -1556 0
-322 -1559 0
-323 -1561 0
-318 -1570 0
-320 -1572 0
-323 -1574 0
-318 -1577 0
-320 -1579 0
-321 -1580 0
-322 -1582 0
-323 -1584 0
-318 -1587 0
-322 -1589 0
-323 -1590 0
-317 -1591 0
-320 -1593 0
-322 -1595 0
-323 -1596 0
-318 -1598 0
-321 -1600 0
-322 -1601 0
-323 -1602 0
-318 -1604 0
-320 -1605 0
-322 -1607 0
-323 -1609 0
-318 -1610 0
-322 -1613 0
-323 -1615 0
-318 -1616 0
-320 -1618 0
-321 -1619 0
-322 -1621 0
-323 -1622 0
-320 -1739 0
-321 -1740 0
-323 -1741 0
-321 -1744 0
-322 -1746 0
-323 -1747 0
-321 -1763 0
-322 -1765 0
-323 -1767 0
-320 -1770 0
-322 -1771 0
-323 -1773 0
-320 -1776 0
-321 -1777 0
-322 -1778 0
-323 -1780 0
-320 -1783 0
-321 -1784 0
-323 -1787 0
-317 -1788 0
-321 -1790 0
-322 -1791 0
-323 -1793 0
-318 -1794 0
-320 -1795 0
-321 -1796 0
-322 -1797 0
-323 -1799 0
-319 -1801 0
-320 -1802 0
-321 -1803 0
-322 -1804 0
-323 -1806 0
-319 -1808 0
-322 -1811 0
-323 -1812 0
-319 -1813 0
-320 -1815 0
-322 -1817 0
-323 -1819 0
-319 -1820 0
-321 -1821 0
-322 -1823 0
-323 -1825 0
-321 -1881 0
-322 -1882 0
-323 -1884 0
-320 -1888 0
-322 -1890 0
-323 -1891 0
-321 -1894 0
-322 -1896 0
-323 -1898 0
-323 -1904 0
-320 -1907 0
-321 -1908 0
-323 -1911 0
-320 -1914 0
-322 -1915 0
-323 -1917 0
-320 -1919 0
-321 -1920 0
-322 -1922 0
-323 -1923 0
-321 -1954 0
-322 -1956 0
-323 -1958 0
-324 -468 0
-327 -472 0
-329 -474 0
-328 -520 0
-329 -521 0
-326 -555 0
-328 -557 0
-329 -558 0
-328 -604 0
-329 -605 0
-325 -606 0
-328 -610 0
-329 -611 0
-325 -612 0
-326 -615 0
-327 -616 0
-329 -618 0
-329 -648 0
-325 -649 0
-326 -653 0
-328 -654 0
-329 -655 0
-325 -656 0
-326 -659 0
-327 -660 0
-329 -661 0
-326 -679 0
-329 -680 0
-324 -681 0
-328 -686 0
-329 -687 0
-324 -688 0
-326 -693 0
-327 -694 0
-329 -696 0
-327 -707 0
-329 -709 0
-326 -713 0
-328 -715 0
-329 -716 0
-326 -720 0
-327 -721 0
-329 -723 0
-326 -726 0
-328 -728 0
-329 -729 0
-326 -765 0
-329 -767 0
-325 -807 0
-328 -813 0
-329 -814 0
-325 -839 0
-326 -841 0
-328 -843 0
-329 -844 0
-324 -845 0
-325 -846 0
-328 -849 0
-329 -850 0
-324 -851 0
-325 -852 0
-326 -856 0
-327 -857 0
-328 -859 0
-329 -860 0
-324 -861 0
-328 -866 0
-329 -867 0
-325 -868 0
-327 -871 0
-328 -872 0
-329 -873 0
-325 -874 0
-326 -878 0
-329 -879 0
-327 -884 0
-329 -885 0
-325 -893 0
-326 -895 0
-329 -897 0
-324 -898 0
-325 -900 0
-328 -902 0
-329 -903 0
-324 -904 0
-325 -906 0
-326 -910 0
-327 -911 0
-329 -912 0
-324 -932 0
-329 -937 0
-324 -938 0
-325 -940 0
-326 -943 0
-328 -945 0
-329 -946 0
-324 -947 0
-325 -949 0
-326 -950 0
-327 -951 0
-329 -953 0
-324 -954 0
-325 -955 0
-326 -956 0
-327 -957 0
-328 -958 0
-329 -959 0
-324 -969 0
-326 -973 0
-329 -975 0
-324 -976 0
-328 -980 0
-329 -981 0
-324 -982 0
-326 -986 0
-327 -987 0
-329 -988 0
-325 -990 0
-326 -992 0
-327 -993 0
-329 -994 0
-325 -996 0
-326 -998 0
-328 -999 0
-329 -1000 0
-324 -1001 0
-325 -1002 0
-326 -1004 0
-329 -1006 0
-326 -1015 0
-327 -1016 0
-328 -1017 0
-329 -1018 0
-324 -1019 0
-327 -1022 0
-329 -1024 0
-324 -1025 0
-326 -1030 0
-328 -1032 0
-329 -1033 0
-324 -1106 0
-328 -1111 0
-329 -1112 0
-327 -1136 0
-329 -1138 0
-326 -1162 0
-327 -1163 0
-329 -1165 0
-324 -1166 0
-329 -1171 0
-324 -1192 0
-326 -1196 0
-329 -1198 0
-324 -1199 0
-328 -1203 0
-329 -1204 0
-324 -1205 0
-326 -1208 0
-327 -1209 0
-329 -1211 0
-326 -1224 0
-327 -1225 0
-328 -1227 0
-329 -1228 0
-324 -1229 0
-327 -1233 0
-329 -1234 0
-324 -1235 0
-326 -1238 0
-328 -1239 0
-329 -1240 0
-324 -1260 0
-326 -1262 0
-327 -1263 0
-329 -1265 0
-324 -1266 0
-326 -1269 0
-328 -1271 0
-329 -1272 0
-325 -1273 0
-327 -1276 0
-328 -1277 0
-329 -1278 0
-325 -1279 0
-326 -1283 0
-328 -1284 0
-329 -1285 0
-327 -1304 0
-328 -1305 0
-329 -1306 0
-325 -1307 0
-326 -1309 0
-327 -1310 0
-328 -1312 0
-329 -1313 0
-324 -1321 0
-327 -1325 0
-328 -1326 0
-329 -1327 0
-327 -1330 0
-328 -1332 0
-329 -1333 0
-326 -1337 0
-327 -1338 0
-329 -1340 0
-326 -1351 0
-327 -1352 0
-329 -1353 0
-324 -1354 0
-327 -1359 0
-328 -1361 0
-329 -1362 0
-324 -1363 0
-326 -1367 0
-329 -1369 0
-324 -1390 0
-326 -1393 0
-327 -1394 0
-328 -1395 0
-329 -1396 0
-324 -1397 0
-326 -1400 0
-328 -1402 0
-329 -1403 0
-326 -1418 0
-327 -1419 0
-329 -1421 0
-326 -1424 0
-327 -1425 0
-328 -1427 0
-329 -1428 0
-324 -1429 0
-326 -1431 0
-327 -1432 0
-329 -1434 0
-327 -1445 0
-328 -1447 0
-329 -1448 0
-325 -1480 0
-326 -1483 0
-327 -1484 0
-328 -1485 0
-329 -1486 0
-325 -1487 0
-327 -1490 0
-328 -1491 0
-329 -1492 0
-326 -1495 0
-327 -1496 0
-328 -1497 0
-329 -1498 0
-325 -1500 0
-326 -1503 0
-327 -1504 0
-328 -1506 0
-329 -1507 0
-325 -1509 0
-327 -1512 0
-329 -1514 0
-326 -1538 0
-327 -1539 0
-329 -1541 0
-325 -1543 0
-327 -1546 0
-328 -1547 0
-329 -1548 0
-325 -1550 0
-326 -1552 0
-327 -1553 0
-329 -1554 0
-324 -1555 0
-325 -1556 0
-327 -1558 0
-328 -1560 0
-329 -1561 0
-327 -1573 0
-329 -1574 0
-324 -1575 0
-326 -1580 0
-327 -1581 0
-328 -1583 0
-329 -1584 0
-324 -1585 0
-327 -1588 0
-329 -1590 0
-325 -1591 0
-327 -1594 0
-329 -1596 0
-326 -1600 0
-329 -1602 0
-327 -1606 0
-328 -1608 0
-329 -1609 0
-326 -1664 0
-327 -1665 0
-328 -1667 0
-329 -1668 0
-326 -1692 0
-327 -1693 0
-329 -1694 0
-327 -1720 0
-329 -1722 0
-324 -1723 0
-326 -1726 0
-327 -1727 0
-328 -1728 0
-329 -1729 0
-324 -1730 0
-327 -1734 0
-329 -1735 0
-326 -1751 0
-329 -1753 0
-327 -1757 0
-328 -1759 0
-329 -1760 0
-326 -1784 0
-327 -1785 0
-328 -1786 0
-329 -1787 0
-326 -1796 0
-328 -1798 0
-329 -1799 0
-326 -1803 0
-328 -1805 0
-329 -1806 0
-327 -1810 0
-329 -1812 0
-328 -1830 0
-329 -1831 0
-324 -1832 0
-327 -1834 0
-328 -1836 0
-329 -1837 0
-325 -1846 0
-326 -1848 0
-328 -1849 0
-329 -1850 0
-325 -1852 0
-327 -1855 0
-328 -1856 0
-329 -1857 0
-326 -1862 0
-328 -1863 0
-329 -1864 0
-324 -1879 0
-326 -1881 0
-328 -1883 0
-329 -1884 0
-324 -1885 0
-327 -1889 0
-329 -1891 0
-326 -1927 0
-328 -1929 0
-329 -1930 0
-324 -1938 0
-326 -1941 0
-328 -1943 0
-329 -1944 0
-326 -1947 0
-327 -1948 0
-328 -1949 0
-329 -1950 0
-326 -1954 0
-327 -1955 0
-328 -1957 0
-329 -1958 0
-331 -606 0
-333 -607 0
-336 -609 0
-337 -610 0
-338 -611 0
-331 -612 0
-333 -613 0
-334 -615 0
-335 -616 0
-336 -617 0
-338 -618 0
-331 -636 0
-333 -637 0
-336 -640 0
-338 -641 0
-331 -649 0
-333 -650 0
-334 -653 0
-337 -654 0
-338 -655 0
-331 -656 0
-333 -657 0
-334 -659 0
-335 -660 0
-338 -661 0
-332 -662 0
-333 -663 0
-334 -665 0
-335 -666 0
-337 -667 0
-338 -668 0
-331 -670 0
-334 -672 0
-336 -673 0
-338 -674 0
-332 -682 0
-333 -683 0
-336 -685 0
-337 -686 0
-338 -687 0
-332 -689 0
-333 -690 0
-334 -693 0
-335 -694 0
-336 -695 0
-338 -696 0
-331 -697 0
-334 -699 0
-335 -700 0
-336 -701 0
-337 -702 0
-338 -703 0
-332 -704 0
-333 -705 0
-335 -707 0
-336 -708 0
-338 -709 0
-332 -710 0
-333 -711 0
-334 -713 0
-336 -714 0
-337 -715 0
-338 -716 0
-332 -717 0
-334 -720 0
-335 -721 0
-336 -722 0
-338 -723 0
-332 -724 0
-334 -726 0
-336 -727 0
-337 -728 0
-338 -729 0
-331 -801 0
-337 -804 0
-338 -805 0
-331 -846 0
-332 -847 0
-336 -848 0
-337 -849 0
-338 -850 0
-331 -852 0
-332 -853 0
-334 -856 0
-335 -857 0
-336 -858 0
-337 -859 0
-338 -860 0
-331 -868 0
-332 -869 0
-335 -871 0
-337 -872 0
-338 -873 0
-331 -874 0
-332 -875 0
-334 -878 0
-338 -879 0
-332 -886 0
-334 -888 0
-336 -889 0
-337 -890 0
-338 -891 0
-330 -899 0
-331 -900 0
-333 -901 0
-337 -902 0
-338 -903 0
-330 -905 0
-331 -906 0
-333 -907 0
-334 -910 0
-335 -911 0
-338 -912 0
-330 -927 0
-331 -928 0
-336 -930 0
-338 -931 0
-330 -939 0
-331 -940 0
-334 -943 0
-336 -944 0
-337 -945 0
-338 -946 0
-330 -948 0
-331 -949 0
-334 -950 0
-335 -951 0
-336 -952 0
-338 -953 0
-330 -961 0
-332 -962 0
-333 -963 0
-334 -964 0
-335 -965 0
-336 -966 0
-337 -967 0
-338 -968 0
-330 -977 0
-332 -978 0
-337 -980 0
-338 -981 0
-330 -983 0
-332 -984 0
-334 -986 0
-335 -987 0
-338 -988 0
-330 -989 0
-331 -990 0
-334 -992 0
-335 -993 0
-338 -994 0
-330 -995 0
-331 -996 0
-334 -998 0
-337 -999 0
-338 -1000 0
-330 -1007 0
-332 -1008 0
-333 -1009 0
-334 -1011 0
-338 -1012 0
-330 -1020 0
-332 -1021 0
-335 -1022 0
-336 -1023 0
-338 -1024 0
-330 -1026 0
-332 -1027 0
-334 -1030 0
-336 -1031 0
-337 -1032 0
-338 -1033 0
-330 -1034 0
-332 -1035 0
-334 -1037 0
-336 -1038 0
-338 -1039 0
-333 -1200 0
-336 -1202 0
-337 -1203 0
-338 -1204 0
-333 -1206 0
-334 -1208 0
-335 -1209 0
-336 -1210 0
-338 -1211 0
-333 -1230 0
-335 -1233 0
-338 -1234 0
-333 -1236 0
-334 -1238 0
-337 -1239 0
-338 -1240 0
-335 -1256 0
-336 -1257 0
-337 -1258 0
-338 -1259 0
-334 -1262 0
-335 -1263 0
-336 -1264 0
-338 -1265 0
-334 -1269 0
-336 -1270 0
-337 -1271 0
-338 -1272 0
-331 -1273 0
-333 -1274 0
-335 -1276 0
-337 -1277 0
-338 -1278 0
-331 -1279 0
-333 -1280 0
-334 -1283 0
-337 -1284 0
-338 -1285 0
-331 -1294 0
-335 -1296 0
-336 -1297 0
-337 -1298 0
-338 -1299 0
-331 -1307 0
-334 -1309 0
-335 -1310 0
-336 -1311 0
-337 -1312 0
-338 -1313 0
-332 -1314 0
-333 -1315 0
-334 -1317 0
-336 -1318 0
-337 -1319 0
-338 -1320 0
-332 -1322 0
-335 -1325 0
-337 -1326 0
-338 -1327 0
-332 -1328 0
-335 -1330 0
-336 -1331 0
-337 -1332 0
-338 -1333 0
-332 -1334 0
-334 -1337 0
-335 -1338 0
-336 -1339 0
-338 -1340 0
-330 -1341 0
-333 -1342 0
-334 -1344 0
-337 -1345 0
-338 -1346 0
-330 -1355 0
-333 -1356 0
-335 -1359 0
-336 -1360 0
-337 -1361 0
-338 -1362 0
-330 -1364 0
-333 -1365 0
-334 -1367 0
-336 -1368 0
-338 -1369 0
-330 -1370 0
-333 -1371 0
-334 -1373 0
-336 -1374 0
-337 -1375 0
-338 -1376 0
-330 -1391 0
-334 -1393 0
-335 -1394 0
-337 -1395 0
-338 -1396 0
-330 -1416 0
-334 -1418 0
-335 -1419 0
-336 -1420 0
-338 -1421 0
-330 -1422 0
-334 -1424 0
-335 -1425 0
-336 -1426 0
-337 -1427 0
-338 -1428 0
-331 -1457 0
-334 -1459 0
-335 -1460 0
-336 -1461 0
-337 -1462 0
-338 -1463 0
-331 -1480 0
-332 -1481 0
-334 -1483 0
-335 -1484 0
-337 -1485 0
-338 -1486 0
-331 -1487 0
-332 -1488 0
-335 -1490 0
-337 -1491 0
-338 -1492 0
-330 -1499 0
-331 -1500 0
-333 -1501 0
-334 -1503 0
-335 -1504 0
-336 -1505 0
-337 -1506 0
-338 -1507 0
-330 -1508 0
-331 -1509 0
-333 -1510 0
-335 -1512 0
-336 -1513 0
-338 -1514 0
-330 -1529 0
-331 -1530 0
-334 -1531 0
-335 -1532 0
-336 -1533 0
-338 -1534 0
-330 -1542 0
-331 -1543 0
-335 -1546 0
-337 -1547 0
-338 -1548 0
-330 -1549 0
-331 -1550 0
-334 -1552 0
-335 -1553 0
-338 -1554 0
-330 -1562 0
-332 -1563 0
-333 -1564 0
-335 -1566 0
-337 -1567 0
-338 -1568 0
-330 -1576 0
-332 -1577 0
-334 -1580 0
-335 -1581 0
-336 -1582 0
-337 -1583 0
-338 -1584 0
-330 -1586 0
-332 -1587 0
-335 -1588 0
-336 -1589 0
-338 -1590 0
-330 -1597 0
-332 -1598 0
-334 -1600 0
-336 -1601 0
-338 -1602 0
-330 -1603 0
-332 -1604 0
-335 -1606 0
-336 -1607 0
-337 -1608 0
-338 -1609 0
-333 -1724 0
-334 -1726 0
-335 -1727 0
-337 -1728 0
-338 -1729 0
-333 -1731 0
-335 -1734 0
-338 -1735 0
-334 -1744 0
-335 -1745 0
-336 -1746 0
-338 -1747 0
-333 -1748 0
-334 -1751 0
-336 -1752 0
-338 -1753 0
-333 -1754 0
-335 -1757 0
-336 -1758 0
-337 -1759 0
-338 -1760 0
-334 -1777 0
-336 -1778 0
-337 -1779 0
-338 -1780 0
-334 -1784 0
-335 -1785 0
-337 -1786 0
-338 -1787 0
-331 -1788 0
-334 -1790 0
-336 -1791 0
-337 -1792 0
-338 -1793 0
-332 -1794 0
-334 -1796 0
-336 -1797 0
-337 -1798 0
-338 -1799 0
-330 -1800 0
-333 -1801 0
-334 -1803 0
-336 -1804 0
-337 -1805 0
-338 -1806 0
-330 -1807 0
-333 -1808 0
-335 -1810 0
-336 -1811 0
-338 -1812 0
-330 -1826 0
-336 -1829 0
-337 -1830 0
-338 -1831 0
-330 -1845 0
-331 -1846 0
-334 -1848 0
-337 -1849 0
-338 -1850 0
-330 -1851 0
-331 -1852 0
-335 -1855 0
-337 -1856 0
-338 -1857 0
-330 -1865 0
-332 -1866 0
-335 -1868 0
-336 -1869 0
-337 -1870 0
-338 -1871 0
-330 -1872 0
-333 -1873 0
-335 -1875 0
-337 -1876 0
-338 -1877 0
-330 -1880 0
-334 -1881 0
-336 -1882 0
-337 -1883 0
-338 -1884 0
-330 -1886 0
-335 -1889 0
-336 -1890 0
-338 -1891 0
-330 -1892 0
-334 -1894 0
-335 -1895 0
-336 -1896 0
-337 -1897 0
-338 -1898 0
-334 -1941 0
-336 -1942 0
-337 -1943 0
-338 -1944 0
-334 -1947 0
-335 -1948 0
-337 -1949 0
-338 -1950 0
-330 -1952 0
-334 -1954 0
-335 -1955 0
-336 -1956 0
-337 -1957 0
-338 -1958 0
-339 -459 0
-340 -460 0
-342 -461 0
-343 -463 0
-344 -464 0
-345 -467 0
-340 -509 0
-342 -510 0
-343 -513 0
-345 -515 0
-341 -552 0
-342 -553 0
-343 -555 0
-345 -558 0
-339 -566 0
-341 -567 0
-343 -569 0
-345 -571 0
-340 -612 0
-342 -613 0
-343 -615 0
-344 -616 0
-345 -618 0
-340 -627 0
-342 -628 0
-343 -631 0
-345 -634 0
-340 -649 0
-342 -650 0
-343 -653 0
-345 -655 0
-341 -662 0
-342 -663 0
-343 -665 0
-344 -666 0
-345 -668 0
-339 -669 0
-340 -670 0
-343 -672 0
-345 -674 0
-341 -676 0
-342 -677 0
-343 -679 0
-345 -680 0
-339 -688 0
-341 -689 0
-342 -690 0
-343 -693 0
-344 -694 0
-345 -696 0
-340 -697 0
-343 -699 0
-344 -700 0
-345 -703 0
-341 -710 0
-342 -711 0
-343 -713 0
-345 -716 0
-341 -717 0
-343 -720 0
-344 -721 0
-345 -723 0
-342 -762 0
-343 -765 0
-345 -767 0
-342 -781 0
-343 -782 0
-344 -783 0
-345 -786 0
-340 -794 0
-343 -797 0
-345 -799 0
-340 -839 0
-341 -840 0
-343 -841 0
-345 -844 0
-339 -851 0
-340 -852 0
-341 -853 0
-343 -856 0
-344 -857 0
-345 -860 0
-340 -874 0
-341 -875 0
-343 -878 0
-345 -879 0
-341 -886 0
-343 -888 0
-345 -891 0
-340 -893 0
-342 -894 0
-343 -895 0
-345 -897 0
-339 -904 0
-340 -906 0
-342 -907 0
-343 -910 0
-344 -911 0
-345 -912 0
-339 -919 0
-340 -921 0
-343 -923 0
-345 -925 0
-339 -938 0
-340 -940 0
-343 -943 0
-345 -946 0
-339 -954 0
-340 -955 0
-343 -956 0
-344 -957 0
-345 -959 0
-339 -960 0
-341 -962 0
-342 -963 0
-343 -964 0
-344 -965 0
-345 -968 0
-339 -969 0
-341 -971 0
-343 -973 0
-345 -975 0
-339 -982 0
-341 -984 0
-343 -986 0
-344 -987 0
-345 -988 0
-340 -990 0
-343 -992 0
-344 -993 0
-345 -994 0
-339 -1001 0
-340 -1002 0
-343 -1004 0
-345 -1006 0
-341 -1008 0
-342 -1009 0
-343 -1011 0
-345 -1012 0
-341 -1014 0
-343 -1015 0
-344 -1016 0
-345 -1018 0
-339 -1025 0
-341 -1027 0
-343 -1030 0
-345 -1033 0
-339 -1040 0
-341 -1041 0
-343 -1043 0
-345 -1045 0
-340 -1126 0
-343 -1128 0
-344 -1129 0
-345 -1132 0
-341 -1159 0
-343 -1162 0
-344 -1163 0
-345 -1165 0
-339 -1192 0
-342 -1194 0
-343 -1196 0
-345 -1198 0
-339 -1205 0
-342 -1206 0
-343 -1208 0
-344 -1209 0
-345 -1211 0
-342 -1221 0
-343 -1224 0
-344 -1225 0
-345 -1228 0
-339 -1235 0
-342 -1236 0
-343 -1238 0
-345 -1240 0
-339 -1247 0
-343 -1250 0
-344 -1251 0
-345 -1253 0
-339 -1260 0
-343 -1262 0
-344 -1263 0
-345 -1265 0
-340 -1279 0
-342 -1280 0
-343 -1283 0
-345 -1285 0
-340 -1307 0
-343 -1309 0
-344 -1310 0
-345 -1313 0
-341 -1314 0
-342 -1315 0
-343 -1317 0
-345 -1320 0
-341 -1334 0
-343 -1337 0
-344 -1338 0
-345 -1340 0
-342 -1342 0
-343 -1344 0
-345 -1346 0
-342 -1348 0
-343 -1351 0
-344 -1352 0
-345 -1353 0
-339 -1363 0
-342 -1365 0
-343 -1367 0
-345 -1369 0
-339 -1377 0
-342 -1378 0
-343 -1380 0
-345 -1382 0
-339 -1390 0
-343 -1393 0
-344 -1394 0
-345 -1396 0
-339 -1397 0
-343 -1400 0
-345 -1403 0
-342 -1404 0
-343 -1405 0
-344 -1406 0
-345 -1409 0
-343 -1418 0
-344 -1419 0
-345 -1421 0
-339 -1429 0
-343 -1431 0
-344 -1432 0
-345 -1434 0
-340 -1487 0
-341 -1488 0
-344 -1490 0
-345 -1492 0
-340 -1509 0
-342 -1510 0
-344 -1512 0
-345 -1514 0
-340 -1523 0
-344 -1524 0
-345 -1527 0
-340 -1543 0
-344 -1546 0
-345 -1548 0
-339 -1555 0
-340 -1556 0
-344 -1558 0
-345 -1561 0
-341 -1563 0
-342 -1564 0
-344 -1566 0
-345 -1568 0
-341 -1570 0
-344 -1573 0
-345 -1574 0
-339 -1585 0
-341 -1587 0
-344 -1588 0
-345 -1590 0
-340 -1591 0
-344 -1594 0
-345 -1596 0
-341 -1604 0
-344 -1606 0
-345 -1609 0
-341 -1610 0
-344 -1612 0
-345 -1615 0
-342 -1718 0
-344 -1720 0
-345 -1722 0
-339 -1730 0
-342 -1731 0
-344 -1734 0
-345 -1735 0
-342 -1754 0
-344 -1757 0
-345 -1760 0
-345 -1773 0
-342 -1808 0
-344 -1810 0
-345 -1812 0
-342 -1813 0
-344 -1816 0
-345 -1819 0
-345 -1831 0
-339 -1832 0
-344 -1834 0
-345 -1837 0
-340 -1852 0
-344 -1855 0
-345 -1857 0
-341 -1866 0
-344 -1868 0
-345 -1871 0
-342 -1873 0
-344 -1875 0
-345 -1877 0
-339 -1885 0
-344 -1889 0
-345 -1891 0
-339 -1899 0
-344 -1902 0
-345 -1904 0
-345 -1917 0
-346 -452 0
-347 -453 0
-349 -454 0
-350 -455 0
-351 -456 0
-354 -458 0
-347 -503 0
-349 -504 0
-350 -505 0
-353 -507 0
-354 -508 0
-348 -552 0
-349 -553 0
-350 -554 0
-352 -555 0
-353 -557 0
-354 -558 0
-346 -559 0
-348 -560 0
-350 -561 0
-351 -562 0
-353 -564 0
-354 -565 0
-347 -594 0
-348 -595 0
-351 -596 0
-353 -598 0
-354 -599 0
-347 -606 0
-349 -607 0
-351 -608 0
-353 -610 0
-354 -611 0
-347 -620 0
-349 -621 0
-351 -622 0
-354 -625 0
-347 -656 0
-349 -657 0
-351 -658 0
-352 -659 0
-354 -661 0
-348 -662 0
-349 -663 0
-351 -664 0
-352 -665 0
-353 -667 0
-354 -668 0
-346 -669 0
-347 -670 0
-351 -671 0
-352 -672 0
-354 -674 0
-348 -676 0
-349 -677 0
-351 -678 0
-352 -679 0
-354 -680 0
-346 -681 0
-348 -682 0
-349 -683 0
-351 -684 0
-353 -686 0
-354 -687 0
-347 -697 0
-351 -698 0
-352 -699 0
-353 -702 0
-354 -703 0
-348 -704 0
-349 -705 0
-351 -706 0
-354 -709 0
-348 -724 0
-351 -725 0
-352 -726 0
-353 -728 0
-354 -729 0
-349 -762 0
-350 -763 0
-351 -764 0
-352 -765 0
-354 -767 0
-346 -768 0
-349 -769 0
-350 -770 0
-351 -771 0
-354 -773 0
-349 -774 0
-350 -775 0
-351 -776 0
-353 -779 0
-354 -780 0
-347 -788 0
-353 -791 0
-354 -792 0
-347 -839 0
-348 -840 0
-352 -841 0
-353 -843 0
-354 -844 0
-346 -845 0
-347 -846 0
-348 -847 0
-353 -849 0
-354 -850 0
-347 -868 0
-348 -869 0
-351 -870 0
-353 -872 0
-354 -873 0
-348 -886 0
-351 -887 0
-352 -888 0
-353 -890 0
-354 -891 0
-347 -893 0
-349 -894 0
-352 -895 0
-354 -897 0
-346 -898 0
-347 -900 0
-349 -901 0
-353 -902 0
-354 -903 0
-346 -913 0
-347 -915 0
-351 -916 0
-354 -918 0
-346 -947 0
-347 -949 0
-352 -950 0
-354 -953 0
-346 -954 0
-347 -955 0
-352 -956 0
-353 -958 0
-354 -959 0
-346 -960 0
-348 -962 0
-349 -963 0
-352 -964 0
-353 -967 0
-354 -968 0
-346 -969 0
-348 -971 0
-351 -972 0
-352 -973 0
-354 -975 0
-346 -976 0
-348 -978 0
-351 -979 0
-353 -980 0
-354 -981 0
-347 -996 0
-351 -997 0
-352 -998 0
-353 -999 0
-354 -1000 0
-346 -1001 0
-347 -1002 0
-351 -1003 0
-352 -1004 0
-354 -1006 0
-348 -1008 0
-349 -1009 0
-351 -1010 0
-352 -1011 0
-354 -1012 0
-348 -1014 0
-352 -1015 0
-353 -1017 0
-354 -1018 0
-346 -1019 0
-348 -1021 0
-354 -1024 0
-346 -1046 0
-348 -1047 0
-351 -1048 0
-352 -1049 0
-354 -1051 0
-346 -1099 0
-347 -1100 0
-350 -1101 0
-353 -1104 0
-354 -1105 0
-347 -1120 0
-350 -1121 0
-351 -1122 0
-354 -1125 0
-348 -1159 0
-350 -1160 0
-351 -1161 0
-352 -1162 0
-354 -1165 0
-346 -1192 0
-349 -1194 0
-350 -1195 0
-352 -1196 0
-354 -1198 0
-346 -1199 0
-349 -1200 0
-350 -1201 0
-353 -1203 0
-354 -1204 0
-346 -1212 0
-350 -1214 0
-351 -1215 0
-354 -1218 0
-349 -1221 0
-350 -1222 0
-351 -1223 0
-352 -1224 0
-353 -1227 0
-354 -1228 0
-346 -1229 0
-349 -1230 0
-350 -1231 0
-351 -1232 0
-354 -1234 0
-346 -1241 0
-350 -1243 0
-353 -1245 0
-354 -1246 0
-346 -1266 0
-350 -1267 0
-351 -1268 0
-352 -1269 0
-353 -1271 0
-354 -1272 0
-347 -1273 0
-349 -1274 0
-350 -1275 0
-353 -1277 0
-354 -1278 0
-347 -1287 0
-350 -1288 0
-351 -1289 0
-353 -1291 0
-354 -1292 0
-348 -1314 0
-349 -1315 0
-350 -1316 0
-352 -1317 0
-353 -1319 0
-354 -1320 0
-346 -1321 0
-348 -1322 0
-350 -1323 0
-351 -1324 0
-353 -1326 0
-354 -1327 0
-348 -1328 0
-350 -1329 0
-353 -1332 0
-354 -1333 0
-349 -1342 0
-350 -1343 0
-352 -1344 0
-353 -1345 0
-354 -1346 0
-349 -1348 0
-350 -1349 0
-351 -1350 0
-352 -1351 0
-354 -1353 0
-346 -1354 0
-349 -1356 0
-350 -1357 0
-351 -1358 0
-353 -1361 0
-354 -1362 0
-346 -1383 0
-349 -1384 0
-350 -1385 0
-352 -1386 0
-353 -1388 0
-354 -1389 0
-346 -1397 0
-350 -1398 0
-351 -1399 0
-352 -1400 0
-353 -1402 0
-354 -1403 0
-349 -1410 0
-350 -1411 0
-351 -1412 0
-352 -1413 0
-354 -1415 0
-350 -1423 0
-352 -1424 0
-353 -1427 0
-354 -1428 0
-346 -1429 0
-350 -1430 0
-352 -1431 0
-354 -1434 0
-347 -1480 0
-348 -1481 0
-350 -1482 0
-352 -1483 0
-353 -1485 0
-354 -1486 0
-347 -1500 0
-349 -1501 0
-350 -1502 0
-352 -1503 0
-353 -1506 0
-354 -1507 0
-347 -1516 0
-350 -1517 0
-351 -1518 0
-352 -1519 0
-354 -1521 0
-347 -1550 0
-350 -1551 0
-352 -1552 0
-354 -1554 0
-346 -1555 0
-347 -1556 0
-350 -1557 0
-353 -1560 0
-354 -1561 0
-348 -1563 0
-349 -1564 0
-350 -1565 0
-353 -1567 0
-354 -1568 0
-348 -1570 0
-350 -1571 0
-351 -1572 0
-354 -1574 0
-346 -1575 0
-348 -1577 0
-350 -1578 0
-351 -1579 0
-352 -1580 0
-353 -1583 0
-354 -1584 0
-347 -1591 0
-350 -1592 0
-351 -1593 0
-354 -1596 0
-348 -1598 0
-350 -1599 0
-352 -1600 0
-354 -1602 0
-348 -1616 0
-350 -1617 0
-351 -1618 0
-352 -1619 0
-354 -1622 0
-347 -1654 0
-350 -1655 0
-352 -1656 0
-353 -1658 0
-354 -1659 0
-349 -1718 0
-350 -1719 0
-354 -1722 0
-346 -1723 0
-349 -1724 0
-350 -1725 0
-352 -1726 0
-353 -1728 0
-354 -1729 0
-346 -1736 0
-350 -1738 0
-351 -1739 0
-352 -1740 0
-354 -1741 0
-349 -1748 0
-350 -1749 0
-351 -1750 0
-352 -1751 0
-354 -1753 0
-350 -1762 0
-352 -1763 0
-353 -1766 0
-354 -1767 0
-350 -1782 0
-351 -1783 0
-352 -1784 0
-353 -1786 0
-354 -1787 0
-348 -1794 0
-351 -1795 0
-352 -1796 0
-353 -1798 0
-354 -1799 0
-349 -1801 0
-351 -1802 0
-352 -1803 0
-353 -1805 0
-354 -1806 0
-349 -1820 0
-352 -1821 0
-353 -1824 0
-354 -1825 0
-346 -1832 0
-351 -1833 0
-353 -1836 0
-354 -1837 0
-347 -1846 0
-351 -1847 0
-352 -1848 0
-353 -1849 0
-354 -1850 0
-348 -1866 0
-351 -1867 0
-353 -1870 0
-354 -1871 0
-349 -1873 0
-351 -1874 0
-353 -1876 0
-354 -1877 0
-346 -1879 0
-352 -1881 0
-353 -1883 0
-354 -1884 0
-346 -1905 0
-351 -1907 0
-352 -1908 0
-353 -1910 0
-354 -1911 0
-351 -1919 0
-352 -1920 0
-354 -1923 0
-346 -1938 0
-350 -1939 0
-351 -1940 0
-352 -1941 0
-353 -1943 0
-354 -1944 0
-350 -1945 0
-351 -1946 0
-352 -1947 0
-353 -1949 0
-354 -1950 0
-350 -1953 0
-352 -1954 0
-353 -1957 0
-354 -1958 0
-355 -439 0
-357 -440 0
-359 -442 0
-360 -444 0
-355 -523 0
-358 -524 0
-359 -526 0
-360 -528 0
-356 -537 0
-357 -538 0
-358 -539 0
-359 -542 0
-360 -544 0
-356 -546 0
-357 -547 0
-359 -549 0
-360 -551 0
-355 -572 0
-358 -573 0
-359 -576 0
-360 -577 0
-355 -578 0
-356 -579 0
-357 -580 0
-358 -581 0
-359 -585 0
-360 -587 0
-355 -588 0
-356 -589 0
-357 -590 0
-358 -591 0
-359 -592 0
-360 -593 0
-355 -606 0
-357 -607 0
-359 -609 0
-360 -611 0
-355 -612 0
-357 -613 0
-358 -614 0
-359 -617 0
-360 -618 0
-355 -620 0
-357 -621 0
-359 -624 0
-360 -625 0
-355 -627 0
-357 -628 0
-358 -629 0
-359 -632 0
-360 -634 0
-356 -643 0
-357 -644 0
-358 -645 0
-359 -647 0
-360 -648 0
-355 -670 0
-359 -673 0
-360 -674 0
-356 -682 0
-357 -683 0
-359 -685 0
-360 -687 0
-356 -689 0
-357 -690 0
-358 -691 0
-359 -695 0
-360 -696 0
-356 -717 0
-358 -718 0
-359 -722 0
-360 -723 0
-356 -724 0
-359 -727 0
-360 -729 0
-357 -750 0
-359 -754 0
-360 -755 0
-357 -757 0
-358 -758 0
-359 -759 0
-360 -761 0
-357 -774 0
-358 -775 0
-359 -778 0
-360 -780 0
-357 -781 0
-359 -784 0
-360 -786 0
-355 -801 0
-358 -802 0
-360 -805 0
-355 -824 0
-356 -825 0
-358 -826 0
-360 -830 0
-355 -833 0
-356 -834 0
-358 -835 0
-360 -837 0
-355 -868 0
-356 -869 0
-360 -873 0
-355 -874 0
-356 -875 0
-358 -876 0
-360 -879 0
-356 -881 0
-358 -882 0
-360 -885 0
-355 -900 0
-357 -901 0
-360 -903 0
-355 -906 0
-357 -907 0
-358 -908 0
-360 -912 0
-355 -915 0
-360 -918 0
-355 -921 0
-358 -922 0
-360 -925 0
-356 -934 0
-357 -935 0
-358 -936 0
-360 -937 0
-355 -955 0
-360 -959 0
-356 -978 0
-360 -981 0
-356 -984 0
-358 -985 0
-360 -988 0
-355 -990 0
-358 -991 0
-360 -994 0
-355 -996 0
-360 -1000 0
-356 -1008 0
-357 -1009 0
-360 -1012 0
-356 -1014 0
-360 -1018 0
-356 -1041 0
-358 -1042 0
-360 -1045 0
-356 -1047 0
-360 -1051 0
-355 -1083 0
-358 -1084 0
-360 -1088 0
-356 -1147 0
-360 -1151 0
-356 -1153 0
-358 -1154 0
-360 -1158 0
-357 -1181 0
-360 -1184 0
-357 -1187 0
-358 -1188 0
-360 -1191 0
-357 -1230 0
-358 -1231 0
-360 -1234 0
-357 -1236 0
-360 -1240 0
-358 -1243 0
-360 -1246 0
-360 -1253 0
-355 -1273 0
-357 -1274 0
-358 -1275 0
-360 -1278 0
-355 -1279 0
-357 -1280 0
-358 -1281 0
-360 -1285 0
-355 -1287 0
-358 -1288 0
-360 -1292 0
-356 -1301 0
-357 -1302 0
-358 -1303 0
-360 -1306 0
-356 -1322 0
-358 -1323 0
-360 -1327 0
-357 -1342 0
-358 -1343 0
-360 -1346 0
-357 -1348 0
-358 -1349 0
-360 -1353 0
-357 -1378 0
-360 -1382 0
-357 -1384 0
-358 -1385 0
-360 -1389 0
-360 -1396 0
-358 -1435 0
-360 -1440 0
-357 -1450 0
-358 -1451 0
-360 -1455 0
-355 -1457 0
-359 -1461 0
-360 -1463 0
-355 -1465 0
-356 -1466 0
-359 -1468 0
-360 -1470 0
-355 -1472 0
-356 -1473 0
-358 -1474 0
-359 -1478 0
-360 -1479 0
-355 -1500 0
-357 -1501 0
-358 -1502 0
-359 -1505 0
-360 -1507 0
-355 -1509 0
-357 -1510 0
-359 -1513 0
-360 -1514 0
-355 -1516 0
-358 -1517 0
-359 -1520 0
-360 -1521 0
-355 -1523 0
-359 -1525 0
-360 -1527 0
-356 -1536 0
-357 -1537 0
-359 -1540 0
-360 -1541 0
-355 -1556 0
-358 -1557 0
-359 -1559 0
-360 -1561 0
-356 -1577 0
-358 -1578 0
-359 -1582 0
-360 -1584 0
-356 -1587 0
-359 -1589 0
-360 -1590 0
-356 -1610 0
-358 -1611 0
-359 -1613 0
-360 -1615 0
-356 -1616 0
-358 -1617 0
-359 -1621 0
-360 -1622 0
-355 -1643 0
-359 -1646 0
-360 -1647 0
-356 -1675 0
-358 -1676 0
-359 -1680 0
-360 -1681 0
-356 -1682 0
-359 -1685 0
-360 -1687 0
-357 -1703 0
-358 -1704 0
-359 -1706 0
-360 -1707 0
-357 -1710 0
-359 -1714 0
-360 -1716 0
-358 -1743 0
-359 -1746 0
-360 -1747 0
-357 -1748 0
-358 -1749 0
-359 -1752 0
-360 -1753 0
-357 -1754 0
-358 -1755 0
-359 -1758 0
-360 -1760 0
-358 -1762 0
-359 -1765 0
-360 -1767 0
-358 -1769 0
-359 -1771 0
-360 -1773 0
-356 -1794 0
-359 -1797 0
-360 -1799 0
-357 -1813 0
-358 -1814 0
-359 -1817 0
-360 -1819 0
-357 -1820 0
-359 -1823 0
-360 -1825 0
-358 -1827 0
-359 -1829 0
-360 -1831 0
-357 -1839 0
-359 -1842 0
-360 -1844 0
-355 -1846 0
-360 -1850 0
-355 -1852 0
-358 -1853 0
-360 -1857 0
-356 -1859 0
-358 -1860 0
-360 -1864 0
-357 -1873 0
-360 -1877 0
-358 -1901 0
-360 -1904 0
-360 -1911 0
-360 -1937 0
-358 -1945 0
-360 -1950 0
-361 -415 0
-362 -416 0
-365 -418 0
-367 -419 0
-369 -421 0
-362 -509 0
-364 -511 0
-365 -512 0
-366 -513 0
-369 -515 0
-363 -516 0
-364 -518 0
-365 -519 0
-369 -521 0
-361 -545 0
-363 -546 0
-365 -548 0
-368 -549 0
-369 -551 0
-362 -588 0
-363 -589 0
-364 -591 0
-368 -592 0
-369 -593 0
-362 -606 0
-365 -608 0
-368 -609 0
-369 -611 0
-362 -627 0
-364 -629 0
-365 -630 0
-366 -631 0
-368 -632 0
-369 -634 0
-361 -635 0
-362 -636 0
-364 -638 0
-365 -639 0
-368 -640 0
-369 -641 0
-363 -643 0
-364 -645 0
-365 -646 0
-368 -647 0
-369 -648 0
-362 -656 0
-365 -658 0
-366 -659 0
-367 -660 0
-369 -661 0
-363 -662 0
-365 -664 0
-366 -665 0
-367 -666 0
-369 -668 0
-361 -688 0
-363 -689 0
-364 -691 0
-365 -692 0
-366 -693 0
-367 -694 0
-368 -695 0
-369 -696 0
-362 -697 0
-365 -698 0
-366 -699 0
-367 -700 0
-368 -701 0
-369 -703 0
-363 -704 0
-365 -706 0
-367 -707 0
-368 -708 0
-369 -709 0
-363 -724 0
-365 -725 0
-366 -726 0
-368 -727 0
-369 -729 0
-361 -756 0
-364 -758 0
-368 -759 0
-369 -761 0
-366 -782 0
-367 -783 0
-368 -784 0
-369 -786 0
-362 -794 0
-364 -795 0
-365 -796 0
-366 -797 0
-368 -798 0
-369 -799 0
-361 -800 0
-362 -801 0
-364 -802 0
-365 -803 0
-369 -805 0
-362 -807 0
-363 -808 0
-364 -810 0
-365 -811 0
-368 -812 0
-369 -814 0
-361 -831 0
-362 -833 0
-363 -834 0
-364 -835 0
-365 -836 0
-369 -837 0
-361 -851 0
-362 -852 0
-363 -853 0
-364 -854 0
-365 -855 0
-366 -856 0
-367 -857 0
-368 -858 0
-369 -860 0
-362 -868 0
-363 -869 0
-365 -870 0
-367 -871 0
-369 -873 0
-363 -881 0
-364 -882 0
-365 -883 0
-367 -884 0
-369 -885 0
-363 -886 0
-365 -887 0
-366 -888 0
-368 -889 0
-369 -891 0
-362 -893 0
-366 -895 0
-368 -896 0
-369 -897 0
-361 -898 0
-362 -900 0
-369 -903 0
-361 -919 0
-362 -921 0
-364 -922 0
-366 -923 0
-369 -925 0
-361 -926 0
-362 -928 0
-364 -929 0
-368 -930 0
-369 -931 0
-361 -932 0
-363 -934 0
-364 -936 0
-369 -937 0
-361 -947 0
-362 -949 0
-366 -950 0
-367 -951 0
-368 -952 0
-369 -953 0
-361 -954 0
-362 -955 0
-366 -956 0
-367 -957 0
-369 -959 0
-361 -960 0
-363 -962 0
-366 -964 0
-367 -965 0
-368 -966 0
-369 -968 0
-361 -982 0
-363 -984 0
-364 -985 0
-366 -986 0
-367 -987 0
-369 -988 0
-362 -990 0
-364 -991 0
-366 -992 0
-367 -993 0
-369 -994 0
-363 -1014 0
-366 -1015 0
-367 -1016 0
-369 -1018 0
-361 -1019 0
-363 -1021 0
-367 -1022 0
-368 -1023 0
-369 -1024 0
-363 -1035 0
-364 -1036 0
-366 -1037 0
-368 -1038 0
-369 -1039 0
-361 -1040 0
-363 -1041 0
-364 -1042 0
-366 -1043 0
-369 -1045 0
-361 -1068 0
-362 -1069 0
-364 -1071 0
-365 -1072 0
-368 -1073 0
-369 -1074 0
-362 -1126 0
-365 -1127 0
-366 -1128 0
-367 -1129 0
-368 -1130 0
-369 -1132 0
-363 -1133 0
-365 -1135 0
-367 -1136 0
-368 -1137 0
-369 -1138 0
-361 -1152 0
-363 -1153 0
-364 -1154 0
-365 -1155 0
-367 -1156 0
-369 -1158 0
-361 -1166 0
-365 -1169 0
-368 -1170 0
-369 -1171 0
-361 -1185 0
-364 -1188 0
-365 -1189 0
-369 -1191 0
-361 -1205 0
-365 -1207 0
-366 -1208 0
-367 -1209 0
-368 -1210 0
-369 -1211 0
-364 -1222 0
-365 -1223 0
-366 -1224 0
-367 -1225 0
-368 -1226 0
-369 -1228 0
-361 -1229 0
-364 -1231 0
-365 -1232 0
-367 -1233 0
-369 -1234 0
-361 -1247 0
-365 -1249 0
-366 -1250 0
-367 -1251 0
-369 -1253 0
-361 -1254 0
-365 -1255 0
-367 -1256 0
-368 -1257 0
-369 -1259 0
-361 -1266 0
-364 -1267 0
-365 -1268 0
-366 -1269 0
-368 -1270 0
-369 -1272 0
-362 -1273 0
-364 -1275 0
-367 -1276 0
-369 -1278 0
-361 -1293 0
-362 -1294 0
-364 -1295 0
-367 -1296 0
-368 -1297 0
-369 -1299 0
-363 -1301 0
-364 -1303 0
-367 -1304 0
-369 -1306 0
-363 -1314 0
-364 -1316 0
-366 -1317 0
-368 -1318 0
-369 -1320 0
-363 -1328 0
-364 -1329 0
-367 -1330 0
-368 -1331 0
-369 -1333 0
-364 -1349 0
-365 -1350 0
-366 -1351 0
-367 -1352 0
-369 -1353 0
-361 -1354 0
-364 -1357 0
-365 -1358 0
-367 -1359 0
-368 -1360 0
-369 -1362 0
-365 -1372 0
-366 -1373 0
-368 -1374 0
-369 -1376 0
-361 -1377 0
-365 -1379 0
-366 -1380 0
-369 -1382 0
-361 -1397 0
-364 -1398 0
-365 -1399 0
-366 -1400 0
-368 -1401 0
-369 -1403 0
-365 -1417 0
-366 -1418 0
-367 -1419 0
-368 -1420 0
-369 -1421 0
-364 -1435 0
-365 -1436 0
-366 -1437 0
-367 -1438 0
-369 -1440 0
-364 -1443 0
-365 -1444 0
-367 -1445 0
-368 -1446 0
-369 -1448 0
-362 -1457 0
-365 -1458 0
-366 -1459 0
-367 -1460 0
-368 -1461 0
-369 -1463 0
-362 -1472 0
-363 -1473 0
-364 -1474 0
-365 -1475 0
-366 -1476 0
-367 -1477 0
-368 -1478 0
-369 -1479 0
-362 -1487 0
-363 -1488 0
-365 -1489 0
-367 -1490 0
-369 -1492 0
-362 -1500 0
-364 -1502 0
-366 -1503 0
-367 -1504 0
-368 -1505 0
-369 -1507 0
-362 -1523 0
-367 -1524 0
-368 -1525 0
-369 -1527 0
-361 -1528 0
-362 -1530 0
-366 -1531 0
-367 -1532 0
-368 -1533 0
-369 -1534 0
-363 -1536 0
-366 -1538 0
-367 -1539 0
-368 -1540 0
-369 -1541 0
-362 -1550 0
-364 -1551 0
-366 -1552 0
-367 -1553 0
-369 -1554 0
-361 -1555 0
-362 -1556 0
-364 -1557 0
-367 -1558 0
-368 -1559 0
-369 -1561 0
-363 -1563 0
-364 -1565 0
-367 -1566 0
-369 -1568 0
-361 -1585 0
-363 -1587 0
-367 -1588 0
-368 -1589 0
-369 -1590 0
-363 -1598 0
-364 -1599 0
-366 -1600 0
-368 -1601 0
-369 -1602 0
-363 -1610 0
-364 -1611 0
-367 -1612 0
-368 -1613 0
-369 -1615 0
-362 -1630 0
-365 -1632 0
-366 -1633 0
-367 -1634 0
-369 -1635 0
-363 -1682 0
-365 -1683 0
-366 -1684 0
-368 -1685 0
-369 -1687 0
-364 -1690 0
-365 -1691 0
-366 -1692 0
-367 -1693 0
-369 -1694 0
-361 -1708 0
-365 -1711 0
-366 -1712 0
-367 -1713 0
-368 -1714 0
-369 -1716 0
-361 -1730 0
-364 -1732 0
-365 -1733 0
-367 -1734 0
-369 -1735 0
-364 -1749 0
-365 -1750 0
-366 -1751 0
-368 -1752 0
-369 -1753 0
-364 -1769 0
-365 -1770 0
-368 -1771 0
-369 -1773 0
-361 -1774 0
-364 -1775 0
-365 -1776 0
-366 -1777 0
-368 -1778 0
-369 -1780 0
-364 -1782 0
-365 -1783 0
-366 -1784 0
-367 -1785 0
-369 -1787 0
-362 -1788 0
-364 -1789 0
-366 -1790 0
-368 -1791 0
-369 -1793 0
-365 -1802 0
-366 -1803 0
-368 -1804 0
-369 -1806 0
-364 -1814 0
-365 -1815 0
-367 -1816 0
-368 -1817 0
-369 -1819 0
-361 -1832 0
-365 -1833 0
-367 -1834 0
-368 -1835 0
-369 -1837 0
-362 -1846 0
-365 -1847 0
-366 -1848 0
-369 -1850 0
-363 -1859 0
-364 -1860 0
-365 -1861 0
-366 -1862 0
-369 -1864 0
-363 -1866 0
-365 -1867 0
-367 -1868 0
-368 -1869 0
-369 -1871 0
-361 -1879 0
-366 -1881 0
-368 -1882 0
-369 -1884 0
-364 -1893 0
-366 -1894 0
-367 -1895 0
-368 -1896 0
-369 -1898 0
-361 -1899 0
-364 -1901 0
-367 -1902 0
-369 -1904 0
-365 -1926 0
-366 -1927 0
-368 -1928 0
-369 -1930 0
-364 -1945 0
-365 -1946 0
-366 -1947 0
-367 -1948 0
-369 -1950 0
-364 -1953 0
-366 -1954 0
-367 -1955 0
-368 -1956 0
-369 -1958 0
-372 -504 0
-375 -508 0
-372 -510 0
-373 -513 0
-375 -515 0
-370 -522 0
-374 -526 0
-375 -528 0
-374 -576 0
-375 -577 0
-372 -607 0
-374 -609 0
-375 -611 0
-372 -613 0
-373 -615 0
-374 -617 0
-375 -618 0
-372 -621 0
-374 -624 0
-375 -625 0
-372 -628 0
-373 -631 0
-374 -632 0
-375 -634 0
-370 -635 0
-372 -637 0
-374 -640 0
-375 -641 0
-372 -650 0
-373 -653 0
-375 -655 0
-372 -657 0
-373 -659 0
-375 -661 0
-370 -669 0
-373 -672 0
-374 -673 0
-375 -674 0
-371 -704 0
-372 -705 0
-374 -708 0
-375 -709 0
-371 -710 0
-372 -711 0
-373 -713 0
-374 -714 0
-375 -716 0
-371 -717 0
-373 -720 0
-374 -722 0
-375 -723 0
-371 -724 0
-373 -726 0
-374 -727 0
-375 -729 0
-372 -774 0
-374 -778 0
-375 -780 0
-372 -781 0
-373 -782 0
-374 -784 0
-375 -786 0
-374 -790 0
-375 -792 0
-373 -797 0
-374 -798 0
-375 -799 0
-370 -800 0
-375 -805 0
-371 -869 0
-375 -873 0
-371 -875 0
-373 -878 0
-375 -879 0
-372 -894 0
-373 -895 0
-374 -896 0
-375 -897 0
-370 -898 0
-372 -901 0
-375 -903 0
-370 -904 0
-372 -907 0
-373 -910 0
-375 -912 0
-370 -913 0
-375 -918 0
-370 -919 0
-373 -923 0
-375 -925 0
-370 -926 0
-374 -930 0
-375 -931 0
-370 -938 0
-373 -943 0
-374 -944 0
-375 -946 0
-370 -947 0
-373 -950 0
-374 -952 0
-375 -953 0
-370 -954 0
-373 -956 0
-375 -959 0
-371 -1008 0
-372 -1009 0
-373 -1011 0
-375 -1012 0
-371 -1014 0
-373 -1015 0
-375 -1018 0
-370 -1019 0
-371 -1021 0
-374 -1023 0
-375 -1024 0
-370 -1025 0
-371 -1027 0
-373 -1030 0
-374 -1031 0
-375 -1033 0
-371 -1035 0
-373 -1037 0
-374 -1038 0
-375 -1039 0
-370 -1040 0
-371 -1041 0
-373 -1043 0
-375 -1045 0
-370 -1046 0
-371 -1047 0
-373 -1049 0
-375 -1051 0
-374 -1124 0
-375 -1125 0
-373 -1128 0
-374 -1130 0
-375 -1132 0
-372 -1221 0
-373 -1224 0
-374 -1226 0
-375 -1228 0
-370 -1229 0
-372 -1230 0
-375 -1234 0
-370 -1235 0
-372 -1236 0
-373 -1238 0
-375 -1240 0
-370 -1241 0
-375 -1246 0
-370 -1247 0
-373 -1250 0
-375 -1253 0
-370 -1254 0
-374 -1257 0
-375 -1259 0
-370 -1260 0
-373 -1262 0
-374 -1264 0
-375 -1265 0
-370 -1266 0
-373 -1269 0
-374 -1270 0
-375 -1272 0
-372 -1274 0
-375 -1278 0
-372 -1280 0
-373 -1283 0
-375 -1285 0
-375 -1292 0
-370 -1293 0
-374 -1297 0
-375 -1299 0
-373 -1309 0
-374 -1311 0
-375 -1313 0
-371 -1328 0
-374 -1331 0
-375 -1333 0
-371 -1334 0
-373 -1337 0
-374 -1339 0
-375 -1340 0
-372 -1342 0
-373 -1344 0
-375 -1346 0
-372 -1348 0
-373 -1351 0
-375 -1353 0
-370 -1354 0
-372 -1356 0
-374 -1360 0
-375 -1362 0
-370 -1363 0
-372 -1365 0
-373 -1367 0
-374 -1368 0
-375 -1369 0
-372 -1371 0
-373 -1373 0
-374 -1374 0
-375 -1376 0
-370 -1377 0
-372 -1378 0
-373 -1380 0
-375 -1382 0
-370 -1383 0
-372 -1384 0
-373 -1386 0
-375 -1389 0
-370 -1390 0
-373 -1393 0
-375 -1396 0
-370 -1397 0
-373 -1400 0
-374 -1401 0
-375 -1403 0
-373 -1459 0
-374 -1461 0
-375 -1463 0
-372 -1501 0
-373 -1503 0
-374 -1505 0
-375 -1507 0
-372 -1510 0
-374 -1513 0
-375 -1514 0
-373 -1519 0
-374 -1520 0
-375 -1521 0
-374 -1525 0
-375 -1527 0
-370 -1528 0
-373 -1531 0
-374 -1533 0
-375 -1534 0
-375 -1548 0
-373 -1552 0
-375 -1554 0
-370 -1555 0
-374 -1559 0
-375 -1561 0
-371 -1598 0
-373 -1600 0
-374 -1601 0
-375 -1602 0
-371 -1604 0
-374 -1607 0
-375 -1609 0
-371 -1610 0
-374 -1613 0
-375 -1615 0
-371 -1616 0
-373 -1619 0
-374 -1621 0
-375 -1622 0
-372 -1748 0
-373 -1751 0
-374 -1752 0
-375 -1753 0
-372 -1754 0
-374 -1758 0
-375 -1760 0
-373 -1763 0
-374 -1765 0
-375 -1767 0
-374 -1771 0
-375 -1773 0
-370 -1774 0
-373 -1777 0
-374 -1778 0
-375 -1780 0
-373 -1784 0
-375 -1787 0
-373 -1790 0
-374 -1791 0
-375 -1793 0
-372 -1801 0
-373 -1803 0
-374 -1804 0
-375 -1806 0
-372 -1808 0
-374 -1811 0
-375 -1812 0
-372 -1813 0
-374 -1817 0
-375 -1819 0
-372 -1820 0
-373 -1821 0
-374 -1823 0
-375 -1825 0
-374 -1829 0
-375 -1831 0
-370 -1832 0
-374 -1835 0
-375 -1837 0
-373 -1848 0
-375 -1850 0
-375 -1857 0
-372 -1873 0
-375 -1877 0
-370 -1879 0
-373 -1881 0
-374 -1882 0
-375 -1884 0
-370 -1885 0
-374 -1890 0
-375 -1891 0
-373 -1894 0
-374 -1896 0
-375 -1898 0
-370 -1899 0
-375 -1904 0
-370 -1905 0
-373 -1908 0
-375 -1911 0
-373 -1947 0
-375 -1950 0
-373 -1954 0
-374 -1956 0
-375 -1958 0
-376 -416 0
-380 -419 0
-381 -420 0
-382 -421 0
-376 -460 0
-378 -462 0
-379 -463 0
-380 -464 0
-381 -466 0
-382 -467 0
-377 -469 0
-378 -471 0
-380 -472 0
-382 -474 0
-377 -498 0
-380 -500 0
-381 -501 0
-382 -502 0
-376 -588 0
-377 -589 0
-378 -591 0
-382 -593 0
-377 -600 0
-378 -602 0
-381 -604 0
-382 -605 0
-376 -606 0
-381 -610 0
-382 -611 0
-376 -627 0
-378 -629 0
-379 -631 0
-381 -633 0
-382 -634 0
-376 -636 0
-378 -638 0
-382 -641 0
-377 -643 0
-378 -645 0
-382 -648 0
-376 -649 0
-378 -651 0
-379 -653 0
-381 -654 0
-382 -655 0
-376 -670 0
-379 -672 0
-382 -674 0
-377 -676 0
-379 -679 0
-382 -680 0
-377 -682 0
-381 -686 0
-382 -687 0
-377 -710 0
-378 -712 0
-379 -713 0
-381 -715 0
-382 -716 0
-377 -724 0
-379 -726 0
-381 -728 0
-382 -729 0
-378 -758 0
-381 -760 0
-382 -761 0
-378 -763 0
-379 -765 0
-382 -767 0
-376 -794 0
-378 -795 0
-379 -797 0
-382 -799 0
-376 -801 0
-378 -802 0
-381 -804 0
-382 -805 0
-376 -807 0
-377 -808 0
-378 -810 0
-381 -813 0
-382 -814 0
-376 -833 0
-377 -834 0
-378 -835 0
-382 -837 0
-376 -839 0
-377 -840 0
-379 -841 0
-381 -843 0
-382 -844 0
-376 -846 0
-377 -847 0
-381 -849 0
-382 -850 0
-377 -863 0
-378 -864 0
-381 -866 0
-382 -867 0
-376 -874 0
-377 -875 0
-378 -876 0
-379 -878 0
-382 -879 0
-377 -886 0
-379 -888 0
-381 -890 0
-382 -891 0
-376 -893 0
-379 -895 0
-382 -897 0
-376 -900 0
-381 -902 0
-382 -903 0
-376 -921 0
-378 -922 0
-379 -923 0
-381 -924 0
-382 -925 0
-376 -928 0
-378 -929 0
-382 -931 0
-377 -934 0
-378 -936 0
-382 -937 0
-376 -940 0
-378 -941 0
-379 -943 0
-381 -945 0
-382 -946 0
-377 -971 0
-379 -973 0
-382 -975 0
-377 -978 0
-381 -980 0
-382 -981 0
-376 -996 0
-379 -998 0
-381 -999 0
-382 -1000 0
-376 -1002 0
-379 -1004 0
-382 -1006 0
-377 -1008 0
-379 -1011 0
-382 -1012 0
-377 -1027 0
-378 -1028 0
-379 -1030 0
-381 -1032 0
-382 -1033 0
-377 -1035 0
-378 -1036 0
-379 -1037 0
-382 -1039 0
-377 -1041 0
-378 -1042 0
-379 -1043 0
-381 -1044 0
-382 -1045 0
-376 -1069 0
-378 -1071 0
-382 -1074 0
-377 -1107 0
-381 -1111 0
-382 -1112 0
-382 -1171 0
-378 -1188 0
-381 -1190 0
-382 -1191 0
-378 -1195 0
-379 -1196 0
-382 -1198 0
-378 -1201 0
-381 -1203 0
-382 -1204 0
-379 -1238 0
-381 -1239 0
-382 -1240 0
-378 -1267 0
-379 -1269 0
-381 -1271 0
-382 -1272 0
-376 -1273 0
-378 -1275 0
-380 -1276 0
-381 -1277 0
-382 -1278 0
-376 -1294 0
-378 -1295 0
-380 -1296 0
-381 -1298 0
-382 -1299 0
-377 -1301 0
-378 -1303 0
-380 -1304 0
-381 -1305 0
-382 -1306 0
-376 -1307 0
-379 -1309 0
-380 -1310 0
-381 -1312 0
-382 -1313 0
-377 -1322 0
-378 -1323 0
-380 -1325 0
-381 -1326 0
-382 -1327 0
-377 -1334 0
-378 -1335 0
-379 -1337 0
-380 -1338 0
-382 -1340 0
-378 -1349 0
-379 -1351 0
-380 -1352 0
-382 -1353 0
-378 -1357 0
-380 -1359 0
-381 -1361 0
-382 -1362 0
-379 -1393 0
-380 -1394 0
-381 -1395 0
-382 -1396 0
-379 -1405 0
-380 -1406 0
-381 -1408 0
-382 -1409 0
-378 -1423 0
-379 -1424 0
-380 -1425 0
-381 -1427 0
-382 -1428 0
-378 -1430 0
-379 -1431 0
-380 -1432 0
-382 -1434 0
-378 -1435 0
-379 -1437 0
-380 -1438 0
-381 -1439 0
-382 -1440 0
-378 -1443 0
-380 -1445 0
-381 -1447 0
-382 -1448 0
-376 -1457 0
-379 -1459 0
-380 -1460 0
-381 -1462 0
-382 -1463 0
-376 -1472 0
-377 -1473 0
-378 -1474 0
-379 -1476 0
-380 -1477 0
-382 -1479 0
-376 -1480 0
-377 -1481 0
-378 -1482 0
-379 -1483 0
-380 -1484 0
-381 -1485 0
-382 -1486 0
-377 -1494 0
-379 -1495 0
-380 -1496 0
-381 -1497 0
-382 -1498 0
-376 -1500 0
-378 -1502 0
-379 -1503 0
-380 -1504 0
-381 -1506 0
-382 -1507 0
-376 -1523 0
-380 -1524 0
-381 -1526 0
-382 -1527 0
-376 -1530 0
-379 -1531 0
-380 -1532 0
-382 -1534 0
-377 -1536 0
-379 -1538 0
-380 -1539 0
-382 -1541 0
-376 -1543 0
-378 -1544 0
-380 -1546 0
-381 -1547 0
-382 -1548 0
-377 -1570 0
-378 -1571 0
-380 -1573 0
-382 -1574 0
-377 -1577 0
-378 -1578 0
-379 -1580 0
-380 -1581 0
-381 -1583 0
-382 -1584 0
-376 -1591 0
-378 -1592 0
-380 -1594 0
-382 -1596 0
-377 -1604 0
-380 -1606 0
-381 -1608 0
-382 -1609 0
-377 -1610 0
-378 -1611 0
-380 -1612 0
-381 -1614 0
-382 -1615 0
-376 -1630 0
-379 -1633 0
-380 -1634 0
-382 -1635 0
-377 -1660 0
-378 -1662 0
-379 -1664 0
-380 -1665 0
-381 -1667 0
-382 -1668 0
-378 -1690 0
-379 -1692 0
-380 -1693 0
-382 -1694 0
-379 -1712 0
-380 -1713 0
-381 -1715 0
-382 -1716 0
-378 -1719 0
-380 -1720 0
-382 -1722 0
-378 -1725 0
-379 -1726 0
-380 -1727 0
-381 -1728 0
-382 -1729 0
-378 -1743 0
-379 -1744 0
-380 -1745 0
-382 -1747 0
-378 -1755 0
-380 -1757 0
-381 -1759 0
-382 -1760 0
-378 -1782 0
-379 -1784 0
-380 -1785 0
-381 -1786 0
-382 -1787 0
-376 -1788 0
-378 -1789 0
-379 -1790 0
-381 -1792 0
-382 -1793 0
-377 -1794 0
-379 -1796 0
-381 -1798 0
-382 -1799 0
-379 -1803 0
-381 -1805 0
-382 -1806 0
-378 -1827 0
-381 -1830 0
-382 -1831 0
-376 -1846 0
-379 -1848 0
-381 -1849 0
-382 -1850 0
-377 -1859 0
-378 -1860 0
-379 -1862 0
-381 -1863 0
-382 -1864 0
-379 -1881 0
-381 -1883 0
-382 -1884 0
-378 -1913 0
-381 -1916 0
-382 -1917 0
-379 -1927 0
-381 -1929 0
-382 -1930 0
-378 -1939 0
-379 -1941 0
-381 -1943 0
-382 -1944 0
-378 -1953 0
-379 -1954 0
-380 -1955 0
-381 -1957 0
-382 -1958 0
-383 -410 0
-388 -414 0
-383 -453 0
-385 -456 0
-388 -458 0
-384 -469 0
-386 -472 0
-388 -474 0
-384 -491 0
-385 -494 0
-388 -496 0
-383 -578 0
-384 -579 0
-385 -582 0
-386 -584 0
-387 -586 0
-388 -587 0
-383 -594 0
-384 -595 0
-385 -596 0
-386 -597 0
-387 -598 0
-388 -599 0
-384 -600 0
-385 -603 0
-387 -604 0
-388 -605 0
-383 -612 0
-386 -616 0
-388 -618 0
-383 -620 0
-385 -622 0
-386 -623 0
-388 -625 0
-383 -636 0
-385 -639 0
-388 -641 0
-384 -643 0
-385 -646 0
-388 -648 0
-383 -656 0
-385 -658 0
-386 -660 0
-388 -661 0
-383 -670 0
-385 -671 0
-388 -674 0
-384 -676 0
-385 -678 0
-388 -680 0
-384 -689 0
-385 -692 0
-386 -694 0
-388 -696 0
-384 -704 0
-385 -706 0
-386 -707 0
-388 -709 0
-384 -717 0
-385 -719 0
-386 -721 0
-388 -723 0
-385 -751 0
-386 -753 0
-388 -755 0
-385 -764 0
-388 -767 0
-385 -771 0
-386 -772 0
-388 -773 0
-383 -788 0
-386 -789 0
-387 -791 0
-388 -792 0
-383 -801 0
-385 -803 0
-387 -804 0
-388 -805 0
-383 -807 0
-384 -808 0
-385 -811 0
-387 -813 0
-388 -814 0
-383 -824 0
-384 -825 0
-386 -828 0
-387 -829 0
-388 -830 0
-383 -839 0
-384 -840 0
-387 -843 0
-388 -844 0
-383 -852 0
-384 -853 0
-385 -855 0
-386 -857 0
-387 -859 0
-388 -860 0
-384 -863 0
-387 -866 0
-388 -867 0
-383 -868 0
-384 -869 0
-385 -870 0
-386 -871 0
-387 -872 0
-388 -873 0
-384 -886 0
-385 -887 0
-387 -890 0
-388 -891 0
-383 -893 0
-388 -897 0
-383 -906 0
-385 -909 0
-386 -911 0
-388 -912 0
-383 -915 0
-385 -916 0
-386 -917 0
-388 -918 0
-383 -928 0
-388 -931 0
-384 -934 0
-388 -937 0
-383 -949 0
-386 -951 0
-388 -953 0
-384 -971 0
-385 -972 0
-388 -975 0
-384 -984 0
-386 -987 0
-388 -988 0
-383 -990 0
-386 -993 0
-388 -994 0
-383 -1002 0
-385 -1003 0
-388 -1006 0
-384 -1008 0
-385 -1010 0
-388 -1012 0
-384 -1021 0
-386 -1022 0
-388 -1024 0
-384 -1035 0
-388 -1039 0
-384 -1047 0
-385 -1048 0
-386 -1050 0
-388 -1051 0
-383 -1060 0
-385 -1062 0
-386 -1064 0
-387 -1066 0
-388 -1067 0
-383 -1100 0
-386 -1102 0
-387 -1104 0
-388 -1105 0
-384 -1107 0
-385 -1109 0
-387 -1111 0
-388 -1112 0
-384 -1114 0
-386 -1116 0
-387 -1118 0
-388 -1119 0
-385 -1169 0
-388 -1171 0
-386 -1183 0
-388 -1184 0
-388 -1198 0
-385 -1207 0
-386 -1209 0
-388 -1211 0
-385 -1215 0
-386 -1216 0
-388 -1218 0
-385 -1232 0
-386 -1233 0
-388 -1234 0
-386 -1263 0
-388 -1265 0
-383 -1279 0
-385 -1282 0
-387 -1284 0
-388 -1285 0
-383 -1287 0
-385 -1289 0
-386 -1290 0
-387 -1291 0
-388 -1292 0
-383 -1294 0
-386 -1296 0
-387 -1298 0
-388 -1299 0
-384 -1301 0
-386 -1304 0
-387 -1305 0
-388 -1306 0
-384 -1328 0
-386 -1330 0
-387 -1332 0
-388 -1333 0
-385 -1350 0
-386 -1352 0
-388 -1353 0
-388 -1369 0
-385 -1412 0
-388 -1415 0
-385 -1417 0
-386 -1419 0
-388 -1421 0
-386 -1432 0
-388 -1434 0
-385 -1444 0
-386 -1445 0
-387 -1447 0
-388 -1448 0
-386 -1453 0
-387 -1454 0
-388 -1455 0
-383 -1457 0
-385 -1458 0
-386 -1460 0
-387 -1462 0
-388 -1463 0
-383 -1465 0
-384 -1466 0
-387 -1469 0
-388 -1470 0
-383 -1487 0
-384 -1488 0
-385 -1489 0
-386 -1490 0
-387 -1491 0
-388 -1492 0
-384 -1494 0
-386 -1496 0
-387 -1497 0
-388 -1498 0
-383 -1509 0
-385 -1511 0
-386 -1512 0
-388 -1514 0
-383 -1516 0
-385 -1518 0
-388 -1521 0
-383 -1530 0
-386 -1532 0
-388 -1534 0
-384 -1536 0
-386 -1539 0
-388 -1541 0
-383 -1550 0
-386 -1553 0
-388 -1554 0
-384 -1570 0
-385 -1572 0
-386 -1573 0
-388 -1574 0
-384 -1587 0
-386 -1588 0
-388 -1590 0
-383 -1591 0
-385 -1593 0
-386 -1594 0
-388 -1596 0
-384 -1598 0
-388 -1602 0
-384 -1616 0
-385 -1618 0
-386 -1620 0
-388 -1622 0
-383 -1623 0
-385 -1626 0
-387 -1628 0
-388 -1629 0
-383 -1654 0
-387 -1658 0
-388 -1659 0
-384 -1660 0
-385 -1663 0
-386 -1665 0
-387 -1667 0
-388 -1668 0
-384 -1670 0
-387 -1673 0
-388 -1674 0
-385 -1691 0
-386 -1693 0
-388 -1694 0
-388 -1707 0
-386 -1720 0
-388 -1722 0
-385 -1733 0
-386 -1734 0
-388 -1735 0
-385 -1739 0
-388 -1741 0
-386 -1745 0
-388 -1747 0
-385 -1750 0
-388 -1753 0
-383 -1788 0
-387 -1792 0
-388 -1793 0
-386 -1810 0
-388 -1812 0
-386 -1841 0
-387 -1843 0
-388 -1844 0
-383 -1852 0
-385 -1854 0
-386 -1855 0
-387 -1856 0
-388 -1857 0
-384 -1859 0
-385 -1861 0
-387 -1863 0
-388 -1864 0
-385 -1888 0
-386 -1889 0
-388 -1891 0
-385 -1919 0
-386 -1921 0
-388 -1923 0
-385 -1926 0
-387 -1929 0
-388 -1930 0
-385 -1933 0
-386 -1935 0
-387 -1936 0
-388 -1937 0
-385 -1946 0
-386 -1948 0
-387 -1949 0
-388 -1950 0
-390 -454 0
-391 -456 0
-395 -458 0
-390 -461 0
-392 -463 0
-393 -464 0
-394 -466 0
-395 -467 0
-391 -478 0
-394 -479 0
-395 -480 0
-391 -574 0
-393 -575 0
-395 -577 0
-389 -595 0
-391 -596 0
-393 -597 0
-394 -598 0
-395 -599 0
-390 -607 0
-391 -608 0
-394 -610 0
-395 -611 0
-390 -613 0
-392 -615 0
-393 -616 0
-395 -618 0
-390 -621 0
-391 -622 0
-393 -623 0
-395 -625 0
-390 -628 0
-391 -630 0
-392 -631 0
-394 -633 0
-395 -634 0
-390 -637 0
-391 -639 0
-395 -641 0
-389 -662 0
-390 -663 0
-391 -664 0
-392 -665 0
-393 -666 0
-394 -667 0
-395 -668 0
-389 -676 0
-390 -677 0
-391 -678 0
-392 -679 0
-395 -680 0
-389 -682 0
-390 -683 0
-391 -684 0
-394 -686 0
-395 -687 0
-389 -689 0
-390 -690 0
-391 -692 0
-392 -693 0
-393 -694 0
-395 -696 0
-391 -698 0
-392 -699 0
-393 -700 0
-394 -702 0
-395 -703 0
-389 -717 0
-391 -719 0
-392 -720 0
-393 -721 0
-395 -723 0
-389 -724 0
-391 -725 0
-392 -726 0
-394 -728 0
-395 -729 0
-390 -762 0
-391 -764 0
-392 -765 0
-395 -767 0
-390 -769 0
-391 -771 0
-393 -772 0
-395 -773 0
-393 -789 0
-394 -791 0
-395 -792 0
-391 -796 0
-392 -797 0
-395 -799 0
-391 -803 0
-394 -804 0
-395 -805 0
-389 -840 0
-392 -841 0
-394 -843 0
-395 -844 0
-389 -847 0
-394 -849 0
-395 -850 0
-389 -853 0
-391 -855 0
-392 -856 0
-393 -857 0
-394 -859 0
-395 -860 0
-390 -894 0
-392 -895 0
-395 -897 0
-390 -901 0
-394 -902 0
-395 -903 0
-390 -907 0
-391 -909 0
-392 -910 0
-393 -911 0
-395 -912 0
-391 -916 0
-393 -917 0
-395 -918 0
-392 -923 0
-394 -924 0
-395 -925 0
-395 -931 0
-389 -962 0
-390 -963 0
-392 -964 0
-393 -965 0
-394 -967 0
-395 -968 0
-389 -971 0
-391 -972 0
-392 -973 0
-395 -975 0
-389 -978 0
-391 -979 0
-394 -980 0
-395 -981 0
-389 -984 0
-392 -986 0
-393 -987 0
-395 -988 0
-392 -992 0
-393 -993 0
-395 -994 0
-391 -997 0
-392 -998 0
-394 -999 0
-395 -1000 0
-391 -1003 0
-392 -1004 0
-395 -1006 0
-389 -1035 0
-392 -1037 0
-395 -1039 0
-389 -1041 0
-392 -1043 0
-394 -1044 0
-395 -1045 0
-389 -1047 0
-391 -1048 0
-392 -1049 0
-393 -1050 0
-395 -1051 0
-393 -1102 0
-394 -1104 0
-395 -1105 0
-390 -1194 0
-392 -1196 0
-395 -1198 0
-390 -1200 0
-394 -1203 0
-395 -1204 0
-390 -1206 0
-391 -1207 0
-392 -1208 0
-393 -1209 0
-395 -1211 0
-391 -1215 0
-393 -1216 0
-395 -1218 0
-392 -1262 0
-393 -1263 0
-395 -1265 0
-391 -1268 0
-392 -1269 0
-394 -1271 0
-395 -1272 0
-390 -1274 0
-393 -1276 0
-394 -1277 0
-395 -1278 0
-390 -1280 0
-391 -1282 0
-392 -1283 0
-394 -1284 0
-395 -1285 0
-391 -1289 0
-393 -1290 0
-394 -1291 0
-395 -1292 0
-393 -1296 0
-394 -1298 0
-395 -1299 0
-389 -1314 0
-390 -1315 0
-392 -1317 0
-394 -1319 0
-395 -1320 0
-389 -1322 0
-391 -1324 0
-393 -1325 0
-394 -1326 0
-395 -1327 0
-390 -1342 0
-392 -1344 0
-394 -1345 0
-395 -1346 0
-390 -1348 0
-391 -1350 0
-392 -1351 0
-393 -1352 0
-395 -1353 0
-390 -1356 0
-391 -1358 0
-393 -1359 0
-394 -1361 0
-395 -1362 0
-390 -1365 0
-392 -1367 0
-395 -1369 0
-390 -1404 0
-392 -1405 0
-393 -1406 0
-394 -1408 0
-395 -1409 0
-390 -1410 0
-391 -1412 0
-392 -1413 0
-395 -1415 0
-391 -1417 0
-392 -1418 0
-393 -1419 0
-395 -1421 0
-392 -1424 0
-393 -1425 0
-394 -1427 0
-395 -1428 0
-392 -1431 0
-393 -1432 0
-395 -1434 0
-391 -1458 0
-392 -1459 0
-393 -1460 0
-394 -1462 0
-395 -1463 0
-389 -1481 0
-392 -1483 0
-393 -1484 0
-394 -1485 0
-395 -1486 0
-389 -1488 0
-391 -1489 0
-393 -1490 0
-394 -1491 0
-395 -1492 0
-390 -1501 0
-392 -1503 0
-393 -1504 0
-394 -1506 0
-395 -1507 0
-390 -1510 0
-391 -1511 0
-393 -1512 0
-395 -1514 0
-391 -1518 0
-392 -1519 0
-395 -1521 0
-393 -1524 0
-394 -1526 0
-395 -1527 0
-392 -1531 0
-393 -1532 0
-395 -1534 0
-389 -1563 0
-390 -1564 0
-393 -1566 0
-394 -1567 0
-395 -1568 0
-389 -1570 0
-391 -1572 0
-393 -1573 0
-395 -1574 0
-389 -1577 0
-391 -1579 0
-392 -1580 0
-393 -1581 0
-394 -1583 0
-395 -1584 0
-389 -1587 0
-393 -1588 0
-395 -1590 0
-391 -1593 0
-393 -1594 0
-395 -1596 0
-389 -1610 0
-393 -1612 0
-394 -1614 0
-395 -1615 0
-389 -1616 0
-391 -1618 0
-392 -1619 0
-393 -1620 0
-395 -1622 0
-392 -1656 0
-394 -1658 0
-395 -1659 0
-390 -1718 0
-393 -1720 0
-395 -1722 0
-390 -1724 0
-392 -1726 0
-393 -1727 0
-394 -1728 0
-395 -1729 0
-390 -1731 0
-391 -1733 0
-393 -1734 0
-395 -1735 0
-391 -1739 0
-392 -1740 0
-395 -1741 0
-392 -1744 0
-393 -1745 0
-395 -1747 0
-391 -1783 0
-392 -1784 0
-393 -1785 0
-394 -1786 0
-395 -1787 0
-392 -1790 0
-394 -1792 0
-395 -1793 0
-389 -1794 0
-391 -1795 0
-392 -1796 0
-394 -1798 0
-395 -1799 0
-390 -1801 0
-391 -1802 0
-392 -1803 0
-394 -1805 0
-395 -1806 0
-390 -1808 0
-393 -1810 0
-395 -1812 0
-391 -1847 0
-392 -1848 0
-394 -1849 0
-395 -1850 0
-391 -1854 0
-393 -1855 0
-394 -1856 0
-395 -1857 0
-389 -1866 0
-391 -1867 0
-393 -1868 0
-394 -1870 0
-395 -1871 0
-390 -1873 0
-391 -1874 0
-393 -1875 0
-394 -1876 0
-395 -1877 0
-392 -1881 0
-394 -1883 0
-395 -1884 0
-391 -1888 0
-393 -1889 0
-395 -1891 0
-391 -1914 0
-394 -1916 0
-395 -1917 0
-391 -1919 0
-392 -1920 0
-393 -1921 0
-395 -1923 0
-391 -1940 0
-392 -1941 0
-394 -1943 0
-395 -1944 0
-392 -1954 0
-393 -1955 0
-394 -1957 0
-395 -1958 0
-397 -412 0
-401 -414 0
-398 -419 0
-400 -420 0
-401 -421 0
-399 -442 0
-400 -443 0
-401 -444 0
-397 -573 0
-398 -575 0
-399 -576 0
-401 -577 0
-396 -579 0
-397 -581 0
-398 -584 0
-399 -585 0
-400 -586 0
-401 -587 0
-396 -589 0
-397 -591 0
-399 -592 0
-401 -593 0
-398 -623 0
-399 -624 0
-401 -625 0
-397 -629 0
-399 -632 0
-400 -633 0
-401 -634 0
-396 -643 0
-397 -645 0
-399 -647 0
-401 -648 0
-397 -651 0
-400 -654 0
-401 -655 0
-398 -660 0
-401 -661 0
-396 -662 0
-398 -666 0
-400 -667 0
-401 -668 0
-399 -673 0
-401 -674 0
-396 -682 0
-399 -685 0
-400 -686 0
-401 -687 0
-396 -689 0
-397 -691 0
-398 -694 0
-399 -695 0
-401 -696 0
-398 -700 0
-399 -701 0
-400 -702 0
-401 -703 0
-396 -704 0
-398 -707 0
-399 -708 0
-401 -709 0
-396 -710 0
-397 -712 0
-399 -714 0
-400 -715 0
-401 -716 0
-398 -753 0
-399 -754 0
-401 -755 0
-397 -758 0
-399 -759 0
-400 -760 0
-401 -761 0
-398 -789 0
-399 -790 0
-400 -791 0
-401 -792 0
-397 -795 0
-399 -798 0
-401 -799 0
-396 -808 0
-397 -810 0
-399 -812 0
-400 -813 0
-401 -814 0
-396 -825 0
-397 -826 0
-398 -828 0
-400 -829 0
-401 -830 0
-396 -834 0
-397 -835 0
-401 -837 0
-396 -847 0
-399 -848 0
-400 -849 0
-401 -850 0
-396 -853 0
-397 -854 0
-398 -857 0
-399 -858 0
-400 -859 0
-401 -860 0
-396 -869 0
-398 -871 0
-400 -872 0
-401 -873 0
-396 -875 0
-397 -876 0
-401 -879 0
-399 -896 0
-401 -897 0
-398 -917 0
-401 -918 0
-397 -922 0
-400 -924 0
-401 -925 0
-396 -934 0
-397 -936 0
-401 -937 0
-397 -941 0
-399 -944 0
-400 -945 0
-401 -946 0
-398 -951 0
-399 -952 0
-401 -953 0
-396 -962 0
-398 -965 0
-399 -966 0
-400 -967 0
-401 -968 0
-396 -978 0
-400 -980 0
-401 -981 0
-396 -984 0
-397 -985 0
-398 -987 0
-401 -988 0
-397 -991 0
-398 -993 0
-401 -994 0
-400 -999 0
-401 -1000 0
-396 -1008 0
-401 -1012 0
-396 -1021 0
-398 -1022 0
-399 -1023 0
-401 -1024 0
-396 -1027 0
-397 -1028 0
-399 -1031 0
-400 -1032 0
-401 -1033 0
-396 -1041 0
-397 -1042 0
-400 -1044 0
-401 -1045 0
-396 -1047 0
-398 -1050 0
-401 -1051 0
-398 -1064 0
-399 -1065 0
-400 -1066 0
-401 -1067 0
-397 -1071 0
-399 -1073 0
-401 -1074 0
-397 -1084 0
-398 -1087 0
-401 -1088 0
-399 -1170 0
-401 -1171 0
-398 -1183 0
-401 -1184 0
-397 -1188 0
-400 -1190 0
-401 -1191 0
-397 -1201 0
-399 -1202 0
-400 -1203 0
-401 -1204 0
-398 -1209 0
-399 -1210 0
-401 -1211 0
-397 -1231 0
-398 -1233 0
-401 -1234 0
-400 -1239 0
-401 -1240 0
-398 -1256 0
-399 -1257 0
-400 -1258 0
-401 -1259 0
-397 -1288 0
-398 -1290 0
-400 -1291 0
-401 -1292 0
-396 -1301 0
-397 -1303 0
-398 -1304 0
-400 -1305 0
-401 -1306 0
-398 -1310 0
-399 -1311 0
-400 -1312 0
-401 -1313 0
-396 -1314 0
-397 -1316 0
-399 -1318 0
-400 -1319 0
-401 -1320 0
-396 -1322 0
-397 -1323 0
-398 -1325 0
-400 -1326 0
-401 -1327 0
-396 -1328 0
-397 -1329 0
-398 -1330 0
-399 -1331 0
-400 -1332 0
-401 -1333 0
-396 -1334 0
-397 -1335 0
-398 -1338 0
-399 -1339 0
-401 -1340 0
-397 -1349 0
-398 -1352 0
-401 -1353 0
-399 -1374 0
-400 -1375 0
-401 -1376 0
-398 -1394 0
-400 -1395 0
-401 -1396 0
-398 -1419 0
-399 -1420 0
-401 -1421 0
-397 -1423 0
-398 -1425 0
-399 -1426 0
-400 -1427 0
-401 -1428 0
-397 -1435 0
-398 -1438 0
-400 -1439 0
-401 -1440 0
-397 -1443 0
-398 -1445 0
-399 -1446 0
-400 -1447 0
-401 -1448 0
-397 -1451 0
-398 -1453 0
-400 -1454 0
-401 -1455 0
-396 -1466 0
-399 -1468 0
-400 -1469 0
-401 -1470 0
-396 -1473 0
-397 -1474 0
-398 -1477 0
-399 -1478 0
-401 -1479 0
-396 -1481 0
-397 -1482 0
-398 -1484 0
-400 -1485 0
-401 -1486 0
-396 -1488 0
-398 -1490 0
-400 -1491 0
-401 -1492 0
-397 -1517 0
-399 -1520 0
-401 -1521 0
-398 -1524 0
-399 -1525 0
-400 -1526 0
-401 -1527 0
-396 -1536 0
-398 -1539 0
-399 -1540 0
-401 -1541 0
-397 -1544 0
-398 -1546 0
-400 -1547 0
-401 -1548 0
-397 -1551 0
-398 -1553 0
-401 -1554 0
-396 -1563 0
-397 -1565 0
-398 -1566 0
-400 -1567 0
-401 -1568 0
-396 -1577 0
-397 -1578 0
-398 -1581 0
-399 -1582 0
-400 -1583 0
-401 -1584 0
-396 -1587 0
-398 -1588 0
-399 -1589 0
-401 -1590 0
-396 -1598 0
-397 -1599 0
-399 -1601 0
-401 -1602 0
-396 -1604 0
-398 -1606 0
-399 -1607 0
-400 -1608 0
-401 -1609 0
-396 -1610 0
-397 -1611 0
-398 -1612 0
-399 -1613 0
-400 -1614 0
-401 -1615 0
-396 -1616 0
-397 -1617 0
-398 -1620 0
-399 -1621 0
-401 -1622 0
-397 -1625 0
-400 -1628 0
-401 -1629 0
-398 -1634 0
-401 -1635 0
-399 -1646 0
-401 -1647 0
-397 -1690 0
-398 -1693 0
-401 -1694 0
-397 -1704 0
-399 -1706 0
-401 -1707 0
-398 -1713 0
-399 -1714 0
-400 -1715 0
-401 -1716 0
-397 -1725 0
-398 -1727 0
-400 -1728 0
-401 -1729 0
-397 -1732 0
-398 -1734 0
-401 -1735 0
-397 -1743 0
-398 -1745 0
-399 -1746 0
-401 -1747 0
-397 -1749 0
-399 -1752 0
-401 -1753 0
-397 -1755 0
-398 -1757 0
-399 -1758 0
-400 -1759 0
-401 -1760 0
-397 -1775 0
-399 -1778 0
-400 -1779 0
-401 -1780 0
-396 -1794 0
-399 -1797 0
-400 -1798 0
-401 -1799 0
-397 -1827 0
-399 -1829 0
-400 -1830 0
-401 -1831 0
-398 -1841 0
-399 -1842 0
-400 -1843 0
-401 -1844 0
-396 -1859 0
-397 -1860 0
-400 -1863 0
-401 -1864 0
-396 -1866 0
-398 -1868 0
-399 -1869 0
-400 -1870 0
-401 -1871 0
-397 -1893 0
-398 -1895 0
-399 -1896 0
-400 -1897 0
-401 -1898 0
-399 -1928 0
-400 -1929 0
-401 -1930 0
-398 -1935 0
-400 -1936 0
-401 -1937 0
-397 -1939 0
-399 -1942 0
-400 -1943 0
-401 -1944 0
-397 -1945 0
-398 -1948 0
-400 -1949 0
-401 -1950 0
-403 -572 0
-405 -573 0
-406 -576 0
-408 -577 0
-403 -578 0
-404 -580 0
-405 -581 0
-406 -585 0
-407 -586 0
-408 -587 0
-403 -588 0
-404 -590 0
-405 -591 0
-406 -592 0
-408 -593 0
-403 -594 0
-407 -598 0
-408 -599 0
-404 -601 0
-405 -602 0
-407 -604 0
-408 -605 0
-403 -636 0
-404 -637 0
-405 -638 0
-406 -640 0
-408 -641 0
-403 -670 0
-406 -673 0
-408 -674 0
-404 -683 0
-406 -685 0
-407 -686 0
-408 -687 0
-404 -690 0
-405 -691 0
-406 -695 0
-408 -696 0
-403 -697 0
-406 -701 0
-407 -702 0
-408 -703 0
-404 -705 0
-406 -708 0
-408 -709 0
-404 -711 0
-405 -712 0
-406 -714 0
-407 -715 0
-408 -716 0
-405 -718 0
-406 -722 0
-408 -723 0
-406 -727 0
-407 -728 0
-408 -729 0
-403 -801 0
-405 -802 0
-407 -804 0
-408 -805 0
-402 -823 0
-403 -824 0
-405 -826 0
-407 -829 0
-408 -830 0
-402 -832 0
-403 -833 0
-405 -835 0
-408 -837 0
-403 -846 0
-406 -848 0
-407 -849 0
-408 -850 0
-403 -852 0
-405 -854 0
-406 -858 0
-407 -859 0
-408 -860 0
-402 -862 0
-405 -864 0
-406 -865 0
-407 -866 0
-408 -867 0
-403 -868 0
-407 -872 0
-408 -873 0
-403 -874 0
-405 -876 0
-408 -879 0
-402 -880 0
-405 -882 0
-408 -885 0
-406 -889 0
-407 -890 0
-408 -891 0
-402 -927 0
-403 -928 0
-405 -929 0
-406 -930 0
-408 -931 0
-403 -955 0
-407 -958 0
-408 -959 0
-402 -977 0
-407 -980 0
-408 -981 0
-402 -983 0
-405 -985 0
-408 -988 0
-403 -1002 0
-406 -1005 0
-408 -1006 0
-402 -1020 0
-406 -1023 0
-408 -1024 0
-402 -1026 0
-405 -1028 0
-406 -1031 0
-407 -1032 0
-408 -1033 0
-405 -1042 0
-407 -1044 0
-408 -1045 0
-408 -1051 0
-403 -1083 0
-405 -1084 0
-408 -1088 0
-406 -1117 0
-407 -1118 0
-408 -1119 0
-408 -1151 0
-405 -1154 0
-407 -1157 0
-408 -1158 0
-406 -1257 0
-407 -1258 0
-408 -1259 0
-403 -1273 0
-404 -1274 0
-405 -1275 0
-407 -1277 0
-408 -1278 0
-403 -1279 0
-404 -1280 0
-405 -1281 0
-407 -1284 0
-408 -1285 0
-402 -1286 0
-403 -1287 0
-405 -1288 0
-407 -1291 0
-408 -1292 0
-402 -1300 0
-404 -1302 0
-405 -1303 0
-407 -1305 0
-408 -1306 0
-403 -1307 0
-406 -1311 0
-407 -1312 0
-408 -1313 0
-404 -1315 0
-405 -1316 0
-406 -1318 0
-407 -1319 0
-408 -1320 0
-402 -1355 0
-404 -1356 0
-405 -1357 0
-406 -1360 0
-407 -1361 0
-408 -1362 0
-402 -1364 0
-404 -1365 0
-405 -1366 0
-406 -1368 0
-408 -1369 0
-404 -1378 0
-407 -1381 0
-408 -1382 0
-404 -1384 0
-405 -1385 0
-407 -1388 0
-408 -1389 0
-402 -1391 0
-407 -1395 0
-408 -1396 0
-404 -1404 0
-406 -1407 0
-407 -1408 0
-408 -1409 0
-404 -1410 0
-405 -1411 0
-406 -1414 0
-408 -1415 0
-402 -1416 0
-406 -1420 0
-408 -1421 0
-402 -1422 0
-405 -1423 0
-406 -1426 0
-407 -1427 0
-408 -1428 0
-405 -1435 0
-407 -1439 0
-408 -1440 0
-404 -1450 0
-405 -1451 0
-407 -1454 0
-408 -1455 0
-403 -1457 0
-406 -1461 0
-407 -1462 0
-408 -1463 0
-402 -1464 0
-403 -1465 0
-406 -1468 0
-407 -1469 0
-408 -1470 0
-402 -1471 0
-403 -1472 0
-405 -1474 0
-406 -1478 0
-408 -1479 0
-403 -1480 0
-405 -1482 0
-407 -1485 0
-408 -1486 0
-403 -1487 0
-407 -1491 0
-408 -1492 0
-402 -1493 0
-407 -1497 0
-408 -1498 0
-402 -1529 0
-403 -1530 0
-406 -1533 0
-408 -1534 0
-403 -1556 0
-405 -1557 0
-406 -1559 0
-407 -1560 0
-408 -1561 0
-402 -1576 0
-405 -1578 0
-406 -1582 0
-407 -1583 0
-408 -1584 0
-402 -1586 0
-406 -1589 0
-408 -1590 0
-403 -1591 0
-405 -1592 0
-406 -1595 0
-408 -1596 0
-402 -1597 0
-405 -1599 0
-406 -1601 0
-408 -1602 0
-402 -1603 0
-406 -1607 0
-407 -1608 0
-408 -1609 0
-405 -1611 0
-406 -1613 0
-407 -1614 0
-408 -1615 0
-405 -1617 0
-406 -1621 0
-408 -1622 0
-403 -1643 0
-406 -1646 0
-408 -1647 0
-405 -1671 0
-407 -1673 0
-408 -1674 0
-405 -1676 0
-406 -1680 0
-408 -1681 0
-406 -1685 0
-407 -1686 0
-408 -1687 0
-405 -1743 0
-406 -1746 0
-408 -1747 0
-405 -1775 0
-406 -1778 0
-407 -1779 0
-408 -1780 0
-402 -1800 0
-404 -1801 0
-406 -1804 0
-407 -1805 0
-408 -1806 0
-402 -1807 0
-404 -1808 0
-405 -1809 0
-406 -1811 0
-408 -1812 0
-404 -1813 0
-405 -1814 0
-406 -1817 0
-407 -1818 0
-408 -1819 0
-404 -1820 0
-406 -1823 0
-407 -1824 0
-408 -1825 0
-402 -1826 0
-405 -1827 0
-406 -1829 0
-407 -1830 0
-408 -1831 0
-404 -1839 0
-406 -1842 0
-407 -1843 0
-408 -1844 0
-402 -1845 0
-403 -1846 0
-407 -1849 0
-408 -1850 0
-402 -1851 0
-403 -1852 0
-405 -1853 0
-407 -1856 0
-408 -1857 0
-402 -1858 0
-405 -1860 0
-407 -1863 0
-408 -1864 0
-402 -1865 0
-406 -1869 0
-407 -1870 0
-408 -1871 0
-402 -1880 0
-406 -1882 0
-407 -1883 0
-408 -1884 0
-402 -1886 0
-405 -1887 0
-406 -1890 0
-408 -1891 0
-402 -1900 0
-405 -1901 0
-407 -1903 0
-408 -1904 0
-402 -1906 0
-407 -1910 0
-408 -1911 0
-402 -1912 0
-405 -1913 0
-406 -1915 0
-407 -1916 0
-408 -1917 0
-402 -1918 0
-406 -1922 0
-408 -1923 0
-402 -1932 0
-407 -1936 0
-408 -1937 0
-405 -1939 0
-406 -1942 0
-407 -1943 0
-408 -1944 0
-405 -1945 0
-407 -1949 0
-408 -1950 0
-409 -566 0
-412 -568 0
-413 -569 0
-414 -571 0
-410 -572 0
-412 -573 0
-414 -577 0
-410 -588 0
-411 -590 0
-412 -591 0
-414 -593 0
-410 -594 0
-414 -599 0
-411 -601 0
-412 -602 0
-414 -605 0
-410 -627 0
-411 -628 0
-412 -629 0
-413 -631 0
-414 -634 0
-410 -656 0
-411 -657 0
-413 -659 0
-414 -661 0
-409 -669 0
-410 -670 0
-413 -672 0
-414 -674 0
-411 -677 0
-413 -679 0
-414 -680 0
-409 -688 0
-411 -690 0
-412 -691 0
-413 -693 0
-414 -696 0
-410 -697 0
-413 -699 0
-414 -703 0
-411 -711 0
-412 -712 0
-413 -713 0
-414 -716 0
-412 -718 0
-413 -720 0
-414 -723 0
-411 -781 0
-413 -782 0
-414 -786 0
-410 -794 0
-412 -795 0
-413 -797 0
-414 -799 0
-410 -816 0
-412 -818 0
-414 -821 0
-409 -831 0
-410 -833 0
-412 -835 0
-414 -837 0
-410 -839 0
-413 -841 0
-414 -844 0
-409 -851 0
-410 -852 0
-412 -854 0
-413 -856 0
-414 -860 0
-409 -861 0
-412 -864 0
-414 -867 0
-410 -874 0
-412 -876 0
-413 -878 0
-414 -879 0
-412 -882 0
-414 -885 0
-413 -888 0
-414 -891 0
-409 -919 0
-410 -921 0
-412 -922 0
-413 -923 0
-414 -925 0
-409 -947 0
-410 -949 0
-413 -950 0
-414 -953 0
-409 -969 0
-413 -973 0
-414 -975 0
-409 -982 0
-412 -985 0
-413 -986 0
-414 -988 0
-410 -996 0
-413 -998 0
-414 -1000 0
-413 -1015 0
-414 -1018 0
-409 -1025 0
-412 -1028 0
-413 -1030 0
-414 -1033 0
-412 -1036 0
-413 -1037 0
-414 -1039 0
-409 -1046 0
-413 -1049 0
-414 -1051 0
-410 -1126 0
-413 -1128 0
-414 -1132 0
-414 -1145 0
-409 -1152 0
-412 -1154 0
-414 -1158 0
-412 -1160 0
-413 -1162 0
-414 -1165 0
-409 -1247 0
-413 -1250 0
-414 -1253 0
-409 -1266 0
-412 -1267 0
-413 -1269 0
-414 -1272 0
-410 -1279 0
-411 -1280 0
-412 -1281 0
-413 -1283 0
-414 -1285 0
-410 -1287 0
-412 -1288 0
-414 -1292 0
-409 -1293 0
-410 -1294 0
-412 -1295 0
-414 -1299 0
-411 -1302 0
-412 -1303 0
-414 -1306 0
-410 -1307 0
-413 -1309 0
-414 -1313 0
-411 -1315 0
-412 -1316 0
-413 -1317 0
-414 -1320 0
-409 -1321 0
-412 -1323 0
-414 -1327 0
-412 -1329 0
-414 -1333 0
-411 -1348 0
-412 -1349 0
-413 -1351 0
-414 -1353 0
-409 -1363 0
-411 -1365 0
-412 -1366 0
-413 -1367 0
-414 -1369 0
-411 -1371 0
-413 -1373 0
-414 -1376 0
-409 -1383 0
-411 -1384 0
-412 -1385 0
-413 -1386 0
-414 -1389 0
-409 -1390 0
-413 -1393 0
-414 -1396 0
-409 -1397 0
-412 -1398 0
-413 -1400 0
-414 -1403 0
-411 -1410 0
-412 -1411 0
-413 -1413 0
-414 -1415 0
-413 -1418 0
-414 -1421 0
-409 -1429 0
-412 -1430 0
-413 -1431 0
-414 -1434 0
-412 -1435 0
-413 -1437 0
-414 -1440 0
-410 -1472 0
-412 -1474 0
-413 -1476 0
-414 -1479 0
-410 -1487 0
-414 -1492 0
-413 -1495 0
-414 -1498 0
-410 -1523 0
-414 -1527 0
-410 -1550 0
-412 -1551 0
-413 -1552 0
-414 -1554 0
-412 -1571 0
-414 -1574 0
-409 -1585 0
-414 -1590 0
-414 -1609 0
-412 -1617 0
-413 -1619 0
-414 -1622 0
-413 -1684 0
-414 -1687 0
-412 -1769 0
-414 -1773 0
-412 -1782 0
-413 -1784 0
-414 -1787 0
-410 -1788 0
-412 -1789 0
-413 -1790 0
-414 -1793 0
-413 -1796 0
-414 -1799 0
-411 -1808 0
-412 -1809 0
-414 -1812 0
-411 -1820 0
-413 -1821 0
-414 -1825 0
-412 -1827 0
-414 -1831 0
-409 -1832 0
-414 -1837 0
-410 -1852 0
-412 -1853 0
-414 -1857 0
-412 -1860 0
-413 -1862 0
-414 -1864 0
-414 -1871 0
-409 -1885 0
-412 -1887 0
-414 -1891 0
-412 -1893 0
-413 -1894 0
-414 -1898 0
-409 -1905 0
-413 -1908 0
-414 -1911 0
-413 -1920 0
-414 -1923 0
-412 -1953 0
-413 -1954 0
-414 -1958 0
-415 -559 0
-418 -562 0
-419 -563 0
-420 -564 0
-421 -565 0
-416 -572 0
-418 -574 0
-419 -575 0
-421 -577 0
-416 -578 0
-417 -580 0
-418 -582 0
-419 -584 0
-420 -586 0
-421 -587 0
-417 -601 0
-418 -603 0
-420 -604 0
-421 -605 0
-416 -620 0
-417 -621 0
-418 -622 0
-419 -623 0
-421 -625 0
-416 -649 0
-417 -650 0
-418 -652 0
-420 -654 0
-421 -655 0
-415 -669 0
-416 -670 0
-418 -671 0
-421 -674 0
-417 -677 0
-418 -678 0
-421 -680 0
-415 -681 0
-417 -683 0
-418 -684 0
-420 -686 0
-421 -687 0
-416 -697 0
-418 -698 0
-419 -700 0
-420 -702 0
-421 -703 0
-417 -705 0
-418 -706 0
-419 -707 0
-421 -709 0
-418 -725 0
-420 -728 0
-421 -729 0
-416 -730 0
-417 -731 0
-418 -732 0
-419 -734 0
-421 -735 0
-415 -768 0
-417 -769 0
-418 -771 0
-419 -772 0
-421 -773 0
-417 -774 0
-418 -776 0
-419 -777 0
-420 -779 0
-421 -780 0
-416 -788 0
-419 -789 0
-420 -791 0
-421 -792 0
-416 -816 0
-419 -819 0
-421 -821 0
-415 -822 0
-416 -824 0
-419 -828 0
-420 -829 0
-421 -830 0
-416 -839 0
-420 -843 0
-421 -844 0
-415 -845 0
-416 -846 0
-420 -849 0
-421 -850 0
-415 -861 0
-420 -866 0
-421 -867 0
-416 -868 0
-418 -870 0
-419 -871 0
-420 -872 0
-421 -873 0
-418 -883 0
-419 -884 0
-421 -885 0
-418 -887 0
-420 -890 0
-421 -891 0
-415 -913 0
-416 -915 0
-418 -916 0
-419 -917 0
-421 -918 0
-415 -938 0
-416 -940 0
-418 -942 0
-420 -945 0
-421 -946 0
-415 -969 0
-418 -972 0
-421 -975 0
-415 -976 0
-418 -979 0
-420 -980 0
-421 -981 0
-416 -990 0
-419 -993 0
-421 -994 0
-419 -1016 0
-420 -1017 0
-421 -1018 0
-415 -1019 0
-419 -1022 0
-421 -1024 0
-421 -1039 0
-415 -1040 0
-420 -1044 0
-421 -1045 0
-415 -1075 0
-416 -1077 0
-419 -1079 0
-421 -1081 0
-415 -1099 0
-416 -1100 0
-419 -1102 0
-420 -1104 0
-421 -1105 0
-415 -1113 0
-419 -1116 0
-420 -1118 0
-421 -1119 0
-416 -1120 0
-418 -1122 0
-419 -1123 0
-421 -1125 0
-418 -1141 0
-419 -1142 0
-420 -1144 0
-421 -1145 0
-415 -1146 0
-418 -1148 0
-419 -1150 0
-421 -1151 0
-418 -1161 0
-419 -1163 0
-421 -1165 0
-415 -1212 0
-418 -1215 0
-419 -1216 0
-421 -1218 0
-415 -1241 0
-419 -1244 0
-420 -1245 0
-421 -1246 0
-415 -1260 0
-419 -1263 0
-421 -1265 0
-416 -1273 0
-417 -1274 0
-419 -1276 0
-420 -1277 0
-421 -1278 0
-415 -1293 0
-416 -1294 0
-419 -1296 0
-420 -1298 0
-421 -1299 0
-417 -1302 0
-419 -1304 0
-420 -1305 0
-421 -1306 0
-417 -1315 0
-420 -1319 0
-421 -1320 0
-418 -1336 0
-419 -1338 0
-421 -1340 0
-417 -1348 0
-418 -1350 0
-419 -1352 0
-421 -1353 0
-415 -1354 0
-417 -1356 0
-418 -1358 0
-419 -1359 0
-420 -1361 0
-421 -1362 0
-417 -1371 0
-418 -1372 0
-420 -1375 0
-421 -1376 0
-415 -1377 0
-417 -1378 0
-418 -1379 0
-420 -1381 0
-421 -1382 0
-415 -1397 0
-418 -1399 0
-420 -1402 0
-421 -1403 0
-417 -1404 0
-419 -1406 0
-420 -1408 0
-421 -1409 0
-419 -1425 0
-420 -1427 0
-421 -1428 0
-415 -1429 0
-419 -1432 0
-421 -1434 0
-415 -1449 0
-417 -1450 0
-419 -1453 0
-420 -1454 0
-421 -1455 0
-416 -1465 0
-420 -1469 0
-421 -1470 0
-416 -1480 0
-419 -1484 0
-420 -1485 0
-421 -1486 0
-419 -1496 0
-420 -1497 0
-421 -1498 0
-416 -1516 0
-418 -1518 0
-421 -1521 0
-416 -1543 0
-418 -1545 0
-419 -1546 0
-420 -1547 0
-421 -1548 0
-418 -1572 0
-419 -1573 0
-421 -1574 0
-415 -1575 0
-418 -1579 0
-419 -1581 0
-420 -1583 0
-421 -1584 0
-421 -1602 0
-419 -1612 0
-420 -1614 0
-421 -1615 0
-416 -1637 0
-419 -1640 0
-421 -1641 0
-416 -1654 0
-420 -1658 0
-421 -1659 0
-415 -1669 0
-420 -1673 0
-421 -1674 0
-418 -1677 0
-419 -1679 0
-421 -1681 0
-415 -1736 0
-418 -1739 0
-421 -1741 0
-419 -1764 0
-420 -1766 0
-421 -1767 0
-416 -1788 0
-420 -1792 0
-421 -1793 0
-417 -1801 0
-418 -1802 0
-420 -1805 0
-421 -1806 0
-417 -1813 0
-418 -1815 0
-419 -1816 0
-420 -1818 0
-421 -1819 0
-415 -1832 0
-418 -1833 0
-419 -1834 0
-420 -1836 0
-421 -1837 0
-417 -1839 0
-419 -1841 0
-420 -1843 0
-421 -1844 0
-416 -1846 0
-418 -1847 0
-420 -1849 0
-421 -1850 0
-418 -1861 0
-420 -1863 0
-421 -1864 0
-418 -1867 0
-419 -1868 0
-420 -1870 0
-421 -1871 0
-415 -1879 0
-420 -1883 0
-421 -1884 0
-419 -1895 0
-420 -1897 0
-421 -1898 0
-415 -1899 0
-419 -1902 0
-420 -1903 0
-421 -1904 0
-418 -1914 0
-420 -1916 0
-421 -1917 0
-415 -1931 0
-418 -1933 0
-419 -1935 0
-420 -1936 0
-421 -1937 0
-415 -1938 0
-418 -1940 0
-420 -1943 0
-421 -1944 0
-418 -1946 0
-419 -1948 0
-420 -1949 0
-421 -1950 0
-424 -588 0
-425 -590 0
-426 -591 0
-431 -593 0
-425 -601 0
-426 -602 0
-427 -603 0
-430 -604 0
-431 -605 0
-424 -612 0
-425 -613 0
-426 -614 0
-428 -615 0
-429 -616 0
-431 -618 0
-424 -656 0
-425 -657 0
-427 -658 0
-428 -659 0
-429 -660 0
-431 -661 0
-425 -663 0
-427 -664 0
-428 -665 0
-429 -666 0
-430 -667 0
-431 -668 0
-422 -688 0
-425 -690 0
-426 -691 0
-427 -692 0
-428 -693 0
-429 -694 0
-431 -696 0
-425 -711 0
-426 -712 0
-428 -713 0
-430 -715 0
-431 -716 0
-427 -725 0
-428 -726 0
-430 -728 0
-431 -729 0
-423 -793 0
-424 -794 0
-426 -795 0
-427 -796 0
-428 -797 0
-431 -799 0
-422 -800 0
-424 -801 0
-426 -802 0
-427 -803 0
-430 -804 0
-431 -805 0
-423 -806 0
-424 -807 0
-425 -809 0
-426 -810 0
-427 -811 0
-430 -813 0
-431 -814 0
-422 -831 0
-423 -832 0
-424 -833 0
-426 -835 0
-427 -836 0
-431 -837 0
-423 -838 0
-424 -839 0
-428 -841 0
-430 -843 0
-431 -844 0
-422 -845 0
-424 -846 0
-430 -849 0
-431 -850 0
-422 -861 0
-423 -862 0
-426 -864 0
-430 -866 0
-431 -867 0
-424 -868 0
-427 -870 0
-429 -871 0
-430 -872 0
-431 -873 0
-423 -880 0
-426 -882 0
-427 -883 0
-429 -884 0
-431 -885 0
-422 -904 0
-423 -905 0
-424 -906 0
-425 -907 0
-426 -908 0
-427 -909 0
-428 -910 0
-429 -911 0
-431 -912 0
-422 -947 0
-423 -948 0
-424 -949 0
-428 -950 0
-429 -951 0
-431 -953 0
-422 -954 0
-424 -955 0
-428 -956 0
-429 -957 0
-430 -958 0
-431 -959 0
-422 -960 0
-423 -961 0
-425 -963 0
-428 -964 0
-429 -965 0
-430 -967 0
-431 -968 0
-422 -982 0
-423 -983 0
-426 -985 0
-428 -986 0
-429 -987 0
-431 -988 0
-423 -995 0
-424 -996 0
-427 -997 0
-428 -998 0
-430 -999 0
-431 -1000 0
-422 -1001 0
-424 -1002 0
-427 -1003 0
-428 -1004 0
-431 -1006 0
-423 -1007 0
-425 -1009 0
-427 -1010 0
-428 -1011 0
-431 -1012 0
-422 -1025 0
-423 -1026 0
-426 -1028 0
-427 -1029 0
-428 -1030 0
-430 -1032 0
-431 -1033 0
-423 -1034 0
-426 -1036 0
-428 -1037 0
-431 -1039 0
-422 -1040 0
-426 -1042 0
-428 -1043 0
-430 -1044 0
-431 -1045 0
-422 -1068 0
-424 -1069 0
-425 -1070 0
-426 -1071 0
-427 -1072 0
-431 -1074 0
-422 -1106 0
-425 -1108 0
-427 -1109 0
-430 -1111 0
-431 -1112 0
-424 -1126 0
-427 -1127 0
-428 -1128 0
-429 -1129 0
-430 -1131 0
-431 -1132 0
-425 -1134 0
-427 -1135 0
-429 -1136 0
-431 -1138 0
-422 -1152 0
-426 -1154 0
-427 -1155 0
-429 -1156 0
-430 -1157 0
-431 -1158 0
-426 -1160 0
-427 -1161 0
-428 -1162 0
-429 -1163 0
-431 -1165 0
-422 -1205 0
-425 -1206 0
-427 -1207 0
-428 -1208 0
-429 -1209 0
-431 -1211 0
-422 -1235 0
-425 -1236 0
-427 -1237 0
-428 -1238 0
-430 -1239 0
-431 -1240 0
-422 -1266 0
-426 -1267 0
-427 -1268 0
-428 -1269 0
-430 -1271 0
-431 -1272 0
-424 -1273 0
-425 -1274 0
-426 -1275 0
-429 -1276 0
-430 -1277 0
-431 -1278 0
-422 -1293 0
-424 -1294 0
-426 -1295 0
-429 -1296 0
-430 -1298 0
-431 -1299 0
-423 -1300 0
-425 -1302 0
-426 -1303 0
-429 -1304 0
-430 -1305 0
-431 -1306 0
-424 -1307 0
-427 -1308 0
-428 -1309 0
-429 -1310 0
-430 -1312 0
-431 -1313 0
-422 -1321 0
-426 -1323 0
-427 -1324 0
-429 -1325 0
-430 -1326 0
-431 -1327 0
-426 -1329 0
-429 -1330 0
-430 -1332 0
-431 -1333 0
-423 -1341 0
-425 -1342 0
-426 -1343 0
-428 -1344 0
-430 -1345 0
-431 -1346 0
-422 -1363 0
-423 -1364 0
-425 -1365 0
-426 -1366 0
-428 -1367 0
-431 -1369 0
-423 -1370 0
-425 -1371 0
-427 -1372 0
-428 -1373 0
-430 -1375 0
-431 -1376 0
-422 -1377 0
-425 -1378 0
-427 -1379 0
-428 -1380 0
-430 -1381 0
-431 -1382 0
-422 -1397 0
-426 -1398 0
-427 -1399 0
-428 -1400 0
-430 -1402 0
-431 -1403 0
-425 -1404 0
-428 -1405 0
-429 -1406 0
-430 -1408 0
-431 -1409 0
-423 -1422 0
-426 -1423 0
-428 -1424 0
-429 -1425 0
-430 -1427 0
-431 -1428 0
-422 -1429 0
-426 -1430 0
-428 -1431 0
-429 -1432 0
-431 -1434 0
-426 -1435 0
-427 -1436 0
-428 -1437 0
-429 -1438 0
-430 -1439 0
-431 -1440 0
-425 -1442 0
-426 -1443 0
-427 -1444 0
-429 -1445 0
-430 -1447 0
-431 -1448 0
-424 -1457 0
-427 -1458 0
-428 -1459 0
-429 -1460 0
-430 -1462 0
-431 -1463 0
-423 -1471 0
-424 -1472 0
-426 -1474 0
-427 -1475 0
-428 -1476 0
-429 -1477 0
-431 -1479 0
-424 -1480 0
-426 -1482 0
-428 -1483 0
-429 -1484 0
-430 -1485 0
-431 -1486 0
-423 -1493 0
-428 -1495 0
-429 -1496 0
-430 -1497 0
-431 -1498 0
-423 -1508 0
-424 -1509 0
-425 -1510 0
-427 -1511 0
-429 -1512 0
-431 -1514 0
-423 -1549 0
-424 -1550 0
-426 -1551 0
-428 -1552 0
-429 -1553 0
-431 -1554 0
-422 -1555 0
-424 -1556 0
-426 -1557 0
-429 -1558 0
-430 -1560 0
-431 -1561 0
-423 -1562 0
-425 -1564 0
-426 -1565 0
-429 -1566 0
-430 -1567 0
-431 -1568 0
-422 -1585 0
-423 -1586 0
-429 -1588 0
-431 -1590 0
-424 -1591 0
-426 -1592 0
-427 -1593 0
-429 -1594 0
-431 -1596 0
-423 -1603 0
-427 -1605 0
-429 -1606 0
-430 -1608 0
-431 -1609 0
-426 -1611 0
-429 -1612 0
-430 -1614 0
-431 -1615 0
-424 -1630 0
-425 -1631 0
-427 -1632 0
-428 -1633 0
-429 -1634 0
-431 -1635 0
-425 -1661 0
-426 -1662 0
-427 -1663 0
-428 -1664 0
-429 -1665 0
-430 -1667 0
-431 -1668 0
-427 -1683 0
-428 -1684 0
-430 -1686 0
-431 -1687 0
-422 -1730 0
-425 -1731 0
-426 -1732 0
-427 -1733 0
-429 -1734 0
-431 -1735 0
-425 -1754 0
-426 -1755 0
-427 -1756 0
-429 -1757 0
-430 -1759 0
-431 -1760 0
-426 -1782 0
-427 -1783 0
-428 -1784 0
-429 -1785 0
-430 -1786 0
-431 -1787 0
-424 -1788 0
-426 -1789 0
-428 -1790 0
-430 -1792 0
-431 -1793 0
-427 -1795 0
-428 -1796 0
-430 -1798 0
-431 -1799 0
-423 -1807 0
-425 -1808 0
-426 -1809 0
-429 -1810 0
-431 -1812 0
-425 -1813 0
-426 -1814 0
-427 -1815 0
-429 -1816 0
-430 -1818 0
-431 -1819 0
-422 -1832 0
-427 -1833 0
-429 -1834 0
-430 -1836 0
-431 -1837 0
-423 -1845 0
-424 -1846 0
-427 -1847 0
-428 -1848 0
-430 -1849 0
-431 -1850 0
-423 -1858 0
-426 -1860 0
-427 -1861 0
-428 -1862 0
-430 -1863 0
-431 -1864 0
-423 -1872 0
-425 -1873 0
-427 -1874 0
-429 -1875 0
-430 -1876 0
-431 -1877 0
-422 -1885 0
-423 -1886 0
-426 -1887 0
-427 -1888 0
-429 -1889 0
-431 -1891 0
-423 -1892 0
-426 -1893 0
-428 -1894 0
-429 -1895 0
-430 -1897 0
-431 -1898 0
-422 -1899 0
-423 -1900 0
-426 -1901 0
-429 -1902 0
-430 -1903 0
-431 -1904 0
-423 -1912 0
-426 -1913 0
-427 -1914 0
-430 -1916 0
-431 -1917 0
-423 -1924 0
-425 -1925 0
-427 -1926 0
-428 -1927 0
-430 -1929 0
-431 -1930 0
-422 -1938 0
-426 -1939 0
-427 -1940 0
-428 -1941 0
-430 -1943 0
-431 -1944 0
-426 -1945 0
-427 -1946 0
-428 -1947 0
-429 -1948 0
-430 -1949 0
-431 -1950 0
-423 -1952 0
-426 -1953 0
-428 -1954 0
-429 -1955 0
-430 -1957 0
-431 -1958 0
-434 -578 0
-435 -580 0
-436 -586 0
-437 -587 0
-434 -594 0
-436 -598 0
-437 -599 0
-435 -601 0
-436 -604 0
-437 -605 0
-434 -606 0
-435 -607 0
-436 -610 0
-437 -611 0
-434 -649 0
-435 -650 0
-436 -654 0
-437 -655 0
-435 -663 0
-436 -667 0
-437 -668 0
-432 -681 0
-435 -683 0
-436 -686 0
-437 -687 0
-435 -705 0
-437 -709 0
-437 -723 0
-433 -787 0
-434 -788 0
-436 -791 0
-437 -792 0
-432 -800 0
-434 -801 0
-436 -804 0
-437 -805 0
-433 -806 0
-434 -807 0
-435 -809 0
-436 -813 0
-437 -814 0
-432 -822 0
-433 -823 0
-434 -824 0
-436 -829 0
-437 -830 0
-433 -838 0
-434 -839 0
-436 -843 0
-437 -844 0
-432 -851 0
-434 -852 0
-436 -859 0
-437 -860 0
-432 -861 0
-433 -862 0
-436 -866 0
-437 -867 0
-434 -874 0
-437 -879 0
-433 -880 0
-437 -885 0
-432 -898 0
-433 -899 0
-434 -900 0
-435 -901 0
-436 -902 0
-437 -903 0
-432 -938 0
-433 -939 0
-434 -940 0
-436 -945 0
-437 -946 0
-432 -954 0
-434 -955 0
-436 -958 0
-437 -959 0
-432 -960 0
-433 -961 0
-435 -963 0
-436 -967 0
-437 -968 0
-432 -976 0
-433 -977 0
-436 -980 0
-437 -981 0
-433 -989 0
-434 -990 0
-437 -994 0
-432 -1001 0
-434 -1002 0
-437 -1006 0
-433 -1007 0
-435 -1009 0
-437 -1012 0
-432 -1019 0
-433 -1020 0
-437 -1024 0
-433 -1034 0
-437 -1039 0
-432 -1046 0
-437 -1051 0
-432 -1059 0
-434 -1060 0
-435 -1061 0
-436 -1066 0
-437 -1067 0
-432 -1099 0
-434 -1100 0
-436 -1104 0
-437 -1105 0
-432 -1106 0
-435 -1108 0
-436 -1111 0
-437 -1112 0
-432 -1113 0
-436 -1118 0
-437 -1119 0
-434 -1120 0
-437 -1125 0
-435 -1134 0
-437 -1138 0
-432 -1146 0
-437 -1151 0
-437 -1165 0
-432 -1199 0
-435 -1200 0
-436 -1203 0
-437 -1204 0
-432 -1229 0
-435 -1230 0
-437 -1234 0
-432 -1260 0
-437 -1265 0
-434 -1279 0
-435 -1280 0
-436 -1284 0
-437 -1285 0
-433 -1286 0
-434 -1287 0
-436 -1291 0
-437 -1292 0
-432 -1293 0
-434 -1294 0
-436 -1298 0
-437 -1299 0
-433 -1300 0
-435 -1302 0
-436 -1305 0
-437 -1306 0
-437 -1340 0
-433 -1341 0
-435 -1342 0
-436 -1345 0
-437 -1346 0
-432 -1354 0
-433 -1355 0
-435 -1356 0
-436 -1361 0
-437 -1362 0
-433 -1370 0
-435 -1371 0
-436 -1375 0
-437 -1376 0
-432 -1383 0
-435 -1384 0
-436 -1388 0
-437 -1389 0
-432 -1390 0
-433 -1391 0
-436 -1395 0
-437 -1396 0
-432 -1397 0
-436 -1402 0
-437 -1403 0
-435 -1410 0
-437 -1415 0
-433 -1416 0
-437 -1421 0
-432 -1429 0
-437 -1434 0
-435 -1442 0
-436 -1447 0
-437 -1448 0
-432 -1449 0
-435 -1450 0
-436 -1454 0
-437 -1455 0
-434 -1457 0
-436 -1462 0
-437 -1463 0
-433 -1464 0
-434 -1465 0
-436 -1469 0
-437 -1470 0
-434 -1487 0
-436 -1491 0
-437 -1492 0
-433 -1493 0
-436 -1497 0
-437 -1498 0
-433 -1499 0
-434 -1500 0
-435 -1501 0
-436 -1506 0
-437 -1507 0
-433 -1542 0
-434 -1543 0
-436 -1547 0
-437 -1548 0
-432 -1555 0
-434 -1556 0
-436 -1560 0
-437 -1561 0
-433 -1562 0
-435 -1564 0
-436 -1567 0
-437 -1568 0
-432 -1575 0
-433 -1576 0
-436 -1583 0
-437 -1584 0
-434 -1591 0
-437 -1596 0
-433 -1597 0
-437 -1602 0
-437 -1622 0
-434 -1623 0
-435 -1624 0
-436 -1628 0
-437 -1629 0
-434 -1654 0
-436 -1658 0
-437 -1659 0
-435 -1661 0
-436 -1667 0
-437 -1668 0
-432 -1669 0
-436 -1673 0
-437 -1674 0
-437 -1681 0
-432 -1723 0
-435 -1724 0
-436 -1728 0
-437 -1729 0
-435 -1748 0
-437 -1753 0
-434 -1788 0
-436 -1792 0
-437 -1793 0
-433 -1800 0
-435 -1801 0
-436 -1805 0
-437 -1806 0
-435 -1820 0
-436 -1824 0
-437 -1825 0
-433 -1826 0
-436 -1830 0
-437 -1831 0
-432 -1832 0
-436 -1836 0
-437 -1837 0
-435 -1839 0
-436 -1843 0
-437 -1844 0
-433 -1851 0
-434 -1852 0
-436 -1856 0
-437 -1857 0
-433 -1858 0
-436 -1863 0
-437 -1864 0
-433 -1872 0
-435 -1873 0
-436 -1876 0
-437 -1877 0
-432 -1879 0
-433 -1880 0
-436 -1883 0
-437 -1884 0
-433 -1892 0
-436 -1897 0
-437 -1898 0
-432 -1905 0
-433 -1906 0
-436 -1910 0
-437 -1911 0
-433 -1918 0
-437 -1923 0
-433 -1924 0
-435 -1925 0
-436 -1929 0
-437 -1930 0
-432 -1931 0
-433 -1932 0
-436 -1936 0
-437 -1937 0
-440 -553 0
-441 -555 0
-442 -556 0
-443 -557 0
-444 -558 0
-439 -594 0
-443 -598 0
-444 -599 0
-440 -601 0
-443 -604 0
-444 -605 0
-439 -649 0
-440 -650 0
-441 -653 0
-443 -654 0
-444 -655 0
-439 -656 0
-440 -657 0
-441 -659 0
-444 -661 0
-440 -663 0
-441 -665 0
-443 -667 0
-444 -668 0
-440 -677 0
-441 -679 0
-444 -680 0
-441 -720 0
-442 -722 0
-444 -723 0
-441 -726 0
-442 -727 0
-443 -728 0
-444 -729 0
-440 -762 0
-441 -765 0
-442 -766 0
-444 -767 0
-439 -788 0
-442 -790 0
-443 -791 0
-444 -792 0
-439 -794 0
-441 -797 0
-442 -798 0
-444 -799 0
-439 -807 0
-440 -809 0
-442 -812 0
-443 -813 0
-444 -814 0
-439 -816 0
-442 -820 0
-444 -821 0
-438 -845 0
-439 -846 0
-442 -848 0
-443 -849 0
-444 -850 0
-438 -851 0
-439 -852 0
-441 -856 0
-442 -858 0
-443 -859 0
-444 -860 0
-438 -861 0
-442 -865 0
-443 -866 0
-444 -867 0
-439 -868 0
-443 -872 0
-444 -873 0
-439 -874 0
-441 -878 0
-444 -879 0
-444 -885 0
-439 -893 0
-440 -894 0
-441 -895 0
-442 -896 0
-444 -897 0
-438 -938 0
-439 -940 0
-441 -943 0
-442 -944 0
-443 -945 0
-444 -946 0
-438 -947 0
-439 -949 0
-441 -950 0
-442 -952 0
-444 -953 0
-438 -960 0
-440 -963 0
-441 -964 0
-442 -966 0
-443 -967 0
-444 -968 0
-438 -969 0
-441 -973 0
-442 -974 0
-444 -975 0
-439 -990 0
-441 -992 0
-444 -994 0
-439 -996 0
-441 -998 0
-443 -999 0
-444 -1000 0
-440 -1009 0
-441 -1011 0
-444 -1012 0
-441 -1015 0
-443 -1017 0
-444 -1018 0
-438 -1040 0
-441 -1043 0
-443 -1044 0
-444 -1045 0
-438 -1046 0
-441 -1049 0
-444 -1051 0
-439 -1053 0
-440 -1054 0
-442 -1057 0
-444 -1058 0
-438 -1099 0
-439 -1100 0
-442 -1103 0
-443 -1104 0
-444 -1105 0
-438 -1106 0
-440 -1108 0
-442 -1110 0
-443 -1111 0
-444 -1112 0
-439 -1120 0
-442 -1124 0
-444 -1125 0
-439 -1126 0
-441 -1128 0
-442 -1130 0
-443 -1131 0
-444 -1132 0
-440 -1134 0
-442 -1137 0
-444 -1138 0
-442 -1143 0
-443 -1144 0
-444 -1145 0
-438 -1192 0
-440 -1194 0
-441 -1196 0
-442 -1197 0
-444 -1198 0
-440 -1221 0
-441 -1224 0
-442 -1226 0
-443 -1227 0
-444 -1228 0
-438 -1260 0
-441 -1262 0
-442 -1264 0
-444 -1265 0
-438 -1266 0
-441 -1269 0
-442 -1270 0
-443 -1271 0
-444 -1272 0
-439 -1273 0
-440 -1274 0
-443 -1277 0
-444 -1278 0
-439 -1279 0
-440 -1280 0
-441 -1283 0
-443 -1284 0
-444 -1285 0
-439 -1287 0
-443 -1291 0
-444 -1292 0
-440 -1302 0
-443 -1305 0
-444 -1306 0
-438 -1321 0
-443 -1326 0
-444 -1327 0
-442 -1331 0
-443 -1332 0
-444 -1333 0
-441 -1337 0
-442 -1339 0
-444 -1340 0
-440 -1342 0
-441 -1344 0
-443 -1345 0
-444 -1346 0
-440 -1348 0
-441 -1351 0
-444 -1353 0
-438 -1377 0
-440 -1378 0
-441 -1380 0
-443 -1381 0
-444 -1382 0
-438 -1383 0
-440 -1384 0
-441 -1386 0
-443 -1388 0
-444 -1389 0
-438 -1390 0
-441 -1393 0
-443 -1395 0
-444 -1396 0
-440 -1404 0
-441 -1405 0
-442 -1407 0
-443 -1408 0
-444 -1409 0
-440 -1410 0
-441 -1413 0
-442 -1414 0
-444 -1415 0
-441 -1418 0
-442 -1420 0
-444 -1421 0
-441 -1424 0
-442 -1426 0
-443 -1427 0
-444 -1428 0
-440 -1442 0
-442 -1446 0
-443 -1447 0
-444 -1448 0
-439 -1480 0
-441 -1483 0
-443 -1485 0
-444 -1486 0
-439 -1487 0
-443 -1491 0
-444 -1492 0
-441 -1495 0
-443 -1497 0
-444 -1498 0
-439 -1543 0
-443 -1547 0
-444 -1548 0
-439 -1550 0
-441 -1552 0
-444 -1554 0
-440 -1564 0
-443 -1567 0
-444 -1568 0
-444 -1574 0
-442 -1613 0
-443 -1614 0
-444 -1615 0
-441 -1619 0
-442 -1621 0
-444 -1622 0
-439 -1654 0
-441 -1656 0
-442 -1657 0
-443 -1658 0
-444 -1659 0
-440 -1661 0
-441 -1664 0
-442 -1666 0
-443 -1667 0
-444 -1668 0
-440 -1718 0
-442 -1721 0
-444 -1722 0
-441 -1784 0
-443 -1786 0
-444 -1787 0
-441 -1796 0
-442 -1797 0
-443 -1798 0
-444 -1799 0
-440 -1813 0
-442 -1817 0
-443 -1818 0
-444 -1819 0
-440 -1820 0
-441 -1821 0
-442 -1823 0
-443 -1824 0
-444 -1825 0
-442 -1829 0
-443 -1830 0
-444 -1831 0
-439 -1846 0
-441 -1848 0
-443 -1849 0
-444 -1850 0
-439 -1852 0
-443 -1856 0
-444 -1857 0
-441 -1862 0
-443 -1863 0
-444 -1864 0
-440 -1873 0
-443 -1876 0
-444 -1877 0
-438 -1899 0
-443 -1903 0
-444 -1904 0
-438 -1905 0
-441 -1908 0
-443 -1910 0
-444 -1911 0
-442 -1915 0
-443 -1916 0
-444 -1917 0
-441 -1920 0
-442 -1922 0
-444 -1923 0
-440 -1925 0
-441 -1927 0
-442 -1928 0
-443 -1929 0
-444 -1930 0
-438 -1938 0
-441 -1941 0
-442 -1942 0
-443 -1943 0
-444 -1944 0
-441 -1947 0
-443 -1949 0
-444 -1950 0
-441 -1954 0
-442 -1956 0
-443 -1957 0
-444 -1958 0
-451 -577 0
-447 -595 0
-450 -598 0
-451 -599 0
-448 -650 0
-449 -653 0
-450 -654 0
-451 -655 0
-448 -657 0
-449 -659 0
-451 -661 0
-445 -669 0
-449 -672 0
-451 -674 0
-449 -699 0
-450 -702 0
-451 -703 0
-447 -717 0
-449 -720 0
-451 -723 0
-447 -724 0
-449 -726 0
-450 -728 0
-451 -729 0
-446 -787 0
-450 -791 0
-451 -792 0
-446 -793 0
-449 -797 0
-451 -799 0
-445 -800 0
-450 -804 0
-451 -805 0
-446 -838 0
-447 -840 0
-449 -841 0
-450 -843 0
-451 -844 0
-445 -845 0
-447 -847 0
-450 -849 0
-451 -850 0
-445 -851 0
-447 -853 0
-449 -856 0
-450 -859 0
-451 -860 0
-447 -869 0
-450 -872 0
-451 -873 0
-447 -875 0
-449 -878 0
-451 -879 0
-447 -886 0
-449 -888 0
-450 -890 0
-451 -891 0
-445 -938 0
-446 -939 0
-449 -943 0
-450 -945 0
-451 -946 0
-445 -947 0
-446 -948 0
-449 -950 0
-451 -953 0
-445 -954 0
-449 -956 0
-450 -958 0
-451 -959 0
-446 -989 0
-449 -992 0
-451 -994 0
-446 -995 0
-449 -998 0
-450 -999 0
-451 -1000 0
-445 -1001 0
-449 -1004 0
-451 -1006 0
-446 -1034 0
-447 -1035 0
-449 -1037 0
-451 -1039 0
-445 -1040 0
-447 -1041 0
-449 -1043 0
-450 -1044 0
-451 -1045 0
-445 -1046 0
-447 -1047 0
-449 -1049 0
-451 -1051 0
-445 -1099 0
-450 -1104 0
-451 -1105 0
-451 -1125 0
-449 -1128 0
-450 -1131 0
-451 -1132 0
-447 -1159 0
-449 -1162 0
-451 -1165 0
-445 -1260 0
-449 -1262 0
-451 -1265 0
-445 -1266 0
-449 -1269 0
-450 -1271 0
-451 -1272 0
-448 -1274 0
-450 -1277 0
-451 -1278 0
-448 -1280 0
-449 -1283 0
-450 -1284 0
-451 -1285 0
-446 -1286 0
-450 -1291 0
-451 -1292 0
-445 -1293 0
-450 -1298 0
-451 -1299 0
-447 -1314 0
-448 -1315 0
-449 -1317 0
-450 -1319 0
-451 -1320 0
-445 -1321 0
-447 -1322 0
-450 -1326 0
-451 -1327 0
-447 -1328 0
-450 -1332 0
-451 -1333 0
-447 -1334 0
-449 -1337 0
-451 -1340 0
-446 -1370 0
-448 -1371 0
-449 -1373 0
-450 -1375 0
-451 -1376 0
-445 -1377 0
-448 -1378 0
-449 -1380 0
-450 -1381 0
-451 -1382 0
-445 -1383 0
-448 -1384 0
-449 -1386 0
-450 -1388 0
-451 -1389 0
-445 -1390 0
-446 -1391 0
-449 -1393 0
-450 -1395 0
-451 -1396 0
-445 -1397 0
-449 -1400 0
-450 -1402 0
-451 -1403 0
-448 -1404 0
-449 -1405 0
-450 -1408 0
-451 -1409 0
-448 -1410 0
-449 -1413 0
-451 -1415 0
-446 -1416 0
-449 -1418 0
-451 -1421 0
-446 -1422 0
-449 -1424 0
-450 -1427 0
-451 -1428 0
-445 -1429 0
-449 -1431 0
-451 -1434 0
-449 -1459 0
-450 -1462 0
-451 -1463 0
-447 -1481 0
-449 -1483 0
-450 -1485 0
-451 -1486 0
-447 -1488 0
-450 -1491 0
-451 -1492 0
-446 -1542 0
-450 -1547 0
-451 -1548 0
-446 -1549 0
-449 -1552 0
-451 -1554 0
-445 -1555 0
-450 -1560 0
-451 -1561 0
-451 -1596 0
-447 -1610 0
-450 -1614 0
-451 -1615 0
-447 -1616 0
-449 -1619 0
-451 -1622 0
-449 -1656 0
-450 -1658 0
-451 -1659 0
-449 -1784 0
-450 -1786 0
-451 -1787 0
-449 -1790 0
-450 -1792 0
-451 -1793 0
-447 -1794 0
-449 -1796 0
-450 -1798 0
-451 -1799 0
-448 -1813 0
-450 -1818 0
-451 -1819 0
-448 -1820 0
-449 -1821 0
-450 -1824 0
-451 -1825 0
-446 -1826 0
-450 -1830 0
-451 -1831 0
-445 -1832 0
-450 -1836 0
-451 -1837 0
-446 -1845 0
-449 -1848 0
-450 -1849 0
-451 -1850 0
-446 -1851 0
-450 -1856 0
-451 -1857 0
-446 -1865 0
-447 -1866 0
-450 -1870 0
-451 -1871 0
-446 -1892 0
-449 -1894 0
-450 -1897 0
-451 -1898 0
-445 -1899 0
-446 -1900 0
-450 -1903 0
-451 -1904 0
-445 -1905 0
-446 -1906 0
-449 -1908 0
-450 -1910 0
-451 -1911 0
-446 -1912 0
-450 -1916 0
-451 -1917 0
-446 -1918 0
-449 -1920 0
-451 -1923 0
-445 -1938 0
-449 -1941 0
-450 -1943 0
-451 -1944 0
-449 -1947 0
-450 -1949 0
-451 -1950 0
-446 -1952 0
-449 -1954 0
-450 -1957 0
-451 -1958 0
-452 -545 0
-454 -547 0
-456 -548 0
-457 -549 0
-458 -551 0
-453 -572 0
-455 -573 0
-456 -574 0
-457 -576 0
-458 -577 0
-453 -578 0
-454 -580 0
-455 -581 0
-456 -582 0
-457 -585 0
-458 -587 0
-454 -601 0
-455 -602 0
-456 -603 0
-458 -605 0
-453 -612 0
-454 -613 0
-455 -614 0
-457 -617 0
-458 -618 0
-453 -627 0
-454 -628 0
-455 -629 0
-456 -630 0
-457 -632 0
-458 -634 0
-452 -635 0
-453 -636 0
-454 -637 0
-455 -638 0
-456 -639 0
-457 -640 0
-458 -641 0
-454 -644 0
-455 -645 0
-456 -646 0
-457 -647 0
-458 -648 0
-452 -688 0
-454 -690 0
-455 -691 0
-456 -692 0
-457 -695 0
-458 -696 0
-453 -697 0
-456 -698 0
-457 -701 0
-458 -703 0
-454 -705 0
-456 -706 0
-457 -708 0
-458 -709 0
-456 -725 0
-457 -727 0
-458 -729 0
-454 -737 0
-455 -738 0
-458 -741 0
-452 -756 0
-454 -757 0
-455 -758 0
-457 -759 0
-458 -761 0
-454 -781 0
-457 -784 0
-458 -786 0
-453 -794 0
-455 -795 0
-456 -796 0
-457 -798 0
-458 -799 0
-452 -800 0
-453 -801 0
-455 -802 0
-456 -803 0
-458 -805 0
-453 -807 0
-454 -809 0
-455 -810 0
-456 -811 0
-457 -812 0
-458 -814 0
-453 -816 0
-455 -818 0
-457 -820 0
-458 -821 0
-452 -822 0
-453 -824 0
-455 -826 0
-458 -830 0
-452 -851 0
-453 -852 0
-455 -854 0
-456 -855 0
-457 -858 0
-458 -860 0
-452 -861 0
-455 -864 0
-457 -865 0
-458 -867 0
-453 -868 0
-456 -870 0
-458 -873 0
-456 -887 0
-457 -889 0
-458 -891 0
-452 -904 0
-453 -906 0
-454 -907 0
-455 -908 0
-456 -909 0
-458 -912 0
-452 -919 0
-453 -921 0
-455 -922 0
-458 -925 0
-452 -926 0
-453 -928 0
-455 -929 0
-457 -930 0
-458 -931 0
-452 -932 0
-454 -935 0
-455 -936 0
-458 -937 0
-452 -982 0
-455 -985 0
-458 -988 0
-453 -996 0
-456 -997 0
-458 -1000 0
-452 -1001 0
-453 -1002 0
-456 -1003 0
-457 -1005 0
-458 -1006 0
-454 -1009 0
-456 -1010 0
-458 -1012 0
-458 -1018 0
-452 -1019 0
-457 -1023 0
-458 -1024 0
-452 -1046 0
-456 -1048 0
-458 -1051 0
-452 -1068 0
-453 -1069 0
-454 -1070 0
-455 -1071 0
-456 -1072 0
-457 -1073 0
-458 -1074 0
-452 -1082 0
-453 -1083 0
-455 -1084 0
-456 -1085 0
-458 -1088 0
-452 -1089 0
-454 -1092 0
-455 -1093 0
-456 -1094 0
-457 -1097 0
-458 -1098 0
-453 -1126 0
-456 -1127 0
-457 -1130 0
-458 -1132 0
-454 -1134 0
-456 -1135 0
-457 -1137 0
-458 -1138 0
-456 -1141 0
-457 -1143 0
-458 -1145 0
-452 -1146 0
-456 -1148 0
-458 -1151 0
-452 -1185 0
-454 -1187 0
-455 -1188 0
-456 -1189 0
-458 -1191 0
-452 -1235 0
-454 -1236 0
-456 -1237 0
-458 -1240 0
-452 -1247 0
-456 -1249 0
-458 -1253 0
-452 -1254 0
-456 -1255 0
-457 -1257 0
-458 -1259 0
-453 -1273 0
-454 -1274 0
-455 -1275 0
-458 -1278 0
-453 -1287 0
-455 -1288 0
-456 -1289 0
-458 -1292 0
-454 -1315 0
-455 -1316 0
-457 -1318 0
-458 -1320 0
-452 -1321 0
-455 -1323 0
-456 -1324 0
-458 -1327 0
-454 -1342 0
-455 -1343 0
-458 -1346 0
-454 -1348 0
-455 -1349 0
-456 -1350 0
-458 -1353 0
-452 -1354 0
-454 -1356 0
-455 -1357 0
-456 -1358 0
-457 -1360 0
-458 -1362 0
-452 -1383 0
-454 -1384 0
-455 -1385 0
-458 -1389 0
-452 -1397 0
-455 -1398 0
-456 -1399 0
-457 -1401 0
-458 -1403 0
-454 -1404 0
-457 -1407 0
-458 -1409 0
-456 -1417 0
-457 -1420 0
-458 -1421 0
-454 -1442 0
-455 -1443 0
-456 -1444 0
-457 -1446 0
-458 -1448 0
-452 -1449 0
-454 -1450 0
-455 -1451 0
-458 -1455 0
-453 -1457 0
-456 -1458 0
-457 -1461 0
-458 -1463 0
-453 -1465 0
-457 -1468 0
-458 -1470 0
-453 -1487 0
-456 -1489 0
-458 -1492 0
-458 -1498 0
-453 -1509 0
-454 -1510 0
-456 -1511 0
-457 -1513 0
-458 -1514 0
-453 -1523 0
-457 -1525 0
-458 -1527 0
-452 -1528 0
-453 -1530 0
-457 -1533 0
-458 -1534 0
-454 -1537 0
-457 -1540 0
-458 -1541 0
-452 -1585 0
-457 -1589 0
-458 -1590 0
-453 -1591 0
-455 -1592 0
-456 -1593 0
-457 -1595 0
-458 -1596 0
-455 -1599 0
-457 -1601 0
-458 -1602 0
-455 -1617 0
-456 -1618 0
-457 -1621 0
-458 -1622 0
-453 -1630 0
-454 -1631 0
-456 -1632 0
-458 -1635 0
-452 -1642 0
-453 -1643 0
-456 -1644 0
-457 -1646 0
-458 -1647 0
-454 -1650 0
-456 -1651 0
-458 -1653 0
-455 -1676 0
-456 -1677 0
-457 -1680 0
-458 -1681 0
-452 -1708 0
-454 -1710 0
-456 -1711 0
-457 -1714 0
-458 -1716 0
-454 -1754 0
-455 -1755 0
-456 -1756 0
-457 -1758 0
-458 -1760 0
-455 -1769 0
-456 -1770 0
-457 -1771 0
-458 -1773 0
-452 -1774 0
-455 -1775 0
-456 -1776 0
-457 -1778 0
-458 -1780 0
-456 -1795 0
-457 -1797 0
-458 -1799 0
-454 -1801 0
-456 -1802 0
-457 -1804 0
-458 -1806 0
-454 -1820 0
-457 -1823 0
-458 -1825 0
-452 -1832 0
-456 -1833 0
-457 -1835 0
-458 -1837 0
-454 -1839 0
-457 -1842 0
-458 -1844 0
-453 -1846 0
-456 -1847 0
-458 -1850 0
-456 -1867 0
-457 -1869 0
-458 -1871 0
-454 -1873 0
-456 -1874 0
-458 -1877 0
-452 -1879 0
-457 -1882 0
-458 -1884 0
-452 -1905 0
-456 -1907 0
-458 -1911 0
-455 -1913 0
-456 -1914 0
-457 -1915 0
-458 -1917 0
-454 -1925 0
-456 -1926 0
-457 -1928 0
-458 -1930 0
-452 -1931 0
-456 -1933 0
-458 -1937 0
-455 -1945 0
-456 -1946 0
-458 -1950 0
-459 -536 0
-461 -538 0
-462 -539 0
-463 -540 0
-464 -541 0
-465 -542 0
-466 -543 0
-467 -544 0
-460 -572 0
-462 -573 0
-464 -575 0
-465 -576 0
-467 -577 0
-460 -588 0
-461 -590 0
-462 -591 0
-465 -592 0
-467 -593 0
-460 -594 0
-464 -597 0
-466 -598 0
-467 -599 0
-461 -601 0
-462 -602 0
-466 -604 0
-467 -605 0
-460 -606 0
-461 -607 0
-465 -609 0
-466 -610 0
-467 -611 0
-460 -620 0
-461 -621 0
-464 -623 0
-465 -624 0
-467 -625 0
-459 -635 0
-460 -636 0
-461 -637 0
-462 -638 0
-465 -640 0
-467 -641 0
-461 -644 0
-462 -645 0
-465 -647 0
-467 -648 0
-459 -681 0
-461 -683 0
-465 -685 0
-466 -686 0
-467 -687 0
-460 -697 0
-463 -699 0
-464 -700 0
-465 -701 0
-466 -702 0
-467 -703 0
-461 -711 0
-462 -712 0
-463 -713 0
-465 -714 0
-466 -715 0
-467 -716 0
-462 -718 0
-463 -720 0
-464 -721 0
-465 -722 0
-467 -723 0
-460 -730 0
-461 -731 0
-463 -733 0
-464 -734 0
-467 -735 0
-461 -737 0
-462 -738 0
-463 -739 0
-464 -740 0
-467 -741 0
-459 -749 0
-461 -750 0
-463 -752 0
-464 -753 0
-465 -754 0
-467 -755 0
-461 -774 0
-462 -775 0
-464 -777 0
-465 -778 0
-466 -779 0
-467 -780 0
-460 -788 0
-464 -789 0
-465 -790 0
-466 -791 0
-467 -792 0
-459 -800 0
-460 -801 0
-462 -802 0
-466 -804 0
-467 -805 0
-460 -807 0
-461 -809 0
-462 -810 0
-465 -812 0
-466 -813 0
-467 -814 0
-460 -816 0
-462 -818 0
-464 -819 0
-465 -820 0
-467 -821 0
-459 -831 0
-460 -833 0
-462 -835 0
-467 -837 0
-459 -845 0
-460 -846 0
-465 -848 0
-466 -849 0
-467 -850 0
-459 -861 0
-462 -864 0
-465 -865 0
-466 -866 0
-467 -867 0
-460 -874 0
-462 -876 0
-463 -878 0
-467 -879 0
-463 -888 0
-465 -889 0
-466 -890 0
-467 -891 0
-459 -898 0
-460 -900 0
-461 -901 0
-466 -902 0
-467 -903 0
-459 -913 0
-460 -915 0
-464 -917 0
-467 -918 0
-459 -926 0
-460 -928 0
-462 -929 0
-465 -930 0
-467 -931 0
-459 -932 0
-461 -935 0
-462 -936 0
-467 -937 0
-459 -976 0
-466 -980 0
-467 -981 0
-460 -990 0
-462 -991 0
-463 -992 0
-464 -993 0
-467 -994 0
-459 -1001 0
-460 -1002 0
-463 -1004 0
-465 -1005 0
-467 -1006 0
-461 -1009 0
-463 -1011 0
-467 -1012 0
-463 -1015 0
-464 -1016 0
-466 -1017 0
-467 -1018 0
-459 -1025 0
-462 -1028 0
-463 -1030 0
-465 -1031 0
-466 -1032 0
-467 -1033 0
-459 -1040 0
-462 -1042 0
-463 -1043 0
-466 -1044 0
-467 -1045 0
-459 -1059 0
-460 -1060 0
-461 -1061 0
-463 -1063 0
-464 -1064 0
-465 -1065 0
-466 -1066 0
-467 -1067 0
-459 -1075 0
-460 -1077 0
-463 -1078 0
-464 -1079 0
-465 -1080 0
-467 -1081 0
-459 -1082 0
-460 -1083 0
-462 -1084 0
-463 -1086 0
-464 -1087 0
-467 -1088 0
-459 -1089 0
-461 -1092 0
-462 -1093 0
-463 -1095 0
-464 -1096 0
-465 -1097 0
-467 -1098 0
-459 -1113 0
-463 -1115 0
-464 -1116 0
-465 -1117 0
-466 -1118 0
-467 -1119 0
-460 -1120 0
-462 -1121 0
-464 -1123 0
-465 -1124 0
-467 -1125 0
-461 -1134 0
-464 -1136 0
-465 -1137 0
-467 -1138 0
-464 -1142 0
-465 -1143 0
-466 -1144 0
-467 -1145 0
-459 -1152 0
-462 -1154 0
-464 -1156 0
-466 -1157 0
-467 -1158 0
-459 -1179 0
-461 -1181 0
-463 -1182 0
-464 -1183 0
-467 -1184 0
-459 -1229 0
-461 -1230 0
-462 -1231 0
-464 -1233 0
-467 -1234 0
-459 -1241 0
-462 -1243 0
-464 -1244 0
-466 -1245 0
-467 -1246 0
-459 -1254 0
-464 -1256 0
-465 -1257 0
-466 -1258 0
-467 -1259 0
-460 -1279 0
-461 -1280 0
-462 -1281 0
-463 -1283 0
-466 -1284 0
-467 -1285 0
-460 -1307 0
-463 -1309 0
-464 -1310 0
-465 -1311 0
-466 -1312 0
-467 -1313 0
-461 -1315 0
-462 -1316 0
-463 -1317 0
-465 -1318 0
-466 -1319 0
-467 -1320 0
-461 -1342 0
-462 -1343 0
-463 -1344 0
-466 -1345 0
-467 -1346 0
-461 -1348 0
-462 -1349 0
-463 -1351 0
-464 -1352 0
-467 -1353 0
-459 -1363 0
-461 -1365 0
-462 -1366 0
-463 -1367 0
-465 -1368 0
-467 -1369 0
-459 -1377 0
-461 -1378 0
-463 -1380 0
-466 -1381 0
-467 -1382 0
-459 -1390 0
-463 -1393 0
-464 -1394 0
-466 -1395 0
-467 -1396 0
-459 -1397 0
-462 -1398 0
-463 -1400 0
-465 -1401 0
-466 -1402 0
-467 -1403 0
-461 -1410 0
-462 -1411 0
-463 -1413 0
-465 -1414 0
-467 -1415 0
-462 -1423 0
-463 -1424 0
-464 -1425 0
-465 -1426 0
-466 -1427 0
-467 -1428 0
-462 -1435 0
-463 -1437 0
-464 -1438 0
-466 -1439 0
-467 -1440 0
-461 -1442 0
-462 -1443 0
-464 -1445 0
-465 -1446 0
-466 -1447 0
-467 -1448 0
-460 -1457 0
-463 -1459 0
-464 -1460 0
-465 -1461 0
-466 -1462 0
-467 -1463 0
-460 -1472 0
-462 -1474 0
-463 -1476 0
-464 -1477 0
-465 -1478 0
-467 -1479 0
-460 -1480 0
-462 -1482 0
-463 -1483 0
-464 -1484 0
-466 -1485 0
-467 -1486 0
-463 -1495 0
-464 -1496 0
-466 -1497 0
-467 -1498 0
-460 -1500 0
-461 -1501 0
-462 -1502 0
-463 -1503 0
-464 -1504 0
-465 -1505 0
-466 -1506 0
-467 -1507 0
-460 -1516 0
-462 -1517 0
-463 -1519 0
-465 -1520 0
-467 -1521 0
-459 -1528 0
-460 -1530 0
-463 -1531 0
-464 -1532 0
-465 -1533 0
-467 -1534 0
-461 -1537 0
-463 -1538 0
-464 -1539 0
-465 -1540 0
-467 -1541 0
-459 -1575 0
-462 -1578 0
-463 -1580 0
-464 -1581 0
-465 -1582 0
-466 -1583 0
-467 -1584 0
-460 -1591 0
-462 -1592 0
-464 -1594 0
-465 -1595 0
-467 -1596 0
-464 -1606 0
-465 -1607 0
-466 -1608 0
-467 -1609 0
-462 -1611 0
-464 -1612 0
-465 -1613 0
-466 -1614 0
-467 -1615 0
-460 -1623 0
-461 -1624 0
-462 -1625 0
-463 -1627 0
-466 -1628 0
-467 -1629 0
-460 -1637 0
-462 -1638 0
-463 -1639 0
-464 -1640 0
-467 -1641 0
-459 -1642 0
-460 -1643 0
-463 -1645 0
-465 -1646 0
-467 -1647 0
-461 -1650 0
-463 -1652 0
-467 -1653 0
-459 -1669 0
-462 -1671 0
-463 -1672 0
-466 -1673 0
-467 -1674 0
-463 -1684 0
-465 -1685 0
-466 -1686 0
-467 -1687 0
-459 -1701 0
-461 -1703 0
-462 -1704 0
-463 -1705 0
-465 -1706 0
-467 -1707 0
-461 -1748 0
-462 -1749 0
-463 -1751 0
-465 -1752 0
-467 -1753 0
-462 -1762 0
-463 -1763 0
-464 -1764 0
-465 -1765 0
-466 -1766 0
-467 -1767 0
-459 -1774 0
-462 -1775 0
-463 -1777 0
-465 -1778 0
-466 -1779 0
-467 -1780 0
-461 -1808 0
-462 -1809 0
-464 -1810 0
-465 -1811 0
-467 -1812 0
-461 -1813 0
-462 -1814 0
-464 -1816 0
-465 -1817 0
-466 -1818 0
-467 -1819 0
-462 -1827 0
-465 -1829 0
-466 -1830 0
-467 -1831 0
-459 -1832 0
-464 -1834 0
-465 -1835 0
-466 -1836 0
-467 -1837 0
-460 -1852 0
-462 -1853 0
-464 -1855 0
-466 -1856 0
-467 -1857 0
-464 -1868 0
-465 -1869 0
-466 -1870 0
-467 -1871 0
-461 -1873 0
-464 -1875 0
-466 -1876 0
-467 -1877 0
-459 -1885 0
-462 -1887 0
-464 -1889 0
-465 -1890 0
-467 -1891 0
-459 -1899 0
-462 -1901 0
-464 -1902 0
-466 -1903 0
-467 -1904 0
-463 -1920 0
-464 -1921 0
-465 -1922 0
-467 -1923 0
-461 -1925 0
-463 -1927 0
-465 -1928 0
-466 -1929 0
-467 -1930 0
-459 -1938 0
-462 -1939 0
-463 -1941 0
-465 -1942 0
-466 -1943 0
-467 -1944 0
-468 -522 0
-471 -524 0
-472 -525 0
-473 -526 0
-474 -528 0
-469 -579 0
-470 -580 0
-471 -581 0
-472 -584 0
-473 -585 0
-474 -587 0
-469 -589 0
-470 -590 0
-471 -591 0
-473 -592 0
-474 -593 0
-469 -595 0
-472 -597 0
-474 -599 0
-470 -621 0
-472 -623 0
-473 -624 0
-474 -625 0
-470 -628 0
-471 -629 0
-473 -632 0
-474 -634 0
-468 -635 0
-470 -637 0
-471 -638 0
-473 -640 0
-474 -641 0
-468 -669 0
-473 -673 0
-474 -674 0
-469 -704 0
-470 -705 0
-472 -707 0
-473 -708 0
-474 -709 0
-469 -710 0
-470 -711 0
-471 -712 0
-473 -714 0
-474 -716 0
-469 -717 0
-471 -718 0
-472 -721 0
-473 -722 0
-474 -723 0
-469 -724 0
-473 -727 0
-474 -729 0
-470 -731 0
-472 -734 0
-474 -735 0
-470 -774 0
-471 -775 0
-472 -777 0
-473 -778 0
-474 -780 0
-470 -781 0
-472 -783 0
-473 -784 0
-474 -786 0
-472 -789 0
-473 -790 0
-474 -792 0
-471 -795 0
-473 -798 0
-474 -799 0
-468 -800 0
-471 -802 0
-474 -805 0
-469 -817 0
-471 -818 0
-472 -819 0
-473 -820 0
-474 -821 0
-468 -822 0
-469 -825 0
-471 -826 0
-472 -828 0
-474 -830 0
-468 -831 0
-469 -834 0
-471 -835 0
-474 -837 0
-469 -869 0
-472 -871 0
-474 -873 0
-469 -875 0
-471 -876 0
-474 -879 0
-469 -881 0
-471 -882 0
-472 -884 0
-474 -885 0
-468 -913 0
-472 -917 0
-474 -918 0
-468 -919 0
-471 -922 0
-474 -925 0
-468 -926 0
-471 -929 0
-473 -930 0
-474 -931 0
-471 -991 0
-472 -993 0
-474 -994 0
-474 -1000 0
-468 -1001 0
-473 -1005 0
-474 -1006 0
-469 -1014 0
-472 -1016 0
-474 -1018 0
-468 -1019 0
-469 -1021 0
-472 -1022 0
-473 -1023 0
-474 -1024 0
-468 -1025 0
-469 -1027 0
-471 -1028 0
-473 -1031 0
-474 -1033 0
-468 -1075 0
-472 -1079 0
-473 -1080 0
-474 -1081 0
-468 -1082 0
-471 -1084 0
-472 -1087 0
-474 -1088 0
-471 -1121 0
-472 -1123 0
-473 -1124 0
-474 -1125 0
-472 -1129 0
-473 -1130 0
-474 -1132 0
-469 -1140 0
-472 -1142 0
-473 -1143 0
-474 -1145 0
-468 -1146 0
-469 -1147 0
-472 -1150 0
-474 -1151 0
-468 -1152 0
-469 -1153 0
-471 -1154 0
-472 -1156 0
-474 -1158 0
-468 -1241 0
-471 -1243 0
-472 -1244 0
-474 -1246 0
-468 -1247 0
-472 -1251 0
-474 -1253 0
-468 -1254 0
-472 -1256 0
-473 -1257 0
-474 -1259 0
-470 -1274 0
-471 -1275 0
-472 -1276 0
-474 -1278 0
-470 -1280 0
-471 -1281 0
-474 -1285 0
-469 -1301 0
-470 -1302 0
-471 -1303 0
-472 -1304 0
-474 -1306 0
-472 -1310 0
-473 -1311 0
-474 -1313 0
-468 -1321 0
-469 -1322 0
-471 -1323 0
-472 -1325 0
-474 -1327 0
-470 -1348 0
-471 -1349 0
-472 -1352 0
-474 -1353 0
-468 -1354 0
-470 -1356 0
-471 -1357 0
-472 -1359 0
-473 -1360 0
-474 -1362 0
-468 -1363 0
-470 -1365 0
-471 -1366 0
-473 -1368 0
-474 -1369 0
-468 -1390 0
-472 -1394 0
-474 -1396 0
-468 -1397 0
-471 -1398 0
-473 -1401 0
-474 -1403 0
-470 -1404 0
-472 -1406 0
-473 -1407 0
-474 -1409 0
-470 -1410 0
-471 -1411 0
-473 -1414 0
-474 -1415 0
-471 -1435 0
-472 -1438 0
-474 -1440 0
-468 -1449 0
-470 -1450 0
-471 -1451 0
-472 -1453 0
-474 -1455 0
-472 -1460 0
-473 -1461 0
-474 -1463 0
-469 -1466 0
-473 -1468 0
-474 -1470 0
-469 -1473 0
-471 -1474 0
-472 -1477 0
-473 -1478 0
-474 -1479 0
-471 -1517 0
-473 -1520 0
-474 -1521 0
-472 -1524 0
-473 -1525 0
-474 -1527 0
-468 -1528 0
-472 -1532 0
-473 -1533 0
-474 -1534 0
-471 -1592 0
-472 -1594 0
-473 -1595 0
-474 -1596 0
-469 -1598 0
-471 -1599 0
-473 -1601 0
-474 -1602 0
-469 -1604 0
-472 -1606 0
-473 -1607 0
-474 -1609 0
-471 -1638 0
-472 -1640 0
-474 -1641 0
-468 -1642 0
-473 -1646 0
-474 -1647 0
-469 -1675 0
-471 -1676 0
-472 -1679 0
-473 -1680 0
-474 -1681 0
-469 -1682 0
-473 -1685 0
-474 -1687 0
-471 -1762 0
-472 -1764 0
-473 -1765 0
-474 -1767 0
-471 -1769 0
-473 -1771 0
-474 -1773 0
-468 -1774 0
-471 -1775 0
-473 -1778 0
-474 -1780 0
-469 -1794 0
-473 -1797 0
-474 -1799 0
-470 -1801 0
-473 -1804 0
-474 -1806 0
-470 -1808 0
-471 -1809 0
-472 -1810 0
-473 -1811 0
-474 -1812 0
-471 -1827 0
-473 -1829 0
-474 -1831 0
-468 -1832 0
-472 -1834 0
-473 -1835 0
-474 -1837 0
-470 -1839 0
-472 -1841 0
-473 -1842 0
-474 -1844 0
-474 -1850 0
-471 -1853 0
-472 -1855 0
-474 -1857 0
-469 -1859 0
-471 -1860 0
-474 -1864 0
-468 -1879 0
-473 -1882 0
-474 -1884 0
-468 -1885 0
-471 -1887 0
-472 -1889 0
-473 -1890 0
-474 -1891 0
-471 -1913 0
-473 -1915 0
-474 -1917 0
-472 -1921 0
-473 -1922 0
-474 -1923 0
-468 -1931 0
-472 -1935 0
-474 -1937 0
-471 -1945 0
-472 -1948 0
-474 -1950 0
-477 -518 0
-478 -519 0
-479 -520 0
-480 -521 0
-476 -578 0
-477 -581 0
-478 -582 0
-479 -586 0
-480 -587 0
-476 -588 0
-477 -591 0
-480 -593 0
-477 -602 0
-478 -603 0
-479 -604 0
-480 -605 0
-476 -606 0
-478 -608 0
-479 -610 0
-480 -611 0
-476 -612 0
-477 -614 0
-480 -618 0
-477 -645 0
-478 -646 0
-480 -648 0
-478 -664 0
-479 -667 0
-480 -668 0
-478 -706 0
-480 -709 0
-477 -712 0
-479 -715 0
-480 -716 0
-477 -738 0
-480 -741 0
-476 -788 0
-479 -791 0
-480 -792 0
-476 -794 0
-477 -795 0
-478 -796 0
-480 -799 0
-475 -800 0
-476 -801 0
-477 -802 0
-478 -803 0
-479 -804 0
-480 -805 0
-476 -816 0
-477 -818 0
-480 -821 0
-475 -822 0
-476 -824 0
-477 -826 0
-479 -829 0
-480 -830 0
-475 -831 0
-476 -833 0
-477 -835 0
-478 -836 0
-480 -837 0
-476 -839 0
-479 -843 0
-480 -844 0
-475 -845 0
-476 -846 0
-479 -849 0
-480 -850 0
-475 -851 0
-476 -852 0
-477 -854 0
-478 -855 0
-479 -859 0
-480 -860 0
-475 -861 0
-477 -864 0
-479 -866 0
-480 -867 0
-476 -893 0
-480 -897 0
-475 -898 0
-476 -900 0
-479 -902 0
-480 -903 0
-475 -904 0
-476 -906 0
-477 -908 0
-478 -909 0
-480 -912 0
-475 -932 0
-477 -936 0
-480 -937 0
-475 -960 0
-479 -967 0
-480 -968 0
-476 -990 0
-477 -991 0
-480 -994 0
-476 -996 0
-478 -997 0
-479 -999 0
-480 -1000 0
-475 -1001 0
-476 -1002 0
-478 -1003 0
-480 -1006 0
-479 -1017 0
-480 -1018 0
-475 -1019 0
-480 -1024 0
-475 -1025 0
-477 -1028 0
-478 -1029 0
-479 -1032 0
-480 -1033 0
-477 -1036 0
-480 -1039 0
-475 -1040 0
-477 -1042 0
-479 -1044 0
-480 -1045 0
-475 -1046 0
-478 -1048 0
-480 -1051 0
-476 -1053 0
-478 -1055 0
-480 -1058 0
-475 -1059 0
-476 -1060 0
-478 -1062 0
-479 -1066 0
-480 -1067 0
-475 -1068 0
-476 -1069 0
-477 -1071 0
-478 -1072 0
-480 -1074 0
-475 -1089 0
-477 -1093 0
-478 -1094 0
-480 -1098 0
-475 -1106 0
-478 -1109 0
-479 -1111 0
-480 -1112 0
-476 -1120 0
-477 -1121 0
-478 -1122 0
-480 -1125 0
-476 -1126 0
-478 -1127 0
-479 -1131 0
-480 -1132 0
-478 -1141 0
-479 -1144 0
-480 -1145 0
-475 -1146 0
-478 -1148 0
-480 -1151 0
-475 -1152 0
-477 -1154 0
-478 -1155 0
-479 -1157 0
-480 -1158 0
-477 -1160 0
-478 -1161 0
-480 -1165 0
-475 -1166 0
-478 -1169 0
-480 -1171 0
-477 -1222 0
-478 -1223 0
-479 -1227 0
-480 -1228 0
-475 -1229 0
-477 -1231 0
-478 -1232 0
-480 -1234 0
-475 -1235 0
-478 -1237 0
-479 -1239 0
-480 -1240 0
-476 -1287 0
-477 -1288 0
-478 -1289 0
-479 -1291 0
-480 -1292 0
-475 -1293 0
-476 -1294 0
-477 -1295 0
-479 -1298 0
-480 -1299 0
-476 -1307 0
-478 -1308 0
-479 -1312 0
-480 -1313 0
-475 -1321 0
-477 -1323 0
-478 -1324 0
-479 -1326 0
-480 -1327 0
-477 -1349 0
-478 -1350 0
-480 -1353 0
-475 -1354 0
-477 -1357 0
-478 -1358 0
-479 -1361 0
-480 -1362 0
-475 -1363 0
-477 -1366 0
-480 -1369 0
-478 -1372 0
-479 -1375 0
-480 -1376 0
-475 -1377 0
-478 -1379 0
-479 -1381 0
-480 -1382 0
-475 -1383 0
-477 -1385 0
-479 -1388 0
-480 -1389 0
-478 -1417 0
-480 -1421 0
-477 -1423 0
-479 -1427 0
-480 -1428 0
-475 -1429 0
-477 -1430 0
-480 -1434 0
-477 -1435 0
-478 -1436 0
-479 -1439 0
-480 -1440 0
-475 -1449 0
-477 -1451 0
-479 -1454 0
-480 -1455 0
-476 -1457 0
-478 -1458 0
-479 -1462 0
-480 -1463 0
-476 -1465 0
-479 -1469 0
-480 -1470 0
-476 -1472 0
-477 -1474 0
-478 -1475 0
-480 -1479 0
-476 -1480 0
-477 -1482 0
-479 -1485 0
-480 -1486 0
-476 -1487 0
-478 -1489 0
-479 -1491 0
-480 -1492 0
-479 -1497 0
-480 -1498 0
-476 -1500 0
-477 -1502 0
-479 -1506 0
-480 -1507 0
-476 -1509 0
-478 -1511 0
-480 -1514 0
-480 -1541 0
-477 -1565 0
-479 -1567 0
-480 -1568 0
-476 -1591 0
-477 -1592 0
-478 -1593 0
-480 -1596 0
-477 -1599 0
-480 -1602 0
-478 -1605 0
-479 -1608 0
-480 -1609 0
-477 -1611 0
-479 -1614 0
-480 -1615 0
-477 -1617 0
-478 -1618 0
-480 -1622 0
-476 -1623 0
-477 -1625 0
-478 -1626 0
-479 -1628 0
-480 -1629 0
-476 -1630 0
-478 -1632 0
-480 -1635 0
-478 -1651 0
-480 -1653 0
-477 -1662 0
-478 -1663 0
-479 -1667 0
-480 -1668 0
-477 -1676 0
-478 -1677 0
-480 -1681 0
-478 -1683 0
-479 -1686 0
-480 -1687 0
-477 -1690 0
-478 -1691 0
-480 -1694 0
-477 -1749 0
-478 -1750 0
-480 -1753 0
-477 -1755 0
-478 -1756 0
-479 -1759 0
-480 -1760 0
-476 -1788 0
-477 -1789 0
-479 -1792 0
-480 -1793 0
-478 -1795 0
-479 -1798 0
-480 -1799 0
-478 -1802 0
-479 -1805 0
-480 -1806 0
-477 -1809 0
-480 -1812 0
-477 -1814 0
-478 -1815 0
-479 -1818 0
-480 -1819 0
-479 -1824 0
-480 -1825 0
-479 -1843 0
-480 -1844 0
-475 -1879 0
-479 -1883 0
-480 -1884 0
-475 -1885 0
-477 -1887 0
-478 -1888 0
-480 -1891 0
-477 -1893 0
-479 -1897 0
-480 -1898 0
-475 -1899 0
-477 -1901 0
-479 -1903 0
-480 -1904 0
-475 -1905 0
-478 -1907 0
-479 -1910 0
-480 -1911 0
-475 -1931 0
-478 -1933 0
-479 -1936 0
-480 -1937 0
-475 -1938 0
-477 -1939 0
-478 -1940 0
-479 -1943 0
-480 -1944 0
-485 -573 0
-486 -574 0
-487 -576 0
-489 -577 0
-483 -579 0
-484 -580 0
-485 -581 0
-486 -582 0
-487 -585 0
-488 -586 0
-489 -587 0
-483 -589 0
-484 -590 0
-485 -591 0
-487 -592 0
-489 -593 0
-484 -607 0
-486 -608 0
-487 -609 0
-488 -610 0
-489 -611 0
-484 -613 0
-485 -614 0
-487 -617 0
-489 -618 0
-481 -635 0
-484 -637 0
-485 -638 0
-486 -639 0
-487 -640 0
-489 -641 0
-486 -698 0
-487 -701 0
-488 -702 0
-489 -703 0
-483 -704 0
-484 -705 0
-486 -706 0
-487 -708 0
-489 -709 0
-483 -710 0
-484 -711 0
-485 -712 0
-487 -714 0
-488 -715 0
-489 -716 0
-482 -787 0
-487 -790 0
-488 -791 0
-489 -792 0
-482 -793 0
-485 -795 0
-486 -796 0
-487 -798 0
-489 -799 0
-482 -806 0
-483 -808 0
-484 -809 0
-485 -810 0
-486 -811 0
-487 -812 0
-488 -813 0
-489 -814 0
-481 -822 0
-482 -823 0
-483 -825 0
-485 -826 0
-488 -829 0
-489 -830 0
-481 -831 0
-482 -832 0
-483 -834 0
-485 -835 0
-486 -836 0
-489 -837 0
-481 -845 0
-483 -847 0
-487 -848 0
-488 -849 0
-489 -850 0
-481 -851 0
-483 -853 0
-485 -854 0
-486 -855 0
-487 -858 0
-488 -859 0
-489 -860 0
-482 -880 0
-483 -881 0
-485 -882 0
-486 -883 0
-489 -885 0
-483 -886 0
-486 -887 0
-487 -889 0
-488 -890 0
-489 -891 0
-481 -898 0
-482 -899 0
-484 -901 0
-488 -902 0
-489 -903 0
-481 -904 0
-482 -905 0
-484 -907 0
-485 -908 0
-486 -909 0
-489 -912 0
-481 -926 0
-482 -927 0
-485 -929 0
-487 -930 0
-489 -931 0
-481 -954 0
-488 -958 0
-489 -959 0
-482 -989 0
-485 -991 0
-489 -994 0
-482 -995 0
-486 -997 0
-488 -999 0
-489 -1000 0
-482 -1007 0
-483 -1008 0
-484 -1009 0
-486 -1010 0
-489 -1012 0
-481 -1019 0
-482 -1020 0
-483 -1021 0
-487 -1023 0
-489 -1024 0
-481 -1025 0
-482 -1026 0
-483 -1027 0
-485 -1028 0
-486 -1029 0
-487 -1031 0
-488 -1032 0
-489 -1033 0
-481 -1040 0
-483 -1041 0
-485 -1042 0
-488 -1044 0
-489 -1045 0
-481 -1046 0
-483 -1047 0
-486 -1048 0
-489 -1051 0
-481 -1059 0
-484 -1061 0
-486 -1062 0
-487 -1065 0
-488 -1066 0
-489 -1067 0
-481 -1068 0
-484 -1070 0
-485 -1071 0
-486 -1072 0
-487 -1073 0
-489 -1074 0
-481 -1082 0
-485 -1084 0
-486 -1085 0
-489 -1088 0
-485 -1121 0
-486 -1122 0
-487 -1124 0
-489 -1125 0
-486 -1127 0
-487 -1130 0
-488 -1131 0
-489 -1132 0
-483 -1133 0
-484 -1134 0
-486 -1135 0
-487 -1137 0
-489 -1138 0
-481 -1146 0
-483 -1147 0
-486 -1148 0
-489 -1151 0
-481 -1152 0
-483 -1153 0
-485 -1154 0
-486 -1155 0
-488 -1157 0
-489 -1158 0
-481 -1229 0
-484 -1230 0
-485 -1231 0
-486 -1232 0
-489 -1234 0
-481 -1235 0
-484 -1236 0
-486 -1237 0
-488 -1239 0
-489 -1240 0
-481 -1254 0
-486 -1255 0
-487 -1257 0
-488 -1258 0
-489 -1259 0
-482 -1286 0
-485 -1288 0
-486 -1289 0
-488 -1291 0
-489 -1292 0
-482 -1300 0
-483 -1301 0
-484 -1302 0
-485 -1303 0
-488 -1305 0
-489 -1306 0
-486 -1308 0
-487 -1311 0
-488 -1312 0
-489 -1313 0
-483 -1314 0
-484 -1315 0
-485 -1316 0
-487 -1318 0
-488 -1319 0
-489 -1320 0
-481 -1321 0
-483 -1322 0
-485 -1323 0
-486 -1324 0
-488 -1326 0
-489 -1327 0
-482 -1341 0
-484 -1342 0
-485 -1343 0
-488 -1345 0
-489 -1346 0
-481 -1354 0
-482 -1355 0
-484 -1356 0
-485 -1357 0
-486 -1358 0
-487 -1360 0
-488 -1361 0
-489 -1362 0
-481 -1363 0
-482 -1364 0
-484 -1365 0
-485 -1366 0
-487 -1368 0
-489 -1369 0
-481 -1377 0
-484 -1378 0
-486 -1379 0
-488 -1381 0
-489 -1382 0
-481 -1383 0
-484 -1384 0
-485 -1385 0
-488 -1388 0
-489 -1389 0
-481 -1397 0
-485 -1398 0
-486 -1399 0
-487 -1401 0
-488 -1402 0
-489 -1403 0
-482 -1416 0
-486 -1417 0
-487 -1420 0
-489 -1421 0
-482 -1422 0
-485 -1423 0
-487 -1426 0
-488 -1427 0
-489 -1428 0
-485 -1435 0
-486 -1436 0
-488 -1439 0
-489 -1440 0
-484 -1442 0
-485 -1443 0
-486 -1444 0
-487 -1446 0
-488 -1447 0
-489 -1448 0
-481 -1449 0
-484 -1450 0
-485 -1451 0
-488 -1454 0
-489 -1455 0
-482 -1464 0
-483 -1466 0
-487 -1468 0
-488 -1469 0
-489 -1470 0
-482 -1471 0
-483 -1473 0
-485 -1474 0
-486 -1475 0
-487 -1478 0
-489 -1479 0
-483 -1481 0
-485 -1482 0
-488 -1485 0
-489 -1486 0
-483 -1488 0
-486 -1489 0
-488 -1491 0
-489 -1492 0
-482 -1499 0
-484 -1501 0
-485 -1502 0
-487 -1505 0
-488 -1506 0
-489 -1507 0
-482 -1508 0
-484 -1510 0
-486 -1511 0
-487 -1513 0
-489 -1514 0
-481 -1528 0
-482 -1529 0
-487 -1533 0
-489 -1534 0
-481 -1555 0
-485 -1557 0
-487 -1559 0
-488 -1560 0
-489 -1561 0
-482 -1597 0
-483 -1598 0
-485 -1599 0
-487 -1601 0
-489 -1602 0
-482 -1603 0
-483 -1604 0
-486 -1605 0
-487 -1607 0
-488 -1608 0
-489 -1609 0
-483 -1610 0
-485 -1611 0
-487 -1613 0
-488 -1614 0
-489 -1615 0
-483 -1616 0
-485 -1617 0
-486 -1618 0
-487 -1621 0
-489 -1622 0
-484 -1624 0
-485 -1625 0
-486 -1626 0
-488 -1628 0
-489 -1629 0
-484 -1631 0
-486 -1632 0
-489 -1635 0
-481 -1642 0
-486 -1644 0
-487 -1646 0
-489 -1647 0
-483 -1675 0
-485 -1676 0
-486 -1677 0
-487 -1680 0
-489 -1681 0
-483 -1682 0
-486 -1683 0
-487 -1685 0
-488 -1686 0
-489 -1687 0
-484 -1748 0
-485 -1749 0
-486 -1750 0
-487 -1752 0
-489 -1753 0
-484 -1754 0
-485 -1755 0
-486 -1756 0
-487 -1758 0
-488 -1759 0
-489 -1760 0
-481 -1774 0
-485 -1775 0
-486 -1776 0
-487 -1778 0
-488 -1779 0
-489 -1780 0
-483 -1794 0
-486 -1795 0
-487 -1797 0
-488 -1798 0
-489 -1799 0
-482 -1800 0
-484 -1801 0
-486 -1802 0
-487 -1804 0
-488 -1805 0
-489 -1806 0
-482 -1807 0
-484 -1808 0
-485 -1809 0
-487 -1811 0
-489 -1812 0
-484 -1813 0
-485 -1814 0
-486 -1815 0
-487 -1817 0
-488 -1818 0
-489 -1819 0
-484 -1820 0
-487 -1823 0
-488 -1824 0
-489 -1825 0
-481 -1832 0
-486 -1833 0
-487 -1835 0
-488 -1836 0
-489 -1837 0
-484 -1839 0
-487 -1842 0
-488 -1843 0
-489 -1844 0
-482 -1858 0
-483 -1859 0
-485 -1860 0
-486 -1861 0
-488 -1863 0
-489 -1864 0
-482 -1865 0
-483 -1866 0
-486 -1867 0
-487 -1869 0
-488 -1870 0
-489 -1871 0
-482 -1872 0
-484 -1873 0
-486 -1874 0
-488 -1876 0
-489 -1877 0
-481 -1879 0
-482 -1880 0
-487 -1882 0
-488 -1883 0
-489 -1884 0
-481 -1885 0
-482 -1886 0
-485 -1887 0
-486 -1888 0
-487 -1890 0
-489 -1891 0
-481 -1899 0
-482 -1900 0
-485 -1901 0
-488 -1903 0
-489 -1904 0
-481 -1905 0
-482 -1906 0
-486 -1907 0
-488 -1910 0
-489 -1911 0
-482 -1924 0
-484 -1925 0
-486 -1926 0
-487 -1928 0
-488 -1929 0
-489 -1930 0
-481 -1931 0
-482 -1932 0
-486 -1933 0
-488 -1936 0
-489 -1937 0
-481 -1938 0
-485 -1939 0
-486 -1940 0
-487 -1942 0
-488 -1943 0
-489 -1944 0
-492 -510 0
-493 -511 0
-494 -512 0
-495 -513 0
-496 -515 0
-493 -573 0
-494 -574 0
-496 -577 0
-491 -589 0
-492 -590 0
-493 -591 0
-496 -593 0
-492 -613 0
-493 -614 0
-495 -615 0
-496 -618 0
-492 -628 0
-493 -629 0
-494 -630 0
-495 -631 0
-496 -634 0
-492 -657 0
-494 -658 0
-495 -659 0
-496 -661 0
-494 -698 0
-495 -699 0
-496 -703 0
-491 -710 0
-492 -711 0
-493 -712 0
-495 -713 0
-496 -716 0
-491 -724 0
-494 -725 0
-495 -726 0
-496 -729 0
-492 -781 0
-495 -782 0
-496 -786 0
-496 -792 0
-490 -800 0
-493 -802 0
-494 -803 0
-496 -805 0
-491 -808 0
-492 -809 0
-493 -810 0
-494 -811 0
-496 -814 0
-491 -817 0
-493 -818 0
-496 -821 0
-490 -831 0
-491 -834 0
-493 -835 0
-494 -836 0
-496 -837 0
-491 -840 0
-495 -841 0
-496 -844 0
-490 -851 0
-491 -853 0
-493 -854 0
-494 -855 0
-495 -856 0
-496 -860 0
-491 -869 0
-494 -870 0
-496 -873 0
-491 -881 0
-493 -882 0
-494 -883 0
-496 -885 0
-491 -886 0
-494 -887 0
-495 -888 0
-496 -891 0
-492 -894 0
-495 -895 0
-496 -897 0
-490 -904 0
-492 -907 0
-493 -908 0
-494 -909 0
-495 -910 0
-496 -912 0
-490 -919 0
-493 -922 0
-495 -923 0
-496 -925 0
-490 -947 0
-495 -950 0
-496 -953 0
-493 -991 0
-495 -992 0
-496 -994 0
-490 -1001 0
-494 -1003 0
-495 -1004 0
-496 -1006 0
-491 -1008 0
-492 -1009 0
-494 -1010 0
-495 -1011 0
-496 -1012 0
-491 -1014 0
-495 -1015 0
-496 -1018 0
-490 -1025 0
-491 -1027 0
-493 -1028 0
-494 -1029 0
-495 -1030 0
-496 -1033 0
-491 -1035 0
-493 -1036 0
-495 -1037 0
-496 -1039 0
-490 -1046 0
-491 -1047 0
-494 -1048 0
-495 -1049 0
-496 -1051 0
-492 -1054 0
-494 -1055 0
-496 -1058 0
-490 -1068 0
-492 -1070 0
-493 -1071 0
-494 -1072 0
-496 -1074 0
-493 -1121 0
-494 -1122 0
-496 -1125 0
-491 -1133 0
-492 -1134 0
-494 -1135 0
-496 -1138 0
-491 -1140 0
-494 -1141 0
-496 -1145 0
-490 -1152 0
-491 -1153 0
-493 -1154 0
-494 -1155 0
-496 -1158 0
-491 -1159 0
-493 -1160 0
-494 -1161 0
-495 -1162 0
-496 -1165 0
-492 -1221 0
-493 -1222 0
-494 -1223 0
-495 -1224 0
-496 -1228 0
-490 -1235 0
-492 -1236 0
-494 -1237 0
-495 -1238 0
-496 -1240 0
-490 -1247 0
-494 -1249 0
-495 -1250 0
-496 -1253 0
-490 -1266 0
-493 -1267 0
-494 -1268 0
-495 -1269 0
-496 -1272 0
-492 -1274 0
-493 -1275 0
-496 -1278 0
-493 -1288 0
-494 -1289 0
-496 -1292 0
-490 -1293 0
-493 -1295 0
-496 -1299 0
-491 -1301 0
-492 -1302 0
-493 -1303 0
-496 -1306 0
-494 -1308 0
-495 -1309 0
-496 -1313 0
-491 -1314 0
-492 -1315 0
-493 -1316 0
-495 -1317 0
-496 -1320 0
-491 -1328 0
-493 -1329 0
-496 -1333 0
-492 -1342 0
-493 -1343 0
-495 -1344 0
-496 -1346 0
-492 -1348 0
-493 -1349 0
-494 -1350 0
-495 -1351 0
-496 -1353 0
-490 -1363 0
-492 -1365 0
-493 -1366 0
-495 -1367 0
-496 -1369 0
-492 -1371 0
-494 -1372 0
-495 -1373 0
-496 -1376 0
-490 -1383 0
-492 -1384 0
-493 -1385 0
-495 -1386 0
-496 -1389 0
-492 -1404 0
-495 -1405 0
-496 -1409 0
-494 -1417 0
-495 -1418 0
-496 -1421 0
-490 -1429 0
-493 -1430 0
-495 -1431 0
-496 -1434 0
-493 -1435 0
-494 -1436 0
-495 -1437 0
-496 -1440 0
-492 -1442 0
-493 -1443 0
-494 -1444 0
-496 -1448 0
-494 -1458 0
-495 -1459 0
-496 -1463 0
-491 -1473 0
-493 -1474 0
-494 -1475 0
-495 -1476 0
-496 -1479 0
-491 -1488 0
-494 -1489 0
-496 -1492 0
-492 -1510 0
-494 -1511 0
-496 -1514 0
-496 -1527 0
-493 -1551 0
-495 -1552 0
-496 -1554 0
-493 -1592 0
-494 -1593 0
-496 -1596 0
-491 -1604 0
-494 -1605 0
-496 -1609 0
-491 -1616 0
-493 -1617 0
-494 -1618 0
-495 -1619 0
-496 -1622 0
-492 -1631 0
-494 -1632 0
-495 -1633 0
-496 -1635 0
-491 -1682 0
-494 -1683 0
-495 -1684 0
-496 -1687 0
-492 -1754 0
-493 -1755 0
-494 -1756 0
-496 -1760 0
-493 -1769 0
-494 -1770 0
-496 -1773 0
-493 -1782 0
-494 -1783 0
-495 -1784 0
-496 -1787 0
-493 -1789 0
-495 -1790 0
-496 -1793 0
-492 -1808 0
-493 -1809 0
-496 -1812 0
-492 -1820 0
-495 -1821 0
-496 -1825 0
-494 -1847 0
-495 -1848 0
-496 -1850 0
-491 -1859 0
-493 -1860 0
-494 -1861 0
-495 -1862 0
-496 -1864 0
-491 -1866 0
-494 -1867 0
-496 -1871 0
-492 -1873 0
-494 -1874 0
-496 -1877 0
-490 -1885 0
-493 -1887 0
-494 -1888 0
-496 -1891 0
-493 -1893 0
-495 -1894 0
-496 -1898 0
-490 -1905 0
-494 -1907 0
-495 -1908 0
-496 -1911 0
-493 -1913 0
-494 -1914 0
-496 -1917 0
-492 -1925 0
-494 -1926 0
-495 -1927 0
-496 -1930 0
-493 -1945 0
-494 -1946 0
-495 -1947 0
-496 -1950 0
-493 -1953 0
-495 -1954 0
-496 -1958 0
-499 -504 0
-500 -506 0
-501 -507 0
-502 -508 0
-500 -575 0
-502 -577 0
-498 -579 0
-499 -580 0
-500 -584 0
-501 -586 0
-502 -587 0
-498 -595 0
-500 -597 0
-501 -598 0
-502 -599 0
-499 -607 0
-501 -610 0
-502 -611 0
-499 -621 0
-500 -623 0
-502 -625 0
-499 -650 0
-501 -654 0
-502 -655 0
-500 -700 0
-501 -702 0
-502 -703 0
-498 -704 0
-499 -705 0
-500 -707 0
-502 -709 0
-498 -717 0
-500 -721 0
-502 -723 0
-499 -731 0
-500 -734 0
-502 -735 0
-499 -774 0
-500 -777 0
-501 -779 0
-502 -780 0
-502 -799 0
-497 -800 0
-501 -804 0
-502 -805 0
-498 -808 0
-499 -809 0
-501 -813 0
-502 -814 0
-498 -817 0
-500 -819 0
-502 -821 0
-497 -822 0
-498 -825 0
-500 -828 0
-501 -829 0
-502 -830 0
-498 -840 0
-501 -843 0
-502 -844 0
-497 -845 0
-498 -847 0
-501 -849 0
-502 -850 0
-498 -875 0
-502 -879 0
-498 -881 0
-500 -884 0
-502 -885 0
-498 -886 0
-501 -890 0
-502 -891 0
-499 -894 0
-502 -897 0
-497 -898 0
-499 -901 0
-501 -902 0
-502 -903 0
-497 -913 0
-500 -917 0
-502 -918 0
-497 -938 0
-501 -945 0
-502 -946 0
-501 -999 0
-502 -1000 0
-497 -1001 0
-502 -1006 0
-498 -1008 0
-499 -1009 0
-502 -1012 0
-498 -1014 0
-500 -1016 0
-501 -1017 0
-502 -1018 0
-497 -1019 0
-498 -1021 0
-500 -1022 0
-502 -1024 0
-498 -1035 0
-502 -1039 0
-497 -1040 0
-498 -1041 0
-501 -1044 0
-502 -1045 0
-499 -1054 0
-500 -1056 0
-502 -1058 0
-497 -1059 0
-499 -1061 0
-500 -1064 0
-501 -1066 0
-502 -1067 0
-497 -1075 0
-500 -1079 0
-502 -1081 0
-497 -1099 0
-500 -1102 0
-501 -1104 0
-502 -1105 0
-500 -1129 0
-501 -1131 0
-502 -1132 0
-498 -1133 0
-499 -1134 0
-500 -1136 0
-502 -1138 0
-498 -1140 0
-500 -1142 0
-501 -1144 0
-502 -1145 0
-497 -1146 0
-498 -1147 0
-500 -1150 0
-502 -1151 0
-498 -1159 0
-500 -1163 0
-502 -1165 0
-499 -1221 0
-500 -1225 0
-501 -1227 0
-502 -1228 0
-497 -1229 0
-499 -1230 0
-500 -1233 0
-502 -1234 0
-497 -1241 0
-500 -1244 0
-501 -1245 0
-502 -1246 0
-497 -1260 0
-500 -1263 0
-502 -1265 0
-499 -1280 0
-501 -1284 0
-502 -1285 0
-497 -1293 0
-500 -1296 0
-501 -1298 0
-502 -1299 0
-498 -1301 0
-499 -1302 0
-500 -1304 0
-501 -1305 0
-502 -1306 0
-498 -1314 0
-499 -1315 0
-501 -1319 0
-502 -1320 0
-497 -1321 0
-498 -1322 0
-500 -1325 0
-501 -1326 0
-502 -1327 0
-498 -1334 0
-500 -1338 0
-502 -1340 0
-499 -1342 0
-501 -1345 0
-502 -1346 0
-499 -1348 0
-500 -1352 0
-502 -1353 0
-497 -1354 0
-499 -1356 0
-500 -1359 0
-501 -1361 0
-502 -1362 0
-499 -1371 0
-501 -1375 0
-502 -1376 0
-497 -1377 0
-499 -1378 0
-501 -1381 0
-502 -1382 0
-497 -1390 0
-500 -1394 0
-501 -1395 0
-502 -1396 0
-499 -1410 0
-502 -1415 0
-500 -1425 0
-501 -1427 0
-502 -1428 0
-497 -1429 0
-500 -1432 0
-502 -1434 0
-499 -1442 0
-500 -1445 0
-501 -1447 0
-502 -1448 0
-497 -1449 0
-499 -1450 0
-500 -1453 0
-501 -1454 0
-502 -1455 0
-500 -1460 0
-501 -1462 0
-502 -1463 0
-498 -1466 0
-501 -1469 0
-502 -1470 0
-498 -1481 0
-500 -1484 0
-501 -1485 0
-502 -1486 0
-499 -1501 0
-500 -1504 0
-501 -1506 0
-502 -1507 0
-502 -1521 0
-500 -1546 0
-501 -1547 0
-502 -1548 0
-500 -1594 0
-502 -1596 0
-498 -1598 0
-502 -1602 0
-498 -1610 0
-500 -1612 0
-501 -1614 0
-502 -1615 0
-499 -1624 0
-501 -1628 0
-502 -1629 0
-500 -1640 0
-502 -1641 0
-501 -1658 0
-502 -1659 0
-498 -1675 0
-500 -1679 0
-502 -1681 0
-499 -1748 0
-502 -1753 0
-500 -1764 0
-501 -1766 0
-502 -1767 0
-501 -1792 0
-502 -1793 0
-498 -1794 0
-501 -1798 0
-502 -1799 0
-499 -1801 0
-501 -1805 0
-502 -1806 0
-499 -1813 0
-500 -1816 0
-501 -1818 0
-502 -1819 0
-501 -1830 0
-502 -1831 0
-499 -1839 0
-500 -1841 0
-501 -1843 0
-502 -1844 0
-500 -1855 0
-501 -1856 0
-502 -1857 0
-498 -1859 0
-501 -1863 0
-502 -1864 0
-498 -1866 0
-500 -1868 0
-501 -1870 0
-502 -1871 0
-499 -1873 0
-500 -1875 0
-501 -1876 0
-502 -1877 0
-497 -1879 0
-501 -1883 0
-502 -1884 0
-500 -1895 0
-501 -1897 0
-502 -1898 0
-497 -1899 0
-500 -1902 0
-501 -1903 0
-502 -1904 0
-500 -1921 0
-502 -1923 0
-499 -1925 0
-501 -1929 0
-502 -1930 0
-497 -1931 0
-500 -1935 0
-501 -1936 0
-502 -1937 0
-497 -1938 0
-501 -1943 0
-502 -1944 0
-503 -572 0
-505 -573 0
-506 -575 0
-508 -577 0
-503 -578 0
-504 -580 0
-505 -581 0
-506 -584 0
-507 -586 0
-508 -587 0
-503 -594 0
-506 -597 0
-507 -598 0
-508 -599 0
-503 -612 0
-504 -613 0
-505 -614 0
-506 -616 0
-508 -618 0
-503 -627 0
-504 -628 0
-505 -629 0
-507 -633 0
-508 -634 0
-503 -636 0
-504 -637 0
-505 -638 0
-508 -641 0
-504 -644 0
-505 -645 0
-508 -648 0
-503 -656 0
-504 -657 0
-506 -660 0
-508 -661 0
-504 -663 0
-506 -666 0
-507 -667 0
-508 -668 0
-503 -670 0
-508 -674 0
-504 -677 0
-508 -680 0
-504 -683 0
-507 -686 0
-508 -687 0
-504 -711 0
-505 -712 0
-507 -715 0
-508 -716 0
-507 -728 0
-508 -729 0
-504 -737 0
-505 -738 0
-506 -740 0
-508 -741 0
-504 -757 0
-505 -758 0
-507 -760 0
-508 -761 0
-503 -794 0
-505 -795 0
-508 -799 0
-503 -801 0
-505 -802 0
-507 -804 0
-508 -805 0
-503 -807 0
-504 -809 0
-505 -810 0
-507 -813 0
-508 -814 0
-503 -816 0
-505 -818 0
-506 -819 0
-508 -821 0
-503 -824 0
-505 -826 0
-506 -828 0
-507 -829 0
-508 -830 0
-503 -839 0
-507 -843 0
-508 -844 0
-503 -846 0
-507 -849 0
-508 -850 0
-503 -874 0
-505 -876 0
-508 -879 0
-505 -882 0
-506 -884 0
-508 -885 0
-507 -890 0
-508 -891 0
-503 -906 0
-504 -907 0
-505 -908 0
-506 -911 0
-508 -912 0
-503 -921 0
-505 -922 0
-507 -924 0
-508 -925 0
-503 -928 0
-505 -929 0
-508 -931 0
-504 -935 0
-505 -936 0
-508 -937 0
-503 -949 0
-506 -951 0
-508 -953 0
-503 -955 0
-506 -957 0
-507 -958 0
-508 -959 0
-504 -963 0
-506 -965 0
-507 -967 0
-508 -968 0
-508 -975 0
-507 -980 0
-508 -981 0
-505 -1028 0
-507 -1032 0
-508 -1033 0
-506 -1050 0
-508 -1051 0
-503 -1069 0
-504 -1070 0
-505 -1071 0
-508 -1074 0
-503 -1083 0
-505 -1084 0
-506 -1087 0
-508 -1088 0
-504 -1092 0
-505 -1093 0
-506 -1096 0
-508 -1098 0
-504 -1108 0
-507 -1111 0
-508 -1112 0
-506 -1116 0
-507 -1118 0
-508 -1119 0
-505 -1154 0
-506 -1156 0
-507 -1157 0
-508 -1158 0
-504 -1187 0
-505 -1188 0
-507 -1190 0
-508 -1191 0
-504 -1206 0
-506 -1209 0
-508 -1211 0
-503 -1273 0
-504 -1274 0
-505 -1275 0
-506 -1276 0
-507 -1277 0
-508 -1278 0
-503 -1287 0
-505 -1288 0
-506 -1290 0
-507 -1291 0
-508 -1292 0
-503 -1307 0
-506 -1310 0
-507 -1312 0
-508 -1313 0
-505 -1329 0
-506 -1330 0
-507 -1332 0
-508 -1333 0
-504 -1342 0
-505 -1343 0
-507 -1345 0
-508 -1346 0
-504 -1348 0
-505 -1349 0
-506 -1352 0
-508 -1353 0
-504 -1356 0
-505 -1357 0
-506 -1359 0
-507 -1361 0
-508 -1362 0
-504 -1371 0
-507 -1375 0
-508 -1376 0
-504 -1378 0
-507 -1381 0
-508 -1382 0
-506 -1394 0
-507 -1395 0
-508 -1396 0
-504 -1410 0
-505 -1411 0
-508 -1415 0
-505 -1423 0
-506 -1425 0
-507 -1427 0
-508 -1428 0
-505 -1430 0
-506 -1432 0
-508 -1434 0
-504 -1442 0
-505 -1443 0
-506 -1445 0
-507 -1447 0
-508 -1448 0
-504 -1450 0
-505 -1451 0
-506 -1453 0
-507 -1454 0
-508 -1455 0
-503 -1457 0
-506 -1460 0
-507 -1462 0
-508 -1463 0
-503 -1465 0
-507 -1469 0
-508 -1470 0
-503 -1480 0
-505 -1482 0
-506 -1484 0
-507 -1485 0
-508 -1486 0
-503 -1509 0
-504 -1510 0
-506 -1512 0
-508 -1514 0
-503 -1523 0
-506 -1524 0
-507 -1526 0
-508 -1527 0
-503 -1530 0
-506 -1532 0
-508 -1534 0
-504 -1537 0
-506 -1539 0
-508 -1541 0
-503 -1550 0
-505 -1551 0
-506 -1553 0
-508 -1554 0
-503 -1556 0
-505 -1557 0
-506 -1558 0
-507 -1560 0
-508 -1561 0
-504 -1564 0
-505 -1565 0
-506 -1566 0
-507 -1567 0
-508 -1568 0
-505 -1571 0
-506 -1573 0
-508 -1574 0
-505 -1578 0
-506 -1581 0
-507 -1583 0
-508 -1584 0
-506 -1606 0
-507 -1608 0
-508 -1609 0
-505 -1617 0
-506 -1620 0
-508 -1622 0
-503 -1630 0
-504 -1631 0
-506 -1634 0
-508 -1635 0
-503 -1643 0
-508 -1647 0
-504 -1650 0
-508 -1653 0
-504 -1661 0
-505 -1662 0
-506 -1665 0
-507 -1667 0
-508 -1668 0
-505 -1671 0
-507 -1673 0
-508 -1674 0
-507 -1686 0
-508 -1687 0
-504 -1710 0
-506 -1713 0
-507 -1715 0
-508 -1716 0
-504 -1731 0
-505 -1732 0
-506 -1734 0
-508 -1735 0
-505 -1743 0
-506 -1745 0
-508 -1747 0
-504 -1801 0
-507 -1805 0
-508 -1806 0
-504 -1813 0
-505 -1814 0
-506 -1816 0
-507 -1818 0
-508 -1819 0
-505 -1827 0
-507 -1830 0
-508 -1831 0
-504 -1839 0
-506 -1841 0
-507 -1843 0
-508 -1844 0
-503 -1846 0
-507 -1849 0
-508 -1850 0
-504 -1873 0
-506 -1875 0
-507 -1876 0
-508 -1877 0
-507 -1883 0
-508 -1884 0
-505 -1893 0
-506 -1895 0
-507 -1897 0
-508 -1898 0
-505 -1901 0
-506 -1902 0
-507 -1903 0
-508 -1904 0
-506 -1921 0
-508 -1923 0
-504 -1925 0
-507 -1929 0
-508 -1930 0
-506 -1935 0
-507 -1936 0
-508 -1937 0
-505 -1939 0
-507 -1943 0
-508 -1944 0
-509 -572 0
-511 -573 0
-512 -574 0
-515 -577 0
-509 -588 0
-510 -590 0
-511 -591 0
-515 -593 0
-509 -606 0
-510 -607 0
-512 -608 0
-514 -610 0
-515 -611 0
-509 -620 0
-510 -621 0
-512 -622 0
-515 -625 0
-509 -636 0
-510 -637 0
-511 -638 0
-512 -639 0
-515 -641 0
-510 -644 0
-511 -645 0
-512 -646 0
-515 -648 0
-509 -649 0
-510 -650 0
-511 -651 0
-512 -652 0
-513 -653 0
-514 -654 0
-515 -655 0
-510 -663 0
-512 -664 0
-513 -665 0
-514 -667 0
-515 -668 0
-509 -670 0
-512 -671 0
-513 -672 0
-515 -674 0
-510 -677 0
-512 -678 0
-513 -679 0
-515 -680 0
-510 -690 0
-511 -691 0
-512 -692 0
-513 -693 0
-515 -696 0
-510 -705 0
-512 -706 0
-515 -709 0
-511 -718 0
-512 -719 0
-513 -720 0
-515 -723 0
-509 -730 0
-510 -731 0
-512 -732 0
-513 -733 0
-515 -735 0
-510 -737 0
-511 -738 0
-513 -739 0
-515 -741 0
-510 -750 0
-512 -751 0
-513 -752 0
-515 -755 0
-510 -769 0
-511 -770 0
-512 -771 0
-515 -773 0
-509 -788 0
-514 -791 0
-515 -792 0
-509 -801 0
-511 -802 0
-512 -803 0
-514 -804 0
-515 -805 0
-509 -807 0
-510 -809 0
-511 -810 0
-512 -811 0
-514 -813 0
-515 -814 0
-509 -816 0
-511 -818 0
-515 -821 0
-509 -833 0
-511 -835 0
-512 -836 0
-515 -837 0
-509 -839 0
-513 -841 0
-514 -843 0
-515 -844 0
-509 -852 0
-511 -854 0
-512 -855 0
-513 -856 0
-514 -859 0
-515 -860 0
-509 -868 0
-512 -870 0
-514 -872 0
-515 -873 0
-511 -882 0
-512 -883 0
-515 -885 0
-512 -887 0
-513 -888 0
-514 -890 0
-515 -891 0
-509 -900 0
-510 -901 0
-514 -902 0
-515 -903 0
-509 -915 0
-512 -916 0
-515 -918 0
-509 -928 0
-511 -929 0
-515 -931 0
-510 -935 0
-511 -936 0
-515 -937 0
-509 -940 0
-511 -941 0
-512 -942 0
-513 -943 0
-514 -945 0
-515 -946 0
-509 -955 0
-513 -956 0
-514 -958 0
-515 -959 0
-510 -963 0
-513 -964 0
-514 -967 0
-515 -968 0
-512 -972 0
-513 -973 0
-515 -975 0
-511 -985 0
-513 -986 0
-515 -988 0
-515 -1024 0
-511 -1042 0
-513 -1043 0
-514 -1044 0
-515 -1045 0
-509 -1060 0
-510 -1061 0
-512 -1062 0
-513 -1063 0
-514 -1066 0
-515 -1067 0
-509 -1077 0
-513 -1078 0
-515 -1081 0
-509 -1083 0
-511 -1084 0
-512 -1085 0
-513 -1086 0
-515 -1088 0
-510 -1092 0
-511 -1093 0
-512 -1094 0
-513 -1095 0
-515 -1098 0
-509 -1100 0
-511 -1101 0
-514 -1104 0
-515 -1105 0
-510 -1108 0
-512 -1109 0
-514 -1111 0
-515 -1112 0
-512 -1148 0
-513 -1149 0
-515 -1151 0
-510 -1181 0
-513 -1182 0
-515 -1184 0
-510 -1200 0
-511 -1201 0
-514 -1203 0
-515 -1204 0
-511 -1214 0
-512 -1215 0
-515 -1218 0
-509 -1279 0
-510 -1280 0
-511 -1281 0
-512 -1282 0
-513 -1283 0
-514 -1284 0
-515 -1285 0
-511 -1335 0
-512 -1336 0
-513 -1337 0
-515 -1340 0
-510 -1342 0
-511 -1343 0
-513 -1344 0
-514 -1345 0
-515 -1346 0
-510 -1348 0
-511 -1349 0
-512 -1350 0
-513 -1351 0
-515 -1353 0
-510 -1365 0
-511 -1366 0
-513 -1367 0
-515 -1369 0
-510 -1371 0
-512 -1372 0
-513 -1373 0
-514 -1375 0
-515 -1376 0
-510 -1384 0
-511 -1385 0
-513 -1386 0
-514 -1388 0
-515 -1389 0
-510 -1404 0
-513 -1405 0
-514 -1408 0
-515 -1409 0
-512 -1417 0
-513 -1418 0
-515 -1421 0
-511 -1430 0
-513 -1431 0
-515 -1434 0
-511 -1435 0
-512 -1436 0
-513 -1437 0
-514 -1439 0
-515 -1440 0
-510 -1442 0
-511 -1443 0
-512 -1444 0
-514 -1447 0
-515 -1448 0
-509 -1457 0
-512 -1458 0
-513 -1459 0
-514 -1462 0
-515 -1463 0
-509 -1472 0
-511 -1474 0
-512 -1475 0
-513 -1476 0
-515 -1479 0
-509 -1487 0
-512 -1489 0
-514 -1491 0
-515 -1492 0
-509 -1500 0
-510 -1501 0
-511 -1502 0
-513 -1503 0
-514 -1506 0
-515 -1507 0
-509 -1516 0
-511 -1517 0
-512 -1518 0
-513 -1519 0
-515 -1521 0
-509 -1530 0
-513 -1531 0
-515 -1534 0
-510 -1537 0
-513 -1538 0
-515 -1541 0
-509 -1543 0
-511 -1544 0
-512 -1545 0
-514 -1547 0
-515 -1548 0
-509 -1556 0
-511 -1557 0
-514 -1560 0
-515 -1561 0
-510 -1564 0
-511 -1565 0
-514 -1567 0
-515 -1568 0
-511 -1571 0
-512 -1572 0
-515 -1574 0
-515 -1590 0
-511 -1599 0
-513 -1600 0
-515 -1602 0
-511 -1611 0
-514 -1614 0
-515 -1615 0
-509 -1623 0
-510 -1624 0
-511 -1625 0
-512 -1626 0
-513 -1627 0
-514 -1628 0
-515 -1629 0
-509 -1637 0
-511 -1638 0
-513 -1639 0
-515 -1641 0
-509 -1643 0
-512 -1644 0
-513 -1645 0
-515 -1647 0
-510 -1650 0
-512 -1651 0
-513 -1652 0
-515 -1653 0
-509 -1654 0
-511 -1655 0
-513 -1656 0
-514 -1658 0
-515 -1659 0
-510 -1661 0
-511 -1662 0
-512 -1663 0
-513 -1664 0
-514 -1667 0
-515 -1668 0
-511 -1676 0
-512 -1677 0
-513 -1678 0
-515 -1681 0
-510 -1703 0
-511 -1704 0
-513 -1705 0
-515 -1707 0
-510 -1724 0
-511 -1725 0
-513 -1726 0
-514 -1728 0
-515 -1729 0
-511 -1738 0
-512 -1739 0
-513 -1740 0
-515 -1741 0
-511 -1743 0
-513 -1744 0
-515 -1747 0
-510 -1808 0
-511 -1809 0
-515 -1812 0
-510 -1820 0
-513 -1821 0
-514 -1824 0
-515 -1825 0
-509 -1852 0
-511 -1853 0
-512 -1854 0
-514 -1856 0
-515 -1857 0
-510 -1873 0
-512 -1874 0
-514 -1876 0
-515 -1877 0
-511 -1887 0
-512 -1888 0
-515 -1891 0
-511 -1893 0
-513 -1894 0
-514 -1897 0
-515 -1898 0
-512 -1907 0
-513 -1908 0
-514 -1910 0
-515 -1911 0
-511 -1913 0
-512 -1914 0
-514 -1916 0
-515 -1917 0
-510 -1925 0
-512 -1926 0
-513 -1927 0
-514 -1929 0
-515 -1930 0
-511 -1945 0
-512 -1946 0
-513 -1947 0
-514 -1949 0
-515 -1950 0
-516 -579 0
-517 -580 0
-518 -581 0
-519 -582 0
-520 -586 0
-521 -587 0
-516 -589 0
-517 -590 0
-518 -591 0
-521 -593 0
-516 -600 0
-517 -601 0
-518 -602 0
-519 -603 0
-520 -604 0
-521 -605 0
-517 -621 0
-519 -622 0
-521 -625 0
-517 -628 0
-518 -629 0
-519 -630 0
-520 -633 0
-521 -634 0
-517 -637 0
-518 -638 0
-519 -639 0
-521 -641 0
-517 -650 0
-518 -651 0
-519 -652 0
-520 -654 0
-521 -655 0
-517 -657 0
-519 -658 0
-521 -661 0
-516 -676 0
-517 -677 0
-519 -678 0
-521 -680 0
-516 -682 0
-517 -683 0
-519 -684 0
-520 -686 0
-521 -687 0
-516 -689 0
-517 -690 0
-518 -691 0
-519 -692 0
-521 -696 0
-519 -698 0
-520 -702 0
-521 -703 0
-516 -717 0
-518 -718 0
-519 -719 0
-521 -723 0
-516 -724 0
-519 -725 0
-520 -728 0
-521 -729 0
-517 -731 0
-519 -732 0
-521 -735 0
-517 -769 0
-518 -770 0
-519 -771 0
-521 -773 0
-520 -791 0
-521 -792 0
-518 -795 0
-519 -796 0
-521 -799 0
-518 -802 0
-519 -803 0
-520 -804 0
-521 -805 0
-516 -817 0
-518 -818 0
-521 -821 0
-516 -825 0
-518 -826 0
-520 -829 0
-521 -830 0
-516 -834 0
-518 -835 0
-519 -836 0
-521 -837 0
-516 -840 0
-520 -843 0
-521 -844 0
-516 -847 0
-520 -849 0
-521 -850 0
-516 -853 0
-518 -854 0
-519 -855 0
-520 -859 0
-521 -860 0
-516 -863 0
-518 -864 0
-520 -866 0
-521 -867 0
-519 -916 0
-521 -918 0
-518 -922 0
-520 -924 0
-521 -925 0
-518 -929 0
-521 -931 0
-518 -941 0
-519 -942 0
-520 -945 0
-521 -946 0
-521 -953 0
-520 -958 0
-521 -959 0
-516 -971 0
-519 -972 0
-521 -975 0
-516 -978 0
-519 -979 0
-520 -980 0
-521 -981 0
-516 -984 0
-518 -985 0
-521 -988 0
-521 -1081 0
-518 -1084 0
-519 -1085 0
-521 -1088 0
-518 -1101 0
-520 -1104 0
-521 -1105 0
-516 -1114 0
-520 -1118 0
-521 -1119 0
-518 -1214 0
-519 -1215 0
-521 -1218 0
-517 -1274 0
-518 -1275 0
-520 -1277 0
-521 -1278 0
-517 -1280 0
-518 -1281 0
-519 -1282 0
-520 -1284 0
-521 -1285 0
-516 -1301 0
-517 -1302 0
-518 -1303 0
-520 -1305 0
-521 -1306 0
-516 -1314 0
-517 -1315 0
-518 -1316 0
-520 -1319 0
-521 -1320 0
-516 -1328 0
-518 -1329 0
-520 -1332 0
-521 -1333 0
-516 -1334 0
-518 -1335 0
-519 -1336 0
-521 -1340 0
-517 -1348 0
-518 -1349 0
-519 -1350 0
-521 -1353 0
-517 -1356 0
-518 -1357 0
-519 -1358 0
-520 -1361 0
-521 -1362 0
-517 -1365 0
-518 -1366 0
-521 -1369 0
-517 -1371 0
-519 -1372 0
-520 -1375 0
-521 -1376 0
-517 -1378 0
-519 -1379 0
-520 -1381 0
-521 -1382 0
-517 -1384 0
-518 -1385 0
-520 -1388 0
-521 -1389 0
-519 -1417 0
-521 -1421 0
-518 -1423 0
-520 -1427 0
-521 -1428 0
-518 -1430 0
-521 -1434 0
-518 -1435 0
-519 -1436 0
-520 -1439 0
-521 -1440 0
-517 -1450 0
-518 -1451 0
-520 -1454 0
-521 -1455 0
-519 -1458 0
-520 -1462 0
-521 -1463 0
-516 -1466 0
-520 -1469 0
-521 -1470 0
-516 -1473 0
-518 -1474 0
-519 -1475 0
-521 -1479 0
-516 -1481 0
-518 -1482 0
-520 -1485 0
-521 -1486 0
-516 -1488 0
-519 -1489 0
-520 -1491 0
-521 -1492 0
-516 -1494 0
-520 -1497 0
-521 -1498 0
-518 -1517 0
-519 -1518 0
-521 -1521 0
-520 -1526 0
-521 -1527 0
-521 -1534 0
-518 -1544 0
-519 -1545 0
-520 -1547 0
-521 -1548 0
-518 -1551 0
-521 -1554 0
-518 -1557 0
-520 -1560 0
-521 -1561 0
-516 -1570 0
-518 -1571 0
-519 -1572 0
-521 -1574 0
-516 -1577 0
-518 -1578 0
-519 -1579 0
-520 -1583 0
-521 -1584 0
-516 -1587 0
-521 -1590 0
-518 -1638 0
-521 -1641 0
-519 -1644 0
-521 -1647 0
-518 -1655 0
-520 -1658 0
-521 -1659 0
-516 -1670 0
-518 -1671 0
-520 -1673 0
-521 -1674 0
-518 -1738 0
-519 -1739 0
-521 -1741 0
-518 -1743 0
-521 -1747 0
-517 -1801 0
-519 -1802 0
-520 -1805 0
-521 -1806 0
-517 -1808 0
-518 -1809 0
-521 -1812 0
-517 -1813 0
-518 -1814 0
-519 -1815 0
-520 -1818 0
-521 -1819 0
-517 -1820 0
-520 -1824 0
-521 -1825 0
-517 -1839 0
-520 -1843 0
-521 -1844 0
-519 -1847 0
-520 -1849 0
-521 -1850 0
-518 -1853 0
-519 -1854 0
-520 -1856 0
-521 -1857 0
-516 -1859 0
-518 -1860 0
-519 -1861 0
-520 -1863 0
-521 -1864 0
-516 -1866 0
-519 -1867 0
-520 -1870 0
-521 -1871 0
-520 -1883 0
-521 -1884 0
-518 -1887 0
-519 -1888 0
-521 -1891 0
-518 -1893 0
-520 -1897 0
-521 -1898 0
-518 -1901 0
-520 -1903 0
-521 -1904 0
-519 -1907 0
-520 -1910 0
-521 -1911 0
-519 -1933 0
-520 -1936 0
-521 -1937 0
-518 -1939 0
-519 -1940 0
-520 -1943 0
-521 -1944 0
-523 -578 0
-524 -581 0
-525 -584 0
-526 -585 0
-527 -586 0
-528 -587 0
-523 -588 0
-524 -591 0
-526 -592 0
-528 -593 0
-523 -594 0
-525 -597 0
-527 -598 0
-528 -599 0
-523 -606 0
-526 -609 0
-527 -610 0
-528 -611 0
-523 -612 0
-524 -614 0
-525 -616 0
-526 -617 0
-528 -618 0
-524 -645 0
-526 -647 0
-528 -648 0
-523 -649 0
-524 -651 0
-527 -654 0
-528 -655 0
-523 -656 0
-525 -660 0
-528 -661 0
-528 -680 0
-522 -681 0
-526 -685 0
-527 -686 0
-528 -687 0
-522 -688 0
-524 -691 0
-525 -694 0
-526 -695 0
-528 -696 0
-524 -738 0
-525 -740 0
-528 -741 0
-524 -763 0
-526 -766 0
-528 -767 0
-523 -788 0
-525 -789 0
-526 -790 0
-527 -791 0
-528 -792 0
-523 -794 0
-524 -795 0
-526 -798 0
-528 -799 0
-522 -800 0
-523 -801 0
-524 -802 0
-527 -804 0
-528 -805 0
-523 -816 0
-524 -818 0
-525 -819 0
-526 -820 0
-528 -821 0
-522 -822 0
-523 -824 0
-524 -826 0
-525 -828 0
-527 -829 0
-528 -830 0
-522 -831 0
-523 -833 0
-524 -835 0
-528 -837 0
-523 -868 0
-525 -871 0
-527 -872 0
-528 -873 0
-523 -874 0
-524 -876 0
-528 -879 0
-524 -882 0
-525 -884 0
-528 -885 0
-523 -893 0
-526 -896 0
-528 -897 0
-522 -898 0
-523 -900 0
-527 -902 0
-528 -903 0
-522 -904 0
-523 -906 0
-524 -908 0
-525 -911 0
-528 -912 0
-522 -932 0
-524 -936 0
-528 -937 0
-522 -938 0
-523 -940 0
-524 -941 0
-526 -944 0
-527 -945 0
-528 -946 0
-522 -947 0
-523 -949 0
-525 -951 0
-526 -952 0
-528 -953 0
-522 -954 0
-523 -955 0
-525 -957 0
-527 -958 0
-528 -959 0
-522 -969 0
-526 -974 0
-528 -975 0
-522 -976 0
-527 -980 0
-528 -981 0
-522 -982 0
-524 -985 0
-525 -987 0
-528 -988 0
-528 -1012 0
-524 -1036 0
-526 -1038 0
-528 -1039 0
-522 -1040 0
-524 -1042 0
-527 -1044 0
-528 -1045 0
-522 -1046 0
-525 -1050 0
-528 -1051 0
-523 -1053 0
-525 -1056 0
-526 -1057 0
-528 -1058 0
-522 -1059 0
-523 -1060 0
-525 -1064 0
-526 -1065 0
-527 -1066 0
-528 -1067 0
-522 -1068 0
-523 -1069 0
-524 -1071 0
-526 -1073 0
-528 -1074 0
-522 -1089 0
-524 -1093 0
-525 -1096 0
-526 -1097 0
-528 -1098 0
-522 -1099 0
-523 -1100 0
-524 -1101 0
-525 -1102 0
-526 -1103 0
-527 -1104 0
-528 -1105 0
-522 -1113 0
-525 -1116 0
-526 -1117 0
-527 -1118 0
-528 -1119 0
-525 -1136 0
-526 -1137 0
-528 -1138 0
-524 -1160 0
-525 -1163 0
-526 -1164 0
-528 -1165 0
-522 -1166 0
-526 -1170 0
-528 -1171 0
-522 -1192 0
-524 -1195 0
-526 -1197 0
-528 -1198 0
-522 -1199 0
-524 -1201 0
-526 -1202 0
-527 -1203 0
-528 -1204 0
-522 -1205 0
-525 -1209 0
-526 -1210 0
-528 -1211 0
-523 -1287 0
-524 -1288 0
-525 -1290 0
-527 -1291 0
-528 -1292 0
-522 -1293 0
-523 -1294 0
-524 -1295 0
-525 -1296 0
-526 -1297 0
-527 -1298 0
-528 -1299 0
-524 -1329 0
-525 -1330 0
-526 -1331 0
-527 -1332 0
-528 -1333 0
-524 -1335 0
-525 -1338 0
-526 -1339 0
-528 -1340 0
-524 -1349 0
-525 -1352 0
-528 -1353 0
-522 -1354 0
-524 -1357 0
-525 -1359 0
-526 -1360 0
-527 -1361 0
-528 -1362 0
-522 -1363 0
-524 -1366 0
-526 -1368 0
-528 -1369 0
-522 -1390 0
-525 -1394 0
-527 -1395 0
-528 -1396 0
-522 -1397 0
-524 -1398 0
-526 -1401 0
-527 -1402 0
-528 -1403 0
-525 -1406 0
-526 -1407 0
-527 -1408 0
-528 -1409 0
-524 -1411 0
-526 -1414 0
-528 -1415 0
-524 -1435 0
-525 -1438 0
-527 -1439 0
-528 -1440 0
-522 -1449 0
-524 -1451 0
-525 -1453 0
-527 -1454 0
-528 -1455 0
-523 -1457 0
-525 -1460 0
-526 -1461 0
-527 -1462 0
-528 -1463 0
-523 -1465 0
-526 -1468 0
-527 -1469 0
-528 -1470 0
-523 -1472 0
-524 -1474 0
-525 -1477 0
-526 -1478 0
-528 -1479 0
-523 -1500 0
-524 -1502 0
-525 -1504 0
-526 -1505 0
-527 -1506 0
-528 -1507 0
-523 -1509 0
-525 -1512 0
-526 -1513 0
-528 -1514 0
-525 -1539 0
-526 -1540 0
-528 -1541 0
-523 -1543 0
-524 -1544 0
-525 -1546 0
-527 -1547 0
-528 -1548 0
-523 -1550 0
-524 -1551 0
-525 -1553 0
-528 -1554 0
-522 -1555 0
-523 -1556 0
-524 -1557 0
-525 -1558 0
-526 -1559 0
-527 -1560 0
-528 -1561 0
-524 -1571 0
-525 -1573 0
-528 -1574 0
-522 -1575 0
-524 -1578 0
-525 -1581 0
-526 -1582 0
-527 -1583 0
-528 -1584 0
-522 -1585 0
-525 -1588 0
-526 -1589 0
-528 -1590 0
-524 -1611 0
-525 -1612 0
-526 -1613 0
-527 -1614 0
-528 -1615 0
-524 -1617 0
-525 -1620 0
-526 -1621 0
-528 -1622 0
-523 -1623 0
-524 -1625 0
-527 -1628 0
-528 -1629 0
-523 -1630 0
-525 -1634 0
-528 -1635 0
-528 -1653 0
-523 -1654 0
-524 -1655 0
-526 -1657 0
-527 -1658 0
-528 -1659 0
-522 -1669 0
-524 -1671 0
-527 -1673 0
-528 -1674 0
-524 -1690 0
-525 -1693 0
-528 -1694 0
-524 -1719 0
-525 -1720 0
-526 -1721 0
-528 -1722 0
-522 -1723 0
-524 -1725 0
-525 -1727 0
-527 -1728 0
-528 -1729 0
-522 -1730 0
-524 -1732 0
-525 -1734 0
-528 -1735 0
-523 -1788 0
-524 -1789 0
-526 -1791 0
-527 -1792 0
-528 -1793 0
-526 -1804 0
-527 -1805 0
-528 -1806 0
-524 -1809 0
-525 -1810 0
-526 -1811 0
-528 -1812 0
-524 -1827 0
-526 -1829 0
-527 -1830 0
-528 -1831 0
-522 -1832 0
-525 -1834 0
-526 -1835 0
-527 -1836 0
-528 -1837 0
-525 -1841 0
-526 -1842 0
-527 -1843 0
-528 -1844 0
-522 -1879 0
-526 -1882 0
-527 -1883 0
-528 -1884 0
-522 -1885 0
-524 -1887 0
-525 -1889 0
-526 -1890 0
-528 -1891 0
-524 -1913 0
-526 -1915 0
-527 -1916 0
-528 -1917 0
-525 -1921 0
-526 -1922 0
-528 -1923 0
-522 -1931 0
-525 -1935 0
-527 -1936 0
-528 -1937 0
-524 -1945 0
-525 -1948 0
-527 -1949 0
-528 -1950 0
-532 -573 0
-533 -575 0
-535 -577 0
-530 -579 0
-531 -580 0
-532 -581 0
-533 -584 0
-534 -586 0
-535 -587 0
-530 -589 0
-531 -590 0
-532 -591 0
-535 -593 0
-530 -595 0
-533 -597 0
-534 -598 0
-535 -599 0
-530 -600 0
-531 -601 0
-532 -602 0
-534 -604 0
-535 -605 0
-531 -607 0
-534 -610 0
-535 -611 0
-531 -613 0
-532 -614 0
-533 -616 0
-535 -618 0
-531 -637 0
-532 -638 0
-535 -641 0
-531 -650 0
-532 -651 0
-534 -654 0
-535 -655 0
-531 -657 0
-533 -660 0
-535 -661 0
-530 -662 0
-531 -663 0
-533 -666 0
-534 -667 0
-535 -668 0
-535 -674 0
-530 -682 0
-531 -683 0
-534 -686 0
-535 -687 0
-530 -689 0
-531 -690 0
-532 -691 0
-533 -694 0
-535 -696 0
-529 -787 0
-533 -789 0
-534 -791 0
-535 -792 0
-529 -793 0
-532 -795 0
-535 -799 0
-529 -806 0
-530 -808 0
-531 -809 0
-532 -810 0
-534 -813 0
-535 -814 0
-529 -823 0
-530 -825 0
-532 -826 0
-533 -828 0
-534 -829 0
-535 -830 0
-529 -832 0
-530 -834 0
-532 -835 0
-535 -837 0
-529 -838 0
-530 -840 0
-534 -843 0
-535 -844 0
-529 -862 0
-530 -863 0
-532 -864 0
-534 -866 0
-535 -867 0
-530 -869 0
-533 -871 0
-534 -872 0
-535 -873 0
-530 -875 0
-532 -876 0
-535 -879 0
-530 -886 0
-534 -890 0
-535 -891 0
-529 -899 0
-531 -901 0
-534 -902 0
-535 -903 0
-529 -905 0
-531 -907 0
-532 -908 0
-533 -911 0
-535 -912 0
-529 -927 0
-532 -929 0
-535 -931 0
-529 -939 0
-532 -941 0
-534 -945 0
-535 -946 0
-529 -948 0
-533 -951 0
-535 -953 0
-529 -961 0
-530 -962 0
-531 -963 0
-533 -965 0
-534 -967 0
-535 -968 0
-529 -977 0
-530 -978 0
-534 -980 0
-535 -981 0
-529 -983 0
-530 -984 0
-532 -985 0
-533 -987 0
-535 -988 0
-535 -1006 0
-530 -1041 0
-532 -1042 0
-534 -1044 0
-535 -1045 0
-530 -1047 0
-533 -1050 0
-535 -1051 0
-531 -1061 0
-533 -1064 0
-534 -1066 0
-535 -1067 0
-531 -1070 0
-532 -1071 0
-535 -1074 0
-532 -1084 0
-533 -1087 0
-535 -1088 0
-532 -1101 0
-533 -1102 0
-534 -1104 0
-535 -1105 0
-530 -1107 0
-531 -1108 0
-534 -1111 0
-535 -1112 0
-530 -1114 0
-533 -1116 0
-534 -1118 0
-535 -1119 0
-531 -1200 0
-532 -1201 0
-534 -1203 0
-535 -1204 0
-531 -1206 0
-533 -1209 0
-535 -1211 0
-529 -1286 0
-532 -1288 0
-533 -1290 0
-534 -1291 0
-535 -1292 0
-529 -1300 0
-530 -1301 0
-531 -1302 0
-532 -1303 0
-533 -1304 0
-534 -1305 0
-535 -1306 0
-530 -1328 0
-532 -1329 0
-533 -1330 0
-534 -1332 0
-535 -1333 0
-530 -1334 0
-532 -1335 0
-533 -1338 0
-535 -1340 0
-529 -1341 0
-531 -1342 0
-532 -1343 0
-534 -1345 0
-535 -1346 0
-529 -1355 0
-531 -1356 0
-532 -1357 0
-533 -1359 0
-534 -1361 0
-535 -1362 0
-529 -1364 0
-531 -1365 0
-532 -1366 0
-535 -1369 0
-529 -1370 0
-531 -1371 0
-534 -1375 0
-535 -1376 0
-529 -1391 0
-533 -1394 0
-534 -1395 0
-535 -1396 0
-531 -1404 0
-533 -1406 0
-534 -1408 0
-535 -1409 0
-531 -1410 0
-532 -1411 0
-535 -1415 0
-532 -1430 0
-533 -1432 0
-535 -1434 0
-532 -1435 0
-533 -1438 0
-534 -1439 0
-535 -1440 0
-531 -1442 0
-532 -1443 0
-533 -1445 0
-534 -1447 0
-535 -1448 0
-531 -1450 0
-532 -1451 0
-533 -1453 0
-534 -1454 0
-535 -1455 0
-529 -1464 0
-530 -1466 0
-534 -1469 0
-535 -1470 0
-529 -1471 0
-530 -1473 0
-532 -1474 0
-533 -1477 0
-535 -1479 0
-529 -1493 0
-530 -1494 0
-533 -1496 0
-534 -1497 0
-535 -1498 0
-529 -1499 0
-531 -1501 0
-532 -1502 0
-533 -1504 0
-534 -1506 0
-535 -1507 0
-529 -1508 0
-531 -1510 0
-533 -1512 0
-535 -1514 0
-529 -1529 0
-533 -1532 0
-535 -1534 0
-529 -1542 0
-532 -1544 0
-533 -1546 0
-534 -1547 0
-535 -1548 0
-529 -1549 0
-532 -1551 0
-533 -1553 0
-535 -1554 0
-529 -1562 0
-530 -1563 0
-531 -1564 0
-532 -1565 0
-533 -1566 0
-534 -1567 0
-535 -1568 0
-529 -1576 0
-530 -1577 0
-532 -1578 0
-533 -1581 0
-534 -1583 0
-535 -1584 0
-529 -1586 0
-530 -1587 0
-533 -1588 0
-535 -1590 0
-532 -1592 0
-533 -1594 0
-535 -1596 0
-530 -1610 0
-532 -1611 0
-533 -1612 0
-534 -1614 0
-535 -1615 0
-530 -1616 0
-532 -1617 0
-533 -1620 0
-535 -1622 0
-531 -1624 0
-532 -1625 0
-534 -1628 0
-535 -1629 0
-531 -1631 0
-533 -1634 0
-535 -1635 0
-535 -1647 0
-532 -1655 0
-534 -1658 0
-535 -1659 0
-530 -1660 0
-531 -1661 0
-532 -1662 0
-533 -1665 0
-534 -1667 0
-535 -1668 0
-530 -1670 0
-532 -1671 0
-534 -1673 0
-535 -1674 0
-531 -1724 0
-532 -1725 0
-533 -1727 0
-534 -1728 0
-535 -1729 0
-531 -1731 0
-532 -1732 0
-533 -1734 0
-535 -1735 0
-532 -1743 0
-533 -1745 0
-535 -1747 0
-529 -1800 0
-531 -1801 0
-534 -1805 0
-535 -1806 0
-529 -1807 0
-531 -1808 0
-532 -1809 0
-533 -1810 0
-535 -1812 0
-529 -1826 0
-532 -1827 0
-534 -1830 0
-535 -1831 0
-531 -1839 0
-533 -1841 0
-534 -1843 0
-535 -1844 0
-529 -1858 0
-530 -1859 0
-532 -1860 0
-534 -1863 0
-535 -1864 0
-529 -1872 0
-531 -1873 0
-533 -1875 0
-534 -1876 0
-535 -1877 0
-529 -1880 0
-534 -1883 0
-535 -1884 0
-529 -1886 0
-532 -1887 0
-533 -1889 0
-535 -1891 0
-529 -1892 0
-532 -1893 0
-533 -1895 0
-534 -1897 0
-535 -1898 0
-529 -1912 0
-532 -1913 0
-534 -1916 0
-535 -1917 0
-529 -1918 0
-533 -1921 0
-535 -1923 0
-529 -1924 0
-531 -1925 0
-534 -1929 0
-535 -1930 0
-529 -1932 0
-533 -1935 0
-534 -1936 0
-535 -1937 0
-532 -1945 0
-533 -1948 0
-534 -1949 0
-535 -1950 0
-539 -573 0
-541 -575 0
-542 -576 0
-544 -577 0
-537 -589 0
-538 -590 0
-539 -591 0
-542 -592 0
-544 -593 0
-537 -595 0
-541 -597 0
-543 -598 0
-544 -599 0
-537 -600 0
-538 -601 0
-539 -602 0
-543 -604 0
-544 -605 0
-538 -613 0
-539 -614 0
-540 -615 0
-541 -616 0
-542 -617 0
-544 -618 0
-538 -628 0
-539 -629 0
-540 -631 0
-542 -632 0
-543 -633 0
-544 -634 0
-538 -650 0
-539 -651 0
-540 -653 0
-543 -654 0
-544 -655 0
-537 -662 0
-538 -663 0
-540 -665 0
-541 -666 0
-543 -667 0
-544 -668 0
-536 -669 0
-540 -672 0
-542 -673 0
-544 -674 0
-537 -676 0
-538 -677 0
-540 -679 0
-544 -680 0
-536 -688 0
-537 -689 0
-538 -690 0
-539 -691 0
-540 -693 0
-541 -694 0
-542 -695 0
-544 -696 0
-537 -724 0
-540 -726 0
-542 -727 0
-543 -728 0
-544 -729 0
-538 -762 0
-539 -763 0
-540 -765 0
-542 -766 0
-544 -767 0
-541 -789 0
-542 -790 0
-543 -791 0
-544 -792 0
-536 -800 0
-539 -802 0
-543 -804 0
-544 -805 0
-537 -808 0
-538 -809 0
-539 -810 0
-542 -812 0
-543 -813 0
-544 -814 0
-537 -817 0
-539 -818 0
-541 -819 0
-542 -820 0
-544 -821 0
-536 -831 0
-537 -834 0
-539 -835 0
-544 -837 0
-536 -845 0
-537 -847 0
-542 -848 0
-543 -849 0
-544 -850 0
-536 -861 0
-537 -863 0
-539 -864 0
-542 -865 0
-543 -866 0
-544 -867 0
-537 -875 0
-539 -876 0
-540 -878 0
-544 -879 0
-537 -886 0
-540 -888 0
-542 -889 0
-543 -890 0
-544 -891 0
-538 -894 0
-540 -895 0
-542 -896 0
-544 -897 0
-536 -904 0
-538 -907 0
-539 -908 0
-540 -910 0
-541 -911 0
-544 -912 0
-536 -919 0
-539 -922 0
-540 -923 0
-543 -924 0
-544 -925 0
-536 -938 0
-539 -941 0
-540 -943 0
-542 -944 0
-543 -945 0
-544 -946 0
-536 -954 0
-540 -956 0
-541 -957 0
-543 -958 0
-544 -959 0
-536 -960 0
-537 -962 0
-538 -963 0
-540 -964 0
-541 -965 0
-542 -966 0
-543 -967 0
-544 -968 0
-536 -969 0
-537 -971 0
-540 -973 0
-542 -974 0
-544 -975 0
-536 -982 0
-537 -984 0
-539 -985 0
-540 -986 0
-541 -987 0
-544 -988 0
-540 -998 0
-543 -999 0
-544 -1000 0
-537 -1035 0
-539 -1036 0
-540 -1037 0
-542 -1038 0
-544 -1039 0
-536 -1046 0
-537 -1047 0
-540 -1049 0
-541 -1050 0
-544 -1051 0
-538 -1054 0
-541 -1056 0
-542 -1057 0
-544 -1058 0
-536 -1068 0
-538 -1070 0
-539 -1071 0
-542 -1073 0
-544 -1074 0
-536 -1099 0
-539 -1101 0
-541 -1102 0
-542 -1103 0
-543 -1104 0
-544 -1105 0
-536 -1106 0
-537 -1107 0
-538 -1108 0
-542 -1110 0
-543 -1111 0
-544 -1112 0
-540 -1128 0
-541 -1129 0
-542 -1130 0
-543 -1131 0
-544 -1132 0
-537 -1159 0
-539 -1160 0
-540 -1162 0
-541 -1163 0
-542 -1164 0
-544 -1165 0
-536 -1192 0
-538 -1194 0
-539 -1195 0
-540 -1196 0
-542 -1197 0
-544 -1198 0
-536 -1205 0
-538 -1206 0
-540 -1208 0
-541 -1209 0
-542 -1210 0
-544 -1211 0
-536 -1266 0
-539 -1267 0
-540 -1269 0
-542 -1270 0
-543 -1271 0
-544 -1272 0
-538 -1274 0
-539 -1275 0
-541 -1276 0
-543 -1277 0
-544 -1278 0
-539 -1288 0
-541 -1290 0
-543 -1291 0
-544 -1292 0
-536 -1293 0
-539 -1295 0
-541 -1296 0
-542 -1297 0
-543 -1298 0
-544 -1299 0
-537 -1301 0
-538 -1302 0
-539 -1303 0
-541 -1304 0
-543 -1305 0
-544 -1306 0
-536 -1321 0
-537 -1322 0
-539 -1323 0
-541 -1325 0
-543 -1326 0
-544 -1327 0
-537 -1334 0
-539 -1335 0
-540 -1337 0
-541 -1338 0
-542 -1339 0
-544 -1340 0
-538 -1342 0
-539 -1343 0
-540 -1344 0
-543 -1345 0
-544 -1346 0
-538 -1348 0
-539 -1349 0
-540 -1351 0
-541 -1352 0
-544 -1353 0
-536 -1363 0
-538 -1365 0
-539 -1366 0
-540 -1367 0
-542 -1368 0
-544 -1369 0
-536 -1377 0
-538 -1378 0
-540 -1380 0
-543 -1381 0
-544 -1382 0
-536 -1390 0
-540 -1393 0
-541 -1394 0
-543 -1395 0
-544 -1396 0
-536 -1397 0
-539 -1398 0
-540 -1400 0
-542 -1401 0
-543 -1402 0
-544 -1403 0
-538 -1410 0
-539 -1411 0
-540 -1413 0
-542 -1414 0
-544 -1415 0
-539 -1423 0
-540 -1424 0
-541 -1425 0
-542 -1426 0
-543 -1427 0
-544 -1428 0
-539 -1435 0
-540 -1437 0
-541 -1438 0
-543 -1439 0
-544 -1440 0
-538 -1442 0
-539 -1443 0
-541 -1445 0
-542 -1446 0
-543 -1447 0
-544 -1448 0
-540 -1459 0
-541 -1460 0
-542 -1461 0
-543 -1462 0
-544 -1463 0
-537 -1473 0
-539 -1474 0
-540 -1476 0
-541 -1477 0
-542 -1478 0
-544 -1479 0
-537 -1481 0
-539 -1482 0
-540 -1483 0
-541 -1484 0
-543 -1485 0
-544 -1486 0
-537 -1494 0
-540 -1495 0
-541 -1496 0
-543 -1497 0
-544 -1498 0
-538 -1510 0
-541 -1512 0
-542 -1513 0
-544 -1514 0
-541 -1524 0
-542 -1525 0
-543 -1526 0
-544 -1527 0
-539 -1544 0
-541 -1546 0
-543 -1547 0
-544 -1548 0
-536 -1555 0
-539 -1557 0
-541 -1558 0
-542 -1559 0
-543 -1560 0
-544 -1561 0
-537 -1563 0
-538 -1564 0
-539 -1565 0
-541 -1566 0
-543 -1567 0
-544 -1568 0
-537 -1570 0
-539 -1571 0
-541 -1573 0
-544 -1574 0
-536 -1585 0
-537 -1587 0
-541 -1588 0
-542 -1589 0
-544 -1590 0
-537 -1616 0
-539 -1617 0
-540 -1619 0
-541 -1620 0
-542 -1621 0
-544 -1622 0
-538 -1631 0
-540 -1633 0
-541 -1634 0
-544 -1635 0
-539 -1655 0
-540 -1656 0
-542 -1657 0
-543 -1658 0
-544 -1659 0
-537 -1660 0
-538 -1661 0
-539 -1662 0
-540 -1664 0
-541 -1665 0
-542 -1666 0
-543 -1667 0
-544 -1668 0
-538 -1718 0
-539 -1719 0
-541 -1720 0
-542 -1721 0
-544 -1722 0
-536 -1730 0
-538 -1731 0
-539 -1732 0
-541 -1734 0
-544 -1735 0
-539 -1782 0
-540 -1784 0
-541 -1785 0
-543 -1786 0
-544 -1787 0
-539 -1789 0
-540 -1790 0
-542 -1791 0
-543 -1792 0
-544 -1793 0
-537 -1794 0
-540 -1796 0
-542 -1797 0
-543 -1798 0
-544 -1799 0
-538 -1808 0
-539 -1809 0
-541 -1810 0
-542 -1811 0
-544 -1812 0
-538 -1813 0
-539 -1814 0
-541 -1816 0
-542 -1817 0
-543 -1818 0
-544 -1819 0
-539 -1827 0
-542 -1829 0
-543 -1830 0
-544 -1831 0
-536 -1832 0
-541 -1834 0
-542 -1835 0
-543 -1836 0
-544 -1837 0
-540 -1848 0
-543 -1849 0
-544 -1850 0
-537 -1859 0
-539 -1860 0
-540 -1862 0
-543 -1863 0
-544 -1864 0
-538 -1873 0
-541 -1875 0
-543 -1876 0
-544 -1877 0
-536 -1885 0
-539 -1887 0
-541 -1889 0
-542 -1890 0
-544 -1891 0
-536 -1899 0
-539 -1901 0
-541 -1902 0
-543 -1903 0
-544 -1904 0
-540 -1920 0
-541 -1921 0
-542 -1922 0
-544 -1923 0
-538 -1925 0
-540 -1927 0
-542 -1928 0
-543 -1929 0
-544 -1930 0
-536 -1938 0
-539 -1939 0
-540 -1941 0
-542 -1942 0
-543 -1943 0
-544 -1944 0
-539 -1953 0
-540 -1954 0
-541 -1955 0
-542 -1956 0
-543 -1957 0
-544 -1958 0
-548 -574 0
-549 -576 0
-551 -577 0
-546 -579 0
-547 -580 0
-548 -582 0
-549 -585 0
-550 -586 0
-551 -587 0
-546 -600 0
-547 -601 0
-548 -603 0
-550 -604 0
-551 -605 0
-547 -607 0
-548 -608 0
-549 -609 0
-550 -610 0
-551 -611 0
-547 -621 0
-548 -622 0
-549 -624 0
-551 -625 0
-547 -657 0
-548 -658 0
-551 -661 0
-546 -662 0
-547 -663 0
-548 -664 0
-550 -667 0
-551 -668 0
-545 -669 0
-548 -671 0
-549 -673 0
-551 -674 0
-546 -676 0
-547 -677 0
-548 -678 0
-551 -680 0
-545 -681 0
-546 -682 0
-547 -683 0
-548 -684 0
-549 -685 0
-550 -686 0
-551 -687 0
-546 -717 0
-548 -719 0
-549 -722 0
-551 -723 0
-547 -731 0
-548 -732 0
-551 -735 0
-547 -762 0
-548 -764 0
-549 -766 0
-551 -767 0
-545 -768 0
-547 -769 0
-548 -771 0
-551 -773 0
-548 -796 0
-549 -798 0
-551 -799 0
-545 -800 0
-548 -803 0
-550 -804 0
-551 -805 0
-546 -808 0
-547 -809 0
-548 -811 0
-549 -812 0
-550 -813 0
-551 -814 0
-546 -817 0
-549 -820 0
-551 -821 0
-545 -822 0
-546 -825 0
-550 -829 0
-551 -830 0
-545 -851 0
-546 -853 0
-548 -855 0
-549 -858 0
-550 -859 0
-551 -860 0
-545 -861 0
-546 -863 0
-549 -865 0
-550 -866 0
-551 -867 0
-546 -869 0
-548 -870 0
-550 -872 0
-551 -873 0
-546 -886 0
-548 -887 0
-549 -889 0
-550 -890 0
-551 -891 0
-547 -894 0
-549 -896 0
-551 -897 0
-545 -898 0
-547 -901 0
-550 -902 0
-551 -903 0
-545 -913 0
-548 -916 0
-551 -918 0
-545 -947 0
-549 -952 0
-551 -953 0
-545 -954 0
-550 -958 0
-551 -959 0
-545 -960 0
-546 -962 0
-547 -963 0
-549 -966 0
-550 -967 0
-551 -968 0
-545 -969 0
-546 -971 0
-548 -972 0
-549 -974 0
-551 -975 0
-545 -976 0
-546 -978 0
-548 -979 0
-550 -980 0
-551 -981 0
-551 -994 0
-546 -1035 0
-549 -1038 0
-551 -1039 0
-545 -1040 0
-546 -1041 0
-550 -1044 0
-551 -1045 0
-547 -1054 0
-548 -1055 0
-549 -1057 0
-551 -1058 0
-545 -1059 0
-547 -1061 0
-548 -1062 0
-549 -1065 0
-550 -1066 0
-551 -1067 0
-545 -1075 0
-549 -1080 0
-551 -1081 0
-545 -1106 0
-546 -1107 0
-547 -1108 0
-548 -1109 0
-549 -1110 0
-550 -1111 0
-551 -1112 0
-545 -1113 0
-546 -1114 0
-549 -1117 0
-550 -1118 0
-551 -1119 0
-548 -1122 0
-549 -1124 0
-551 -1125 0
-546 -1159 0
-548 -1161 0
-549 -1164 0
-551 -1165 0
-545 -1192 0
-547 -1194 0
-549 -1197 0
-551 -1198 0
-545 -1199 0
-547 -1200 0
-549 -1202 0
-550 -1203 0
-551 -1204 0
-545 -1212 0
-548 -1215 0
-549 -1217 0
-551 -1218 0
-545 -1260 0
-549 -1264 0
-551 -1265 0
-547 -1280 0
-548 -1282 0
-550 -1284 0
-551 -1285 0
-545 -1293 0
-549 -1297 0
-550 -1298 0
-551 -1299 0
-546 -1301 0
-547 -1302 0
-550 -1305 0
-551 -1306 0
-546 -1328 0
-549 -1331 0
-550 -1332 0
-551 -1333 0
-547 -1342 0
-550 -1345 0
-551 -1346 0
-547 -1348 0
-548 -1350 0
-551 -1353 0
-545 -1354 0
-547 -1356 0
-548 -1358 0
-549 -1360 0
-550 -1361 0
-551 -1362 0
-545 -1383 0
-547 -1384 0
-550 -1388 0
-551 -1389 0
-545 -1397 0
-548 -1399 0
-549 -1401 0
-550 -1402 0
-551 -1403 0
-547 -1404 0
-549 -1407 0
-550 -1408 0
-551 -1409 0
-548 -1417 0
-549 -1420 0
-551 -1421 0
-547 -1442 0
-548 -1444 0
-549 -1446 0
-550 -1447 0
-551 -1448 0
-545 -1449 0
-547 -1450 0
-550 -1454 0
-551 -1455 0
-548 -1458 0
-549 -1461 0
-550 -1462 0
-551 -1463 0
-546 -1466 0
-549 -1468 0
-550 -1469 0
-551 -1470 0
-546 -1488 0
-548 -1489 0
-550 -1491 0
-551 -1492 0
-546 -1494 0
-550 -1497 0
-551 -1498 0
-547 -1501 0
-549 -1505 0
-550 -1506 0
-551 -1507 0
-548 -1518 0
-549 -1520 0
-551 -1521 0
-551 -1554 0
-545 -1555 0
-549 -1559 0
-550 -1560 0
-551 -1561 0
-546 -1563 0
-547 -1564 0
-550 -1567 0
-551 -1568 0
-546 -1570 0
-548 -1572 0
-551 -1574 0
-545 -1575 0
-546 -1577 0
-548 -1579 0
-549 -1582 0
-550 -1583 0
-551 -1584 0
-546 -1610 0
-549 -1613 0
-550 -1614 0
-551 -1615 0
-547 -1624 0
-548 -1626 0
-550 -1628 0
-551 -1629 0
-551 -1641 0
-546 -1660 0
-547 -1661 0
-548 -1663 0
-549 -1666 0
-550 -1667 0
-551 -1668 0
-545 -1669 0
-546 -1670 0
-550 -1673 0
-551 -1674 0
-547 -1718 0
-549 -1721 0
-551 -1722 0
-545 -1723 0
-547 -1724 0
-550 -1728 0
-551 -1729 0
-545 -1736 0
-548 -1739 0
-551 -1741 0
-549 -1791 0
-550 -1792 0
-551 -1793 0
-547 -1801 0
-548 -1802 0
-549 -1804 0
-550 -1805 0
-551 -1806 0
-547 -1820 0
-549 -1823 0
-550 -1824 0
-551 -1825 0
-545 -1832 0
-548 -1833 0
-549 -1835 0
-550 -1836 0
-551 -1837 0
-547 -1839 0
-549 -1842 0
-550 -1843 0
-551 -1844 0
-548 -1854 0
-550 -1856 0
-551 -1857 0
-546 -1859 0
-548 -1861 0
-550 -1863 0
-551 -1864 0
-547 -1873 0
-548 -1874 0
-550 -1876 0
-551 -1877 0
-545 -1879 0
-549 -1882 0
-550 -1883 0
-551 -1884 0
-545 -1905 0
-548 -1907 0
-550 -1910 0
-551 -1911 0
-548 -1914 0
-549 -1915 0
-550 -1916 0
-551 -1917 0
-547 -1925 0
-548 -1926 0
-549 -1928 0
-550 -1929 0
-551 -1930 0
-545 -1931 0
-548 -1933 0
-550 -1936 0
-551 -1937 0
-548 -1946 0
-550 -1949 0
-551 -1950 0
-552 -595 0
-557 -598 0
-558 -599 0
-552 -600 0
-553 -601 0
-554 -602 0
-557 -604 0
-558 -605 0
-553 -607 0
-556 -609 0
-557 -610 0
-558 -611 0
-553 -613 0
-554 -614 0
-555 -615 0
-556 -617 0
-558 -618 0
-553 -621 0
-556 -624 0
-558 -625 0
-553 -628 0
-554 -629 0
-555 -631 0
-556 -632 0
-557 -633 0
-558 -634 0
-552 -643 0
-553 -644 0
-554 -645 0
-556 -647 0
-558 -648 0
-555 -672 0
-556 -673 0
-558 -674 0
-552 -682 0
-553 -683 0
-556 -685 0
-557 -686 0
-558 -687 0
-552 -689 0
-553 -690 0
-554 -691 0
-555 -693 0
-556 -695 0
-558 -696 0
-555 -699 0
-556 -701 0
-557 -702 0
-558 -703 0
-552 -704 0
-553 -705 0
-556 -708 0
-558 -709 0
-552 -710 0
-553 -711 0
-554 -712 0
-555 -713 0
-556 -714 0
-557 -715 0
-558 -716 0
-553 -731 0
-555 -733 0
-558 -735 0
-552 -736 0
-553 -737 0
-554 -738 0
-555 -739 0
-558 -741 0
-553 -750 0
-555 -752 0
-556 -754 0
-558 -755 0
-553 -757 0
-554 -758 0
-556 -759 0
-557 -760 0
-558 -761 0
-556 -790 0
-557 -791 0
-558 -792 0
-554 -795 0
-555 -797 0
-556 -798 0
-558 -799 0
-552 -808 0
-553 -809 0
-554 -810 0
-556 -812 0
-557 -813 0
-558 -814 0
-552 -817 0
-554 -818 0
-556 -820 0
-558 -821 0
-552 -847 0
-556 -848 0
-557 -849 0
-558 -850 0
-552 -853 0
-554 -854 0
-555 -856 0
-556 -858 0
-557 -859 0
-558 -860 0
-552 -863 0
-554 -864 0
-556 -865 0
-557 -866 0
-558 -867 0
-552 -869 0
-557 -872 0
-558 -873 0
-552 -875 0
-554 -876 0
-555 -878 0
-558 -879 0
-552 -881 0
-554 -882 0
-558 -885 0
-553 -901 0
-557 -902 0
-558 -903 0
-553 -907 0
-554 -908 0
-555 -910 0
-558 -912 0
-558 -918 0
-554 -922 0
-555 -923 0
-557 -924 0
-558 -925 0
-552 -934 0
-553 -935 0
-554 -936 0
-558 -937 0
-555 -956 0
-557 -958 0
-558 -959 0
-552 -978 0
-557 -980 0
-558 -981 0
-552 -984 0
-554 -985 0
-555 -986 0
-558 -988 0
-555 -1004 0
-556 -1005 0
-558 -1006 0
-552 -1021 0
-556 -1023 0
-558 -1024 0
-552 -1027 0
-554 -1028 0
-555 -1030 0
-556 -1031 0
-557 -1032 0
-558 -1033 0
-553 -1061 0
-555 -1063 0
-556 -1065 0
-557 -1066 0
-558 -1067 0
-553 -1070 0
-554 -1071 0
-556 -1073 0
-558 -1074 0
-555 -1078 0
-556 -1080 0
-558 -1081 0
-552 -1091 0
-553 -1092 0
-554 -1093 0
-555 -1095 0
-556 -1097 0
-558 -1098 0
-552 -1114 0
-555 -1115 0
-556 -1117 0
-557 -1118 0
-558 -1119 0
-552 -1147 0
-555 -1149 0
-558 -1151 0
-552 -1153 0
-554 -1154 0
-557 -1157 0
-558 -1158 0
-553 -1181 0
-555 -1182 0
-558 -1184 0
-553 -1187 0
-554 -1188 0
-557 -1190 0
-558 -1191 0
-556 -1257 0
-557 -1258 0
-558 -1259 0
-555 -1309 0
-556 -1311 0
-557 -1312 0
-558 -1313 0
-552 -1314 0
-553 -1315 0
-554 -1316 0
-555 -1317 0
-556 -1318 0
-557 -1319 0
-558 -1320 0
-553 -1342 0
-554 -1343 0
-555 -1344 0
-557 -1345 0
-558 -1346 0
-553 -1348 0
-554 -1349 0
-555 -1351 0
-558 -1353 0
-553 -1378 0
-555 -1380 0
-557 -1381 0
-558 -1382 0
-553 -1384 0
-554 -1385 0
-555 -1386 0
-557 -1388 0
-558 -1389 0
-555 -1393 0
-557 -1395 0
-558 -1396 0
-553 -1404 0
-555 -1405 0
-556 -1407 0
-557 -1408 0
-558 -1409 0
-553 -1410 0
-554 -1411 0
-555 -1413 0
-556 -1414 0
-558 -1415 0
-555 -1418 0
-556 -1420 0
-558 -1421 0
-554 -1423 0
-555 -1424 0
-556 -1426 0
-557 -1427 0
-558 -1428 0
-553 -1442 0
-554 -1443 0
-556 -1446 0
-557 -1447 0
-558 -1448 0
-552 -1481 0
-554 -1482 0
-555 -1483 0
-557 -1485 0
-558 -1486 0
-552 -1488 0
-557 -1491 0
-558 -1492 0
-552 -1494 0
-555 -1495 0
-557 -1497 0
-558 -1498 0
-553 -1501 0
-554 -1502 0
-555 -1503 0
-556 -1505 0
-557 -1506 0
-558 -1507 0
-553 -1510 0
-556 -1513 0
-558 -1514 0
-554 -1517 0
-555 -1519 0
-556 -1520 0
-558 -1521 0
-556 -1525 0
-557 -1526 0
-558 -1527 0
-552 -1536 0
-553 -1537 0
-555 -1538 0
-556 -1540 0
-558 -1541 0
-554 -1557 0
-556 -1559 0
-557 -1560 0
-558 -1561 0
-552 -1577 0
-554 -1578 0
-555 -1580 0
-556 -1582 0
-557 -1583 0
-558 -1584 0
-552 -1587 0
-556 -1589 0
-558 -1590 0
-554 -1592 0
-556 -1595 0
-558 -1596 0
-552 -1598 0
-554 -1599 0
-555 -1600 0
-556 -1601 0
-558 -1602 0
-552 -1604 0
-556 -1607 0
-557 -1608 0
-558 -1609 0
-553 -1624 0
-554 -1625 0
-555 -1627 0
-557 -1628 0
-558 -1629 0
-553 -1631 0
-555 -1633 0
-558 -1635 0
-554 -1638 0
-555 -1639 0
-558 -1641 0
-552 -1649 0
-553 -1650 0
-555 -1652 0
-558 -1653 0
-552 -1670 0
-554 -1671 0
-555 -1672 0
-557 -1673 0
-558 -1674 0
-552 -1675 0
-554 -1676 0
-555 -1678 0
-556 -1680 0
-558 -1681 0
-552 -1682 0
-555 -1684 0
-556 -1685 0
-557 -1686 0
-558 -1687 0
-553 -1703 0
-554 -1704 0
-555 -1705 0
-556 -1706 0
-558 -1707 0
-553 -1710 0
-555 -1712 0
-556 -1714 0
-557 -1715 0
-558 -1716 0
-554 -1743 0
-555 -1744 0
-556 -1746 0
-558 -1747 0
-554 -1775 0
-555 -1777 0
-556 -1778 0
-557 -1779 0
-558 -1780 0
-553 -1813 0
-554 -1814 0
-556 -1817 0
-557 -1818 0
-558 -1819 0
-553 -1820 0
-555 -1821 0
-556 -1823 0
-557 -1824 0
-558 -1825 0
-554 -1827 0
-556 -1829 0
-557 -1830 0
-558 -1831 0
-552 -1866 0
-556 -1869 0
-557 -1870 0
-558 -1871 0
-553 -1873 0
-557 -1876 0
-558 -1877 0
-554 -1901 0
-557 -1903 0
-558 -1904 0
-555 -1908 0
-557 -1910 0
-558 -1911 0
-554 -1913 0
-556 -1915 0
-557 -1916 0
-558 -1917 0
-555 -1920 0
-556 -1922 0
-558 -1923 0
-553 -1925 0
-555 -1927 0
-556 -1928 0
-557 -1929 0
-558 -1930 0
-554 -1939 0
-555 -1941 0
-556 -1942 0
-557 -1943 0
-558 -1944 0
-554 -1945 0
-555 -1947 0
-557 -1949 0
-558 -1950 0
-561 -573 0
-562 -574 0
-563 -575 0
-565 -577 0
-560 -579 0
-561 -581 0
-562 -582 0
-563 -584 0
-564 -586 0
-565 -587 0
-560 -600 0
-561 -602 0
-562 -603 0
-564 -604 0
-565 -605 0
-562 -608 0
-564 -610 0
-565 -611 0
-561 -629 0
-562 -630 0
-564 -633 0
-565 -634 0
-559 -635 0
-561 -638 0
-562 -639 0
-565 -641 0
-560 -643 0
-561 -645 0
-562 -646 0
-565 -648 0
-562 -658 0
-563 -660 0
-565 -661 0
-560 -662 0
-562 -664 0
-563 -666 0
-564 -667 0
-565 -668 0
-559 -688 0
-560 -689 0
-561 -691 0
-562 -692 0
-563 -694 0
-565 -696 0
-560 -710 0
-561 -712 0
-564 -715 0
-565 -716 0
-560 -736 0
-561 -738 0
-563 -740 0
-565 -741 0
-559 -756 0
-561 -758 0
-564 -760 0
-565 -761 0
-563 -789 0
-564 -791 0
-565 -792 0
-560 -817 0
-561 -818 0
-563 -819 0
-565 -821 0
-559 -822 0
-560 -825 0
-561 -826 0
-563 -828 0
-564 -829 0
-565 -830 0
-560 -840 0
-564 -843 0
-565 -844 0
-559 -845 0
-560 -847 0
-564 -849 0
-565 -850 0
-559 -861 0
-560 -863 0
-561 -864 0
-564 -866 0
-565 -867 0
-560 -869 0
-562 -870 0
-563 -871 0
-564 -872 0
-565 -873 0
-560 -881 0
-561 -882 0
-562 -883 0
-563 -884 0
-565 -885 0
-560 -886 0
-562 -887 0
-564 -890 0
-565 -891 0
-565 -897 0
-559 -898 0
-564 -902 0
-565 -903 0
-559 -919 0
-561 -922 0
-564 -924 0
-565 -925 0
-559 -926 0
-561 -929 0
-565 -931 0
-559 -932 0
-560 -934 0
-561 -936 0
-565 -937 0
-559 -947 0
-563 -951 0
-565 -953 0
-559 -954 0
-563 -957 0
-564 -958 0
-565 -959 0
-559 -960 0
-560 -962 0
-563 -965 0
-564 -967 0
-565 -968 0
-559 -982 0
-560 -984 0
-561 -985 0
-563 -987 0
-565 -988 0
-562 -997 0
-564 -999 0
-565 -1000 0
-559 -1001 0
-562 -1003 0
-565 -1006 0
-560 -1008 0
-562 -1010 0
-565 -1012 0
-559 -1025 0
-560 -1027 0
-561 -1028 0
-562 -1029 0
-564 -1032 0
-565 -1033 0
-559 -1046 0
-560 -1047 0
-562 -1048 0
-563 -1050 0
-565 -1051 0
-562 -1055 0
-563 -1056 0
-565 -1058 0
-559 -1059 0
-562 -1062 0
-563 -1064 0
-564 -1066 0
-565 -1067 0
-559 -1082 0
-561 -1084 0
-562 -1085 0
-563 -1087 0
-565 -1088 0
-559 -1089 0
-560 -1091 0
-561 -1093 0
-562 -1094 0
-563 -1096 0
-565 -1098 0
-559 -1106 0
-560 -1107 0
-562 -1109 0
-564 -1111 0
-565 -1112 0
-562 -1127 0
-563 -1129 0
-564 -1131 0
-565 -1132 0
-560 -1133 0
-562 -1135 0
-563 -1136 0
-565 -1138 0
-559 -1152 0
-560 -1153 0
-561 -1154 0
-562 -1155 0
-563 -1156 0
-564 -1157 0
-565 -1158 0
-559 -1166 0
-562 -1169 0
-565 -1171 0
-559 -1185 0
-561 -1188 0
-562 -1189 0
-564 -1190 0
-565 -1191 0
-559 -1205 0
-562 -1207 0
-563 -1209 0
-565 -1211 0
-559 -1235 0
-562 -1237 0
-564 -1239 0
-565 -1240 0
-561 -1288 0
-562 -1289 0
-563 -1290 0
-564 -1291 0
-565 -1292 0
-562 -1308 0
-563 -1310 0
-564 -1312 0
-565 -1313 0
-559 -1321 0
-560 -1322 0
-561 -1323 0
-562 -1324 0
-563 -1325 0
-564 -1326 0
-565 -1327 0
-560 -1328 0
-561 -1329 0
-563 -1330 0
-564 -1332 0
-565 -1333 0
-561 -1349 0
-562 -1350 0
-563 -1352 0
-565 -1353 0
-559 -1354 0
-561 -1357 0
-562 -1358 0
-563 -1359 0
-564 -1361 0
-565 -1362 0
-562 -1372 0
-564 -1375 0
-565 -1376 0
-559 -1377 0
-562 -1379 0
-564 -1381 0
-565 -1382 0
-559 -1397 0
-561 -1398 0
-562 -1399 0
-564 -1402 0
-565 -1403 0
-563 -1406 0
-564 -1408 0
-565 -1409 0
-561 -1423 0
-563 -1425 0
-564 -1427 0
-565 -1428 0
-559 -1429 0
-561 -1430 0
-563 -1432 0
-565 -1434 0
-559 -1449 0
-561 -1451 0
-563 -1453 0
-564 -1454 0
-565 -1455 0
-560 -1466 0
-564 -1469 0
-565 -1470 0
-560 -1481 0
-561 -1482 0
-563 -1484 0
-564 -1485 0
-565 -1486 0
-560 -1494 0
-563 -1496 0
-564 -1497 0
-565 -1498 0
-561 -1502 0
-563 -1504 0
-564 -1506 0
-565 -1507 0
-563 -1524 0
-564 -1526 0
-565 -1527 0
-559 -1528 0
-563 -1532 0
-565 -1534 0
-560 -1536 0
-563 -1539 0
-565 -1541 0
-561 -1551 0
-563 -1553 0
-565 -1554 0
-559 -1555 0
-561 -1557 0
-563 -1558 0
-564 -1560 0
-565 -1561 0
-560 -1563 0
-561 -1565 0
-563 -1566 0
-564 -1567 0
-565 -1568 0
-559 -1585 0
-560 -1587 0
-563 -1588 0
-565 -1590 0
-561 -1592 0
-562 -1593 0
-563 -1594 0
-565 -1596 0
-560 -1604 0
-562 -1605 0
-563 -1606 0
-564 -1608 0
-565 -1609 0
-560 -1616 0
-561 -1617 0
-562 -1618 0
-563 -1620 0
-565 -1622 0
-561 -1625 0
-562 -1626 0
-564 -1628 0
-565 -1629 0
-559 -1642 0
-562 -1644 0
-565 -1647 0
-560 -1649 0
-562 -1651 0
-565 -1653 0
-560 -1660 0
-561 -1662 0
-562 -1663 0
-563 -1665 0
-564 -1667 0
-565 -1668 0
-560 -1682 0
-562 -1683 0
-564 -1686 0
-565 -1687 0
-561 -1690 0
-562 -1691 0
-563 -1693 0
-565 -1694 0
-559 -1708 0
-562 -1711 0
-563 -1713 0
-564 -1715 0
-565 -1716 0
-559 -1730 0
-561 -1732 0
-562 -1733 0
-563 -1734 0
-565 -1735 0
-561 -1755 0
-562 -1756 0
-563 -1757 0
-564 -1759 0
-565 -1760 0
-560 -1794 0
-562 -1795 0
-564 -1798 0
-565 -1799 0
-562 -1802 0
-564 -1805 0
-565 -1806 0
-561 -1814 0
-562 -1815 0
-563 -1816 0
-564 -1818 0
-565 -1819 0
-559 -1832 0
-562 -1833 0
-563 -1834 0
-564 -1836 0
-565 -1837 0
-563 -1841 0
-564 -1843 0
-565 -1844 0
-559 -1879 0
-564 -1883 0
-565 -1884 0
-561 -1893 0
-563 -1895 0
-564 -1897 0
-565 -1898 0
-559 -1899 0
-561 -1901 0
-563 -1902 0
-564 -1903 0
-565 -1904 0
-561 -1913 0
-562 -1914 0
-564 -1916 0
-565 -1917 0
-559 -1931 0
-562 -1933 0
-563 -1935 0
-564 -1936 0
-565 -1937 0
-559 -1938 0
-561 -1939 0
-562 -1940 0
-564 -1943 0
-565 -1944 0
-561 -1945 0
-562 -1946 0
-563 -1948 0
-564 -1949 0
-565 -1950 0
-568 -573 0
-571 -577 0
-567 -589 0
-568 -591 0
-571 -593 0
-567 -595 0
-570 -598 0
-571 -599 0
-567 -600 0
-568 -602 0
-570 -604 0
-571 -605 0
-568 -614 0
-569 -615 0
-571 -618 0
-571 -625 0
-566 -635 0
-568 -638 0
-571 -641 0
-567 -643 0
-568 -645 0
-571 -648 0
-568 -651 0
-569 -653 0
-570 -654 0
-571 -655 0
-567 -662 0
-569 -665 0
-570 -667 0
-571 -668 0
-566 -681 0
-567 -682 0
-570 -686 0
-571 -687 0
-567 -704 0
-571 -709 0
-569 -733 0
-571 -735 0
-567 -736 0
-568 -738 0
-569 -739 0
-571 -741 0
-566 -749 0
-569 -752 0
-571 -755 0
-568 -795 0
-569 -797 0
-571 -799 0
-567 -817 0
-568 -818 0
-571 -821 0
-566 -831 0
-567 -834 0
-568 -835 0
-571 -837 0
-567 -840 0
-569 -841 0
-570 -843 0
-571 -844 0
-566 -851 0
-567 -853 0
-568 -854 0
-569 -856 0
-570 -859 0
-571 -860 0
-566 -861 0
-567 -863 0
-568 -864 0
-570 -866 0
-571 -867 0
-567 -875 0
-568 -876 0
-569 -878 0
-571 -879 0
-567 -881 0
-568 -882 0
-571 -885 0
-567 -886 0
-569 -888 0
-570 -890 0
-571 -891 0
-569 -895 0
-571 -897 0
-566 -904 0
-568 -908 0
-569 -910 0
-571 -912 0
-566 -913 0
-571 -918 0
-566 -926 0
-568 -929 0
-571 -931 0
-566 -932 0
-567 -934 0
-568 -936 0
-571 -937 0
-566 -938 0
-568 -941 0
-569 -943 0
-570 -945 0
-571 -946 0
-566 -954 0
-569 -956 0
-570 -958 0
-571 -959 0
-566 -960 0
-567 -962 0
-569 -964 0
-570 -967 0
-571 -968 0
-566 -976 0
-567 -978 0
-570 -980 0
-571 -981 0
-568 -991 0
-569 -992 0
-571 -994 0
-566 -1001 0
-569 -1004 0
-571 -1006 0
-567 -1008 0
-569 -1011 0
-571 -1012 0
-566 -1019 0
-567 -1021 0
-571 -1024 0
-566 -1040 0
-567 -1041 0
-568 -1042 0
-569 -1043 0
-570 -1044 0
-571 -1045 0
-571 -1058 0
-566 -1068 0
-568 -1071 0
-571 -1074 0
-566 -1075 0
-569 -1078 0
-571 -1081 0
-566 -1082 0
-568 -1084 0
-569 -1086 0
-571 -1088 0
-566 -1089 0
-567 -1091 0
-568 -1093 0
-569 -1095 0
-571 -1098 0
-566 -1099 0
-568 -1101 0
-570 -1104 0
-571 -1105 0
-566 -1106 0
-567 -1107 0
-570 -1111 0
-571 -1112 0
-566 -1113 0
-567 -1114 0
-569 -1115 0
-570 -1118 0
-571 -1119 0
-568 -1121 0
-571 -1125 0
-567 -1133 0
-571 -1138 0
-566 -1146 0
-567 -1147 0
-569 -1149 0
-571 -1151 0
-566 -1166 0
-571 -1171 0
-566 -1179 0
-569 -1182 0
-571 -1184 0
-566 -1199 0
-568 -1201 0
-570 -1203 0
-571 -1204 0
-566 -1229 0
-568 -1231 0
-571 -1234 0
-567 -1334 0
-568 -1335 0
-569 -1337 0
-571 -1340 0
-568 -1349 0
-569 -1351 0
-571 -1353 0
-566 -1363 0
-568 -1366 0
-569 -1367 0
-571 -1369 0
-569 -1373 0
-570 -1375 0
-571 -1376 0
-566 -1383 0
-568 -1385 0
-569 -1386 0
-570 -1388 0
-571 -1389 0
-566 -1390 0
-569 -1393 0
-570 -1395 0
-571 -1396 0
-566 -1397 0
-568 -1398 0
-569 -1400 0
-570 -1402 0
-571 -1403 0
-568 -1411 0
-569 -1413 0
-571 -1415 0
-569 -1418 0
-571 -1421 0
-566 -1429 0
-568 -1430 0
-569 -1431 0
-571 -1434 0
-568 -1435 0
-569 -1437 0
-570 -1439 0
-571 -1440 0
-567 -1473 0
-568 -1474 0
-569 -1476 0
-571 -1479 0
-567 -1488 0
-570 -1491 0
-571 -1492 0
-567 -1494 0
-569 -1495 0
-570 -1497 0
-571 -1498 0
-571 -1514 0
-568 -1517 0
-569 -1519 0
-571 -1521 0
-566 -1528 0
-569 -1531 0
-571 -1534 0
-567 -1536 0
-569 -1538 0
-571 -1541 0
-568 -1544 0
-570 -1547 0
-571 -1548 0
-566 -1555 0
-568 -1557 0
-570 -1560 0
-571 -1561 0
-567 -1563 0
-568 -1565 0
-570 -1567 0
-571 -1568 0
-566 -1575 0
-567 -1577 0
-568 -1578 0
-569 -1580 0
-570 -1583 0
-571 -1584 0
-568 -1592 0
-571 -1596 0
-567 -1598 0
-568 -1599 0
-569 -1600 0
-571 -1602 0
-567 -1610 0
-568 -1611 0
-570 -1614 0
-571 -1615 0
-569 -1633 0
-571 -1635 0
-568 -1638 0
-569 -1639 0
-571 -1641 0
-566 -1642 0
-569 -1645 0
-571 -1647 0
-567 -1649 0
-569 -1652 0
-571 -1653 0
-568 -1655 0
-569 -1656 0
-570 -1658 0
-571 -1659 0
-567 -1660 0
-568 -1662 0
-569 -1664 0
-570 -1667 0
-571 -1668 0
-566 -1669 0
-567 -1670 0
-568 -1671 0
-569 -1672 0
-570 -1673 0
-571 -1674 0
-567 -1675 0
-568 -1676 0
-569 -1678 0
-571 -1681 0
-568 -1690 0
-569 -1692 0
-571 -1694 0
-566 -1701 0
-568 -1704 0
-569 -1705 0
-571 -1707 0
-566 -1723 0
-568 -1725 0
-569 -1726 0
-570 -1728 0
-571 -1729 0
-568 -1749 0
-569 -1751 0
-571 -1753 0
-568 -1809 0
-571 -1812 0
-569 -1821 0
-570 -1824 0
-571 -1825 0
-568 -1827 0
-570 -1830 0
-571 -1831 0
-566 -1832 0
-570 -1836 0
-571 -1837 0
-566 -1885 0
-568 -1887 0
-571 -1891 0
-568 -1893 0
-569 -1894 0
-570 -1897 0
-571 -1898 0
-566 -1905 0
-569 -1908 0
-570 -1910 0
-571 -1911 0
-569 -1920 0
-571 -1923 0
-574 -664 0
-575 -666 0
-577 -668 0
-573 -763 0
-574 -764 0
-576 -766 0
-577 -767 0
-572 -807 0
-573 -810 0
-574 -811 0
-576 -812 0
-577 -814 0
-572 -839 0
-576 -842 0
-577 -844 0
-572 -846 0
-576 -848 0
-577 -850 0
-572 -852 0
-573 -854 0
-574 -855 0
-575 -857 0
-576 -858 0
-577 -860 0
-573 -864 0
-576 -865 0
-577 -867 0
-572 -868 0
-574 -870 0
-575 -871 0
-577 -873 0
-572 -874 0
-573 -876 0
-574 -877 0
-577 -879 0
-573 -882 0
-574 -883 0
-575 -884 0
-577 -885 0
-572 -893 0
-576 -896 0
-577 -897 0
-572 -900 0
-577 -903 0
-572 -906 0
-573 -908 0
-574 -909 0
-575 -911 0
-577 -912 0
-573 -936 0
-577 -937 0
-572 -940 0
-573 -941 0
-574 -942 0
-576 -944 0
-577 -946 0
-572 -949 0
-575 -951 0
-576 -952 0
-577 -953 0
-572 -955 0
-575 -957 0
-577 -959 0
-574 -972 0
-576 -974 0
-577 -975 0
-574 -979 0
-577 -981 0
-573 -985 0
-575 -987 0
-577 -988 0
-572 -990 0
-573 -991 0
-575 -993 0
-577 -994 0
-572 -996 0
-574 -997 0
-577 -1000 0
-572 -1002 0
-574 -1003 0
-576 -1005 0
-577 -1006 0
-575 -1016 0
-577 -1018 0
-575 -1022 0
-576 -1023 0
-577 -1024 0
-573 -1028 0
-574 -1029 0
-576 -1031 0
-577 -1033 0
-572 -1053 0
-574 -1055 0
-575 -1056 0
-576 -1057 0
-577 -1058 0
-572 -1060 0
-574 -1062 0
-575 -1064 0
-576 -1065 0
-577 -1067 0
-572 -1069 0
-573 -1071 0
-574 -1072 0
-576 -1073 0
-577 -1074 0
-573 -1093 0
-574 -1094 0
-575 -1096 0
-576 -1097 0
-577 -1098 0
-572 -1100 0
-573 -1101 0
-575 -1102 0
-576 -1103 0
-577 -1105 0
-575 -1116 0
-576 -1117 0
-577 -1119 0
-572 -1120 0
-573 -1121 0
-574 -1122 0
-575 -1123 0
-576 -1124 0
-577 -1125 0
-572 -1126 0
-574 -1127 0
-575 -1129 0
-576 -1130 0
-577 -1132 0
-574 -1141 0
-575 -1142 0
-576 -1143 0
-577 -1145 0
-574 -1148 0
-575 -1150 0
-577 -1151 0
-573 -1154 0
-574 -1155 0
-575 -1156 0
-577 -1158 0
-575 -1175 0
-576 -1176 0
-577 -1178 0
-575 -1183 0
-577 -1184 0
-573 -1188 0
-574 -1189 0
-577 -1191 0
-573 -1214 0
-574 -1215 0
-575 -1216 0
-576 -1217 0
-577 -1218 0
-573 -1243 0
-575 -1244 0
-577 -1246 0
-574 -1249 0
-575 -1251 0
-577 -1253 0
-574 -1255 0
-575 -1256 0
-576 -1257 0
-577 -1259 0
-573 -1316 0
-576 -1318 0
-577 -1320 0
-573 -1343 0
-577 -1346 0
-574 -1372 0
-576 -1374 0
-577 -1376 0
-574 -1379 0
-577 -1382 0
-573 -1385 0
-575 -1387 0
-577 -1389 0
-575 -1406 0
-576 -1407 0
-577 -1409 0
-573 -1411 0
-574 -1412 0
-576 -1414 0
-577 -1415 0
-573 -1435 0
-574 -1436 0
-575 -1438 0
-577 -1440 0
-573 -1443 0
-574 -1444 0
-575 -1445 0
-576 -1446 0
-577 -1448 0
-572 -1480 0
-573 -1482 0
-575 -1484 0
-577 -1486 0
-572 -1487 0
-574 -1489 0
-575 -1490 0
-577 -1492 0
-575 -1496 0
-577 -1498 0
-572 -1500 0
-573 -1502 0
-575 -1504 0
-576 -1505 0
-577 -1507 0
-572 -1509 0
-574 -1511 0
-575 -1512 0
-576 -1513 0
-577 -1514 0
-575 -1539 0
-576 -1540 0
-577 -1541 0
-572 -1543 0
-573 -1544 0
-574 -1545 0
-575 -1546 0
-577 -1548 0
-572 -1550 0
-573 -1551 0
-575 -1553 0
-577 -1554 0
-572 -1556 0
-573 -1557 0
-575 -1558 0
-576 -1559 0
-577 -1561 0
-573 -1571 0
-574 -1572 0
-575 -1573 0
-577 -1574 0
-573 -1578 0
-574 -1579 0
-575 -1581 0
-576 -1582 0
-577 -1584 0
-575 -1588 0
-576 -1589 0
-577 -1590 0
-572 -1591 0
-573 -1592 0
-574 -1593 0
-575 -1594 0
-576 -1595 0
-577 -1596 0
-573 -1599 0
-576 -1601 0
-577 -1602 0
-574 -1605 0
-575 -1606 0
-576 -1607 0
-577 -1609 0
-572 -1623 0
-573 -1625 0
-574 -1626 0
-577 -1629 0
-572 -1630 0
-574 -1632 0
-575 -1634 0
-577 -1635 0
-574 -1651 0
-577 -1653 0
-572 -1654 0
-573 -1655 0
-576 -1657 0
-577 -1659 0
-573 -1671 0
-577 -1674 0
-573 -1676 0
-574 -1677 0
-575 -1679 0
-576 -1680 0
-577 -1681 0
-574 -1683 0
-576 -1685 0
-577 -1687 0
-573 -1697 0
-577 -1700 0
-573 -1704 0
-576 -1706 0
-577 -1707 0
-574 -1711 0
-575 -1713 0
-576 -1714 0
-577 -1716 0
-573 -1738 0
-574 -1739 0
-577 -1741 0
-573 -1743 0
-575 -1745 0
-576 -1746 0
-577 -1747 0
-573 -1762 0
-575 -1764 0
-576 -1765 0
-577 -1767 0
-573 -1769 0
-574 -1770 0
-576 -1771 0
-577 -1773 0
-573 -1775 0
-574 -1776 0
-576 -1778 0
-577 -1780 0
-573 -1814 0
-574 -1815 0
-575 -1816 0
-576 -1817 0
-577 -1819 0
-575 -1822 0
-576 -1823 0
-577 -1825 0
-572 -1846 0
-574 -1847 0
-577 -1850 0
-572 -1852 0
-573 -1853 0
-574 -1854 0
-575 -1855 0
-577 -1857 0
-573 -1860 0
-574 -1861 0
-577 -1864 0
-576 -1882 0
-577 -1884 0
-573 -1887 0
-574 -1888 0
-575 -1889 0
-576 -1890 0
-577 -1891 0
-574 -1933 0
-575 -1935 0
-577 -1937 0
-578 -656 0
-580 -657 0
-582 -658 0
-583 -659 0
-584 -660 0
-587 -661 0
-579 -724 0
-582 -725 0
-583 -726 0
-585 -727 0
-586 -728 0
-587 -729 0
-580 -762 0
-581 -763 0
-582 -764 0
-583 -765 0
-585 -766 0
-587 -767 0
-580 -781 0
-583 -782 0
-584 -783 0
-585 -784 0
-586 -785 0
-587 -786 0
-578 -794 0
-581 -795 0
-582 -796 0
-583 -797 0
-585 -798 0
-587 -799 0
-578 -839 0
-579 -840 0
-583 -841 0
-585 -842 0
-586 -843 0
-587 -844 0
-578 -852 0
-579 -853 0
-581 -854 0
-582 -855 0
-583 -856 0
-584 -857 0
-585 -858 0
-586 -859 0
-587 -860 0
-578 -874 0
-579 -875 0
-581 -876 0
-582 -877 0
-583 -878 0
-587 -879 0
-579 -886 0
-582 -887 0
-583 -888 0
-585 -889 0
-586 -890 0
-587 -891 0
-578 -893 0
-580 -894 0
-583 -895 0
-585 -896 0
-587 -897 0
-578 -906 0
-580 -907 0
-581 -908 0
-582 -909 0
-583 -910 0
-584 -911 0
-587 -912 0
-578 -921 0
-581 -922 0
-583 -923 0
-586 -924 0
-587 -925 0
-578 -940 0
-581 -941 0
-582 -942 0
-583 -943 0
-585 -944 0
-586 -945 0
-587 -946 0
-578 -955 0
-583 -956 0
-584 -957 0
-586 -958 0
-587 -959 0
-579 -962 0
-580 -963 0
-583 -964 0
-584 -965 0
-585 -966 0
-586 -967 0
-587 -968 0
-579 -971 0
-582 -972 0
-583 -973 0
-585 -974 0
-587 -975 0
-579 -984 0
-581 -985 0
-583 -986 0
-584 -987 0
-587 -988 0
-578 -990 0
-581 -991 0
-583 -992 0
-584 -993 0
-587 -994 0
-578 -1002 0
-582 -1003 0
-583 -1004 0
-585 -1005 0
-587 -1006 0
-579 -1008 0
-580 -1009 0
-582 -1010 0
-583 -1011 0
-587 -1012 0
-579 -1014 0
-583 -1015 0
-584 -1016 0
-586 -1017 0
-587 -1018 0
-579 -1027 0
-581 -1028 0
-582 -1029 0
-583 -1030 0
-585 -1031 0
-586 -1032 0
-587 -1033 0
-579 -1041 0
-581 -1042 0
-583 -1043 0
-586 -1044 0
-587 -1045 0
-578 -1053 0
-580 -1054 0
-582 -1055 0
-584 -1056 0
-585 -1057 0
-587 -1058 0
-578 -1069 0
-580 -1070 0
-581 -1071 0
-582 -1072 0
-585 -1073 0
-587 -1074 0
-578 -1100 0
-581 -1101 0
-584 -1102 0
-585 -1103 0
-586 -1104 0
-587 -1105 0
-579 -1107 0
-580 -1108 0
-582 -1109 0
-585 -1110 0
-586 -1111 0
-587 -1112 0
-578 -1120 0
-581 -1121 0
-582 -1122 0
-584 -1123 0
-585 -1124 0
-587 -1125 0
-579 -1133 0
-580 -1134 0
-582 -1135 0
-584 -1136 0
-585 -1137 0
-587 -1138 0
-579 -1140 0
-582 -1141 0
-584 -1142 0
-585 -1143 0
-586 -1144 0
-587 -1145 0
-579 -1153 0
-581 -1154 0
-582 -1155 0
-584 -1156 0
-586 -1157 0
-587 -1158 0
-580 -1168 0
-582 -1169 0
-585 -1170 0
-587 -1171 0
-580 -1174 0
-584 -1175 0
-585 -1176 0
-586 -1177 0
-587 -1178 0
-580 -1187 0
-581 -1188 0
-582 -1189 0
-586 -1190 0
-587 -1191 0
-580 -1200 0
-581 -1201 0
-585 -1202 0
-586 -1203 0
-587 -1204 0
-581 -1214 0
-582 -1215 0
-584 -1216 0
-585 -1217 0
-587 -1218 0
-580 -1230 0
-581 -1231 0
-582 -1232 0
-584 -1233 0
-587 -1234 0
-581 -1243 0
-584 -1244 0
-586 -1245 0
-587 -1246 0
-582 -1255 0
-584 -1256 0
-585 -1257 0
-586 -1258 0
-587 -1259 0
-580 -1371 0
-582 -1372 0
-583 -1373 0
-585 -1374 0
-586 -1375 0
-587 -1376 0
-580 -1384 0
-581 -1385 0
-583 -1386 0
-584 -1387 0
-586 -1388 0
-587 -1389 0
-580 -1410 0
-581 -1411 0
-582 -1412 0
-583 -1413 0
-585 -1414 0
-587 -1415 0
-581 -1423 0
-583 -1424 0
-584 -1425 0
-585 -1426 0
-586 -1427 0
-587 -1428 0
-581 -1435 0
-582 -1436 0
-583 -1437 0
-584 -1438 0
-586 -1439 0
-587 -1440 0
-578 -1487 0
-579 -1488 0
-582 -1489 0
-584 -1490 0
-586 -1491 0
-587 -1492 0
-578 -1509 0
-580 -1510 0
-582 -1511 0
-584 -1512 0
-585 -1513 0
-587 -1514 0
-578 -1523 0
-584 -1524 0
-585 -1525 0
-586 -1526 0
-587 -1527 0
-578 -1543 0
-581 -1544 0
-582 -1545 0
-584 -1546 0
-586 -1547 0
-587 -1548 0
-578 -1556 0
-581 -1557 0
-584 -1558 0
-585 -1559 0
-586 -1560 0
-587 -1561 0
-579 -1563 0
-580 -1564 0
-581 -1565 0
-584 -1566 0
-586 -1567 0
-587 -1568 0
-579 -1570 0
-581 -1571 0
-582 -1572 0
-584 -1573 0
-587 -1574 0
-579 -1587 0
-584 -1588 0
-585 -1589 0
-587 -1590 0
-578 -1591 0
-581 -1592 0
-582 -1593 0
-584 -1594 0
-585 -1595 0
-587 -1596 0
-579 -1604 0
-582 -1605 0
-584 -1606 0
-585 -1607 0
-586 -1608 0
-587 -1609 0
-579 -1610 0
-581 -1611 0
-584 -1612 0
-585 -1613 0
-586 -1614 0
-587 -1615 0
-578 -1630 0
-580 -1631 0
-582 -1632 0
-583 -1633 0
-584 -1634 0
-587 -1635 0
-578 -1654 0
-581 -1655 0
-583 -1656 0
-585 -1657 0
-586 -1658 0
-587 -1659 0
-579 -1660 0
-580 -1661 0
-581 -1662 0
-582 -1663 0
-583 -1664 0
-584 -1665 0
-585 -1666 0
-586 -1667 0
-587 -1668 0
-579 -1682 0
-582 -1683 0
-583 -1684 0
-585 -1685 0
-586 -1686 0
-587 -1687 0
-580 -1689 0
-581 -1690 0
-582 -1691 0
-583 -1692 0
-584 -1693 0
-587 -1694 0
-580 -1696 0
-581 -1697 0
-583 -1698 0
-586 -1699 0
-587 -1700 0
-580 -1710 0
-582 -1711 0
-583 -1712 0
-584 -1713 0
-585 -1714 0
-586 -1715 0
-587 -1716 0
-580 -1724 0
-581 -1725 0
-583 -1726 0
-584 -1727 0
-586 -1728 0
-587 -1729 0
-581 -1738 0
-582 -1739 0
-583 -1740 0
-587 -1741 0
-581 -1743 0
-583 -1744 0
-584 -1745 0
-585 -1746 0
-587 -1747 0
-580 -1748 0
-581 -1749 0
-582 -1750 0
-583 -1751 0
-585 -1752 0
-587 -1753 0
-581 -1762 0
-583 -1763 0
-584 -1764 0
-585 -1765 0
-586 -1766 0
-587 -1767 0
-581 -1775 0
-582 -1776 0
-583 -1777 0
-585 -1778 0
-586 -1779 0
-587 -1780 0
-580 -1820 0
-583 -1821 0
-584 -1822 0
-585 -1823 0
-586 -1824 0
-587 -1825 0
-578 -1852 0
-581 -1853 0
-582 -1854 0
-584 -1855 0
-586 -1856 0
-587 -1857 0
-579 -1866 0
-582 -1867 0
-584 -1868 0
-585 -1869 0
-586 -1870 0
-587 -1871 0
-580 -1873 0
-582 -1874 0
-584 -1875 0
-586 -1876 0
-587 -1877 0
-581 -1887 0
-582 -1888 0
-584 -1889 0
-585 -1890 0
-587 -1891 0
-581 -1901 0
-584 -1902 0
-586 -1903 0
-587 -1904 0
-581 -1913 0
-582 -1914 0
-585 -1915 0
-586 -1916 0
-587 -1917 0
-580 -1925 0
-582 -1926 0
-583 -1927 0
-585 -1928 0
-586 -1929 0
-587 -1930 0
-581 -1939 0
-582 -1940 0
-583 -1941 0
-585 -1942 0
-586 -1943 0
-587 -1944 0
-581 -1945 0
-582 -1946 0
-583 -1947 0
-584 -1948 0
-586 -1949 0
-587 -1950 0
-588 -649 0
-590 -650 0
-591 -651 0
-593 -655 0
-589 -717 0
-591 -718 0
-592 -722 0
-593 -723 0
-590 -762 0
-591 -763 0
-592 -766 0
-593 -767 0
-590 -769 0
-591 -770 0
-593 -773 0
-590 -774 0
-591 -775 0
-592 -778 0
-593 -780 0
-588 -788 0
-592 -790 0
-593 -792 0
-588 -839 0
-589 -840 0
-592 -842 0
-593 -844 0
-588 -846 0
-589 -847 0
-592 -848 0
-593 -850 0
-588 -868 0
-589 -869 0
-593 -873 0
-589 -886 0
-592 -889 0
-593 -891 0
-588 -893 0
-590 -894 0
-592 -896 0
-593 -897 0
-588 -900 0
-590 -901 0
-593 -903 0
-588 -915 0
-593 -918 0
-588 -949 0
-592 -952 0
-593 -953 0
-588 -955 0
-593 -959 0
-589 -962 0
-590 -963 0
-592 -966 0
-593 -968 0
-589 -971 0
-592 -974 0
-593 -975 0
-589 -978 0
-593 -981 0
-588 -996 0
-593 -1000 0
-588 -1002 0
-592 -1005 0
-593 -1006 0
-589 -1008 0
-590 -1009 0
-593 -1012 0
-589 -1014 0
-593 -1018 0
-589 -1021 0
-592 -1023 0
-593 -1024 0
-589 -1047 0
-593 -1051 0
-588 -1053 0
-590 -1054 0
-592 -1057 0
-593 -1058 0
-588 -1060 0
-590 -1061 0
-592 -1065 0
-593 -1067 0
-588 -1077 0
-592 -1080 0
-593 -1081 0
-589 -1107 0
-590 -1108 0
-592 -1110 0
-593 -1112 0
-589 -1114 0
-592 -1117 0
-593 -1119 0
-588 -1126 0
-592 -1130 0
-593 -1132 0
-589 -1133 0
-590 -1134 0
-592 -1137 0
-593 -1138 0
-589 -1140 0
-592 -1143 0
-593 -1145 0
-589 -1147 0
-593 -1151 0
-590 -1168 0
-592 -1170 0
-593 -1171 0
-590 -1174 0
-592 -1176 0
-593 -1178 0
-590 -1181 0
-593 -1184 0
-590 -1206 0
-592 -1210 0
-593 -1211 0
-590 -1236 0
-593 -1240 0
-593 -1253 0
-592 -1257 0
-593 -1259 0
-588 -1307 0
-592 -1311 0
-593 -1313 0
-590 -1371 0
-592 -1374 0
-593 -1376 0
-590 -1378 0
-593 -1382 0
-593 -1396 0
-590 -1404 0
-592 -1407 0
-593 -1409 0
-592 -1420 0
-593 -1421 0
-588 -1480 0
-589 -1481 0
-591 -1482 0
-593 -1486 0
-588 -1500 0
-590 -1501 0
-591 -1502 0
-592 -1505 0
-593 -1507 0
-588 -1516 0
-591 -1517 0
-592 -1520 0
-593 -1521 0
-588 -1550 0
-591 -1551 0
-593 -1554 0
-588 -1556 0
-591 -1557 0
-592 -1559 0
-593 -1561 0
-589 -1563 0
-590 -1564 0
-591 -1565 0
-593 -1568 0
-589 -1570 0
-591 -1571 0
-593 -1574 0
-589 -1577 0
-591 -1578 0
-592 -1582 0
-593 -1584 0
-588 -1591 0
-591 -1592 0
-592 -1595 0
-593 -1596 0
-589 -1598 0
-591 -1599 0
-592 -1601 0
-593 -1602 0
-589 -1616 0
-591 -1617 0
-592 -1621 0
-593 -1622 0
-588 -1623 0
-590 -1624 0
-591 -1625 0
-593 -1629 0
-588 -1637 0
-591 -1638 0
-593 -1641 0
-589 -1660 0
-590 -1661 0
-591 -1662 0
-592 -1666 0
-593 -1668 0
-589 -1670 0
-591 -1671 0
-593 -1674 0
-589 -1675 0
-591 -1676 0
-592 -1680 0
-593 -1681 0
-590 -1689 0
-591 -1690 0
-593 -1694 0
-590 -1696 0
-591 -1697 0
-593 -1700 0
-590 -1703 0
-591 -1704 0
-592 -1706 0
-593 -1707 0
-590 -1731 0
-591 -1732 0
-593 -1735 0
-591 -1743 0
-592 -1746 0
-593 -1747 0
-590 -1754 0
-591 -1755 0
-592 -1758 0
-593 -1760 0
-591 -1769 0
-592 -1771 0
-593 -1773 0
-591 -1775 0
-592 -1778 0
-593 -1780 0
-590 -1813 0
-591 -1814 0
-592 -1817 0
-593 -1819 0
-591 -1827 0
-592 -1829 0
-593 -1831 0
-588 -1846 0
-593 -1850 0
-589 -1866 0
-592 -1869 0
-593 -1871 0
-590 -1873 0
-593 -1877 0
-592 -1882 0
-593 -1884 0
-593 -1911 0
-592 -1922 0
-593 -1923 0
-590 -1925 0
-592 -1928 0
-593 -1930 0
-593 -1937 0
-594 -612 0
-597 -616 0
-599 -618 0
-595 -710 0
-598 -715 0
-599 -716 0
-598 -760 0
-599 -761 0
-597 -783 0
-598 -785 0
-599 -786 0
-594 -794 0
-596 -796 0
-599 -799 0
-594 -801 0
-596 -803 0
-598 -804 0
-599 -805 0
-594 -807 0
-595 -808 0
-596 -811 0
-598 -813 0
-599 -814 0
-594 -833 0
-595 -834 0
-596 -836 0
-599 -837 0
-594 -852 0
-595 -853 0
-596 -855 0
-597 -857 0
-598 -859 0
-599 -860 0
-594 -868 0
-595 -869 0
-596 -870 0
-597 -871 0
-598 -872 0
-599 -873 0
-595 -881 0
-596 -883 0
-597 -884 0
-599 -885 0
-595 -886 0
-596 -887 0
-598 -890 0
-599 -891 0
-594 -893 0
-599 -897 0
-594 -900 0
-598 -902 0
-599 -903 0
-594 -921 0
-598 -924 0
-599 -925 0
-594 -928 0
-599 -931 0
-595 -934 0
-599 -937 0
-594 -949 0
-597 -951 0
-599 -953 0
-594 -955 0
-597 -957 0
-598 -958 0
-599 -959 0
-595 -962 0
-597 -965 0
-598 -967 0
-599 -968 0
-595 -984 0
-597 -987 0
-599 -988 0
-594 -990 0
-597 -993 0
-599 -994 0
-595 -1014 0
-597 -1016 0
-598 -1017 0
-599 -1018 0
-595 -1021 0
-597 -1022 0
-599 -1024 0
-595 -1035 0
-599 -1039 0
-595 -1041 0
-598 -1044 0
-599 -1045 0
-594 -1053 0
-596 -1055 0
-597 -1056 0
-599 -1058 0
-594 -1060 0
-596 -1062 0
-597 -1064 0
-598 -1066 0
-599 -1067 0
-594 -1083 0
-596 -1085 0
-597 -1087 0
-599 -1088 0
-595 -1091 0
-596 -1094 0
-597 -1096 0
-599 -1098 0
-595 -1107 0
-596 -1109 0
-598 -1111 0
-599 -1112 0
-594 -1120 0
-596 -1122 0
-597 -1123 0
-599 -1125 0
-595 -1140 0
-596 -1141 0
-597 -1142 0
-598 -1144 0
-599 -1145 0
-595 -1147 0
-596 -1148 0
-597 -1150 0
-599 -1151 0
-595 -1159 0
-596 -1161 0
-597 -1163 0
-599 -1165 0
-597 -1175 0
-598 -1177 0
-599 -1178 0
-597 -1183 0
-599 -1184 0
-599 -1198 0
-598 -1203 0
-599 -1204 0
-597 -1244 0
-598 -1245 0
-599 -1246 0
-597 -1263 0
-599 -1265 0
-594 -1279 0
-596 -1282 0
-598 -1284 0
-599 -1285 0
-595 -1334 0
-596 -1336 0
-597 -1338 0
-599 -1340 0
-598 -1345 0
-599 -1346 0
-599 -1369 0
-597 -1387 0
-598 -1388 0
-599 -1389 0
-597 -1406 0
-598 -1408 0
-599 -1409 0
-597 -1425 0
-598 -1427 0
-599 -1428 0
-597 -1432 0
-599 -1434 0
-596 -1444 0
-597 -1445 0
-598 -1447 0
-599 -1448 0
-594 -1457 0
-596 -1458 0
-597 -1460 0
-598 -1462 0
-599 -1463 0
-594 -1472 0
-595 -1473 0
-596 -1475 0
-597 -1477 0
-599 -1479 0
-594 -1487 0
-595 -1488 0
-596 -1489 0
-597 -1490 0
-598 -1491 0
-599 -1492 0
-594 -1500 0
-597 -1504 0
-598 -1506 0
-599 -1507 0
-594 -1523 0
-597 -1524 0
-598 -1526 0
-599 -1527 0
-594 -1530 0
-597 -1532 0
-599 -1534 0
-595 -1536 0
-597 -1539 0
-599 -1541 0
-594 -1550 0
-597 -1553 0
-599 -1554 0
-594 -1556 0
-597 -1558 0
-598 -1560 0
-599 -1561 0
-595 -1563 0
-597 -1566 0
-598 -1567 0
-599 -1568 0
-595 -1587 0
-597 -1588 0
-599 -1590 0
-595 -1598 0
-599 -1602 0
-595 -1610 0
-597 -1612 0
-598 -1614 0
-599 -1615 0
-594 -1623 0
-596 -1626 0
-598 -1628 0
-599 -1629 0
-594 -1643 0
-596 -1644 0
-599 -1647 0
-595 -1649 0
-596 -1651 0
-599 -1653 0
-595 -1660 0
-596 -1663 0
-597 -1665 0
-598 -1667 0
-599 -1668 0
-595 -1675 0
-596 -1677 0
-597 -1679 0
-599 -1681 0
-598 -1699 0
-599 -1700 0
-599 -1707 0
-597 -1720 0
-599 -1722 0
-597 -1727 0
-598 -1728 0
-599 -1729 0
-597 -1745 0
-599 -1747 0
-597 -1764 0
-598 -1766 0
-599 -1767 0
-597 -1810 0
-599 -1812 0
-597 -1822 0
-598 -1824 0
-599 -1825 0
-594 -1846 0
-596 -1847 0
-598 -1849 0
-599 -1850 0
-595 -1859 0
-596 -1861 0
-598 -1863 0
-599 -1864 0
-595 -1866 0
-596 -1867 0
-597 -1868 0
-598 -1870 0
-599 -1871 0
-598 -1883 0
-599 -1884 0
-597 -1895 0
-598 -1897 0
-599 -1898 0
-597 -1902 0
-598 -1903 0
-599 -1904 0
-596 -1933 0
-597 -1935 0
-598 -1936 0
-599 -1937 0
-596 -1940 0
-598 -1943 0
-599 -1944 0
-603 -698 0
-604 -702 0
-605 -703 0
-601 -774 0
-602 -775 0
-603 -776 0
-604 -779 0
-605 -780 0
-601 -781 0
-604 -785 0
-605 -786 0
-604 -791 0
-605 -792 0
-602 -795 0
-603 -796 0
-605 -799 0
-602 -802 0
-603 -803 0
-604 -804 0
-605 -805 0
-600 -869 0
-603 -870 0
-604 -872 0
-605 -873 0
-600 -875 0
-602 -876 0
-603 -877 0
-605 -879 0
-601 -894 0
-605 -897 0
-601 -901 0
-604 -902 0
-605 -903 0
-601 -907 0
-602 -908 0
-603 -909 0
-605 -912 0
-603 -916 0
-605 -918 0
-602 -922 0
-604 -924 0
-605 -925 0
-602 -929 0
-605 -931 0
-602 -941 0
-603 -942 0
-604 -945 0
-605 -946 0
-605 -953 0
-604 -958 0
-605 -959 0
-600 -1008 0
-601 -1009 0
-603 -1010 0
-605 -1012 0
-600 -1014 0
-604 -1017 0
-605 -1018 0
-600 -1021 0
-605 -1024 0
-600 -1027 0
-602 -1028 0
-603 -1029 0
-604 -1032 0
-605 -1033 0
-600 -1035 0
-602 -1036 0
-605 -1039 0
-600 -1041 0
-602 -1042 0
-604 -1044 0
-605 -1045 0
-600 -1047 0
-603 -1048 0
-605 -1051 0
-601 -1054 0
-603 -1055 0
-605 -1058 0
-601 -1061 0
-603 -1062 0
-604 -1066 0
-605 -1067 0
-601 -1070 0
-602 -1071 0
-603 -1072 0
-605 -1074 0
-605 -1081 0
-602 -1084 0
-603 -1085 0
-605 -1088 0
-602 -1101 0
-604 -1104 0
-605 -1105 0
-600 -1133 0
-601 -1134 0
-603 -1135 0
-605 -1138 0
-600 -1140 0
-603 -1141 0
-604 -1144 0
-605 -1145 0
-600 -1147 0
-603 -1148 0
-605 -1151 0
-600 -1153 0
-602 -1154 0
-603 -1155 0
-604 -1157 0
-605 -1158 0
-600 -1159 0
-602 -1160 0
-603 -1161 0
-605 -1165 0
-601 -1168 0
-603 -1169 0
-605 -1171 0
-601 -1174 0
-604 -1177 0
-605 -1178 0
-601 -1181 0
-605 -1184 0
-601 -1187 0
-602 -1188 0
-603 -1189 0
-604 -1190 0
-605 -1191 0
-601 -1194 0
-602 -1195 0
-605 -1198 0
-601 -1200 0
-602 -1201 0
-604 -1203 0
-605 -1204 0
-601 -1206 0
-603 -1207 0
-605 -1211 0
-602 -1214 0
-603 -1215 0
-605 -1218 0
-601 -1404 0
-604 -1408 0
-605 -1409 0
-601 -1410 0
-602 -1411 0
-603 -1412 0
-605 -1415 0
-603 -1417 0
-605 -1421 0
-602 -1423 0
-604 -1427 0
-605 -1428 0
-602 -1430 0
-605 -1434 0
-602 -1435 0
-603 -1436 0
-604 -1439 0
-605 -1440 0
-603 -1458 0
-604 -1462 0
-605 -1463 0
-601 -1501 0
-602 -1502 0
-604 -1506 0
-605 -1507 0
-601 -1510 0
-603 -1511 0
-605 -1514 0
-602 -1517 0
-603 -1518 0
-605 -1521 0
-604 -1526 0
-605 -1527 0
-605 -1534 0
-602 -1544 0
-603 -1545 0
-604 -1547 0
-605 -1548 0
-602 -1551 0
-605 -1554 0
-602 -1557 0
-604 -1560 0
-605 -1561 0
-600 -1598 0
-602 -1599 0
-605 -1602 0
-600 -1604 0
-603 -1605 0
-604 -1608 0
-605 -1609 0
-600 -1610 0
-602 -1611 0
-604 -1614 0
-605 -1615 0
-600 -1616 0
-602 -1617 0
-603 -1618 0
-605 -1622 0
-601 -1624 0
-602 -1625 0
-603 -1626 0
-604 -1628 0
-605 -1629 0
-601 -1631 0
-603 -1632 0
-605 -1635 0
-602 -1638 0
-605 -1641 0
-603 -1644 0
-605 -1647 0
-602 -1655 0
-604 -1658 0
-605 -1659 0
-600 -1675 0
-602 -1676 0
-603 -1677 0
-605 -1681 0
-600 -1682 0
-603 -1683 0
-604 -1686 0
-605 -1687 0
-601 -1689 0
-602 -1690 0
-603 -1691 0
-605 -1694 0
-601 -1696 0
-602 -1697 0
-604 -1699 0
-605 -1700 0
-601 -1703 0
-602 -1704 0
-605 -1707 0
-601 -1710 0
-603 -1711 0
-604 -1715 0
-605 -1716 0
-601 -1718 0
-602 -1719 0
-605 -1722 0
-601 -1724 0
-602 -1725 0
-604 -1728 0
-605 -1729 0
-601 -1731 0
-602 -1732 0
-603 -1733 0
-605 -1735 0
-602 -1738 0
-603 -1739 0
-605 -1741 0
-602 -1743 0
-605 -1747 0
-603 -1847 0
-604 -1849 0
-605 -1850 0
-602 -1853 0
-603 -1854 0
-604 -1856 0
-605 -1857 0
-601 -1873 0
-603 -1874 0
-604 -1876 0
-605 -1877 0
-604 -1883 0
-605 -1884 0
-602 -1887 0
-603 -1888 0
-605 -1891 0
-602 -1893 0
-604 -1897 0
-605 -1898 0
-602 -1901 0
-604 -1903 0
-605 -1904 0
-603 -1907 0
-604 -1910 0
-605 -1911 0
-601 -1925 0
-603 -1926 0
-604 -1929 0
-605 -1930 0
-603 -1933 0
-604 -1936 0
-605 -1937 0
-602 -1939 0
-603 -1940 0
-604 -1943 0
-605 -1944 0
-608 -725 0
-609 -727 0
-610 -728 0
-611 -729 0
-607 -781 0
-609 -784 0
-610 -785 0
-611 -786 0
-606 -794 0
-608 -796 0
-609 -798 0
-611 -799 0
-606 -816 0
-609 -820 0
-611 -821 0
-606 -833 0
-608 -836 0
-611 -837 0
-606 -839 0
-609 -842 0
-610 -843 0
-611 -844 0
-606 -852 0
-608 -855 0
-609 -858 0
-610 -859 0
-611 -860 0
-609 -865 0
-610 -866 0
-611 -867 0
-606 -874 0
-608 -877 0
-611 -879 0
-608 -883 0
-611 -885 0
-608 -887 0
-609 -889 0
-610 -890 0
-611 -891 0
-606 -921 0
-610 -924 0
-611 -925 0
-606 -949 0
-609 -952 0
-611 -953 0
-608 -972 0
-609 -974 0
-611 -975 0
-611 -988 0
-606 -996 0
-608 -997 0
-610 -999 0
-611 -1000 0
-610 -1017 0
-611 -1018 0
-608 -1029 0
-609 -1031 0
-610 -1032 0
-611 -1033 0
-609 -1038 0
-611 -1039 0
-608 -1048 0
-611 -1051 0
-606 -1053 0
-607 -1054 0
-608 -1055 0
-609 -1057 0
-611 -1058 0
-606 -1069 0
-607 -1070 0
-608 -1072 0
-609 -1073 0
-611 -1074 0
-606 -1077 0
-609 -1080 0
-611 -1081 0
-606 -1083 0
-608 -1085 0
-611 -1088 0
-607 -1092 0
-608 -1094 0
-609 -1097 0
-611 -1098 0
-606 -1100 0
-609 -1103 0
-610 -1104 0
-611 -1105 0
-607 -1108 0
-608 -1109 0
-609 -1110 0
-610 -1111 0
-611 -1112 0
-609 -1117 0
-610 -1118 0
-611 -1119 0
-606 -1120 0
-608 -1122 0
-609 -1124 0
-611 -1125 0
-607 -1134 0
-608 -1135 0
-609 -1137 0
-611 -1138 0
-608 -1148 0
-611 -1151 0
-607 -1174 0
-609 -1176 0
-610 -1177 0
-611 -1178 0
-607 -1187 0
-608 -1189 0
-610 -1190 0
-611 -1191 0
-607 -1194 0
-609 -1197 0
-611 -1198 0
-607 -1206 0
-608 -1207 0
-609 -1210 0
-611 -1211 0
-608 -1215 0
-609 -1217 0
-611 -1218 0
-607 -1221 0
-608 -1223 0
-609 -1226 0
-610 -1227 0
-611 -1228 0
-607 -1236 0
-608 -1237 0
-610 -1239 0
-611 -1240 0
-610 -1245 0
-611 -1246 0
-608 -1255 0
-609 -1257 0
-610 -1258 0
-611 -1259 0
-609 -1264 0
-611 -1265 0
-608 -1336 0
-609 -1339 0
-611 -1340 0
-609 -1426 0
-610 -1427 0
-611 -1428 0
-606 -1472 0
-608 -1475 0
-609 -1478 0
-611 -1479 0
-606 -1487 0
-608 -1489 0
-610 -1491 0
-611 -1492 0
-610 -1497 0
-611 -1498 0
-606 -1523 0
-609 -1525 0
-610 -1526 0
-611 -1527 0
-606 -1550 0
-611 -1554 0
-608 -1572 0
-611 -1574 0
-609 -1589 0
-611 -1590 0
-608 -1605 0
-609 -1607 0
-610 -1608 0
-611 -1609 0
-608 -1618 0
-609 -1621 0
-611 -1622 0
-606 -1630 0
-607 -1631 0
-608 -1632 0
-611 -1635 0
-606 -1637 0
-611 -1641 0
-606 -1643 0
-608 -1644 0
-609 -1646 0
-611 -1647 0
-607 -1650 0
-608 -1651 0
-611 -1653 0
-606 -1654 0
-609 -1657 0
-610 -1658 0
-611 -1659 0
-607 -1661 0
-608 -1663 0
-609 -1666 0
-610 -1667 0
-611 -1668 0
-610 -1673 0
-611 -1674 0
-608 -1677 0
-609 -1680 0
-611 -1681 0
-607 -1696 0
-610 -1699 0
-611 -1700 0
-607 -1710 0
-608 -1711 0
-609 -1714 0
-610 -1715 0
-611 -1716 0
-607 -1718 0
-609 -1721 0
-611 -1722 0
-607 -1731 0
-608 -1733 0
-611 -1735 0
-608 -1739 0
-611 -1741 0
-609 -1746 0
-611 -1747 0
-607 -1754 0
-608 -1756 0
-609 -1758 0
-610 -1759 0
-611 -1760 0
-609 -1765 0
-610 -1766 0
-611 -1767 0
-608 -1776 0
-609 -1778 0
-610 -1779 0
-611 -1780 0
-606 -1852 0
-608 -1854 0
-610 -1856 0
-611 -1857 0
-608 -1861 0
-610 -1863 0
-611 -1864 0
-608 -1867 0
-609 -1869 0
-610 -1870 0
-611 -1871 0
-608 -1888 0
-609 -1890 0
-611 -1891 0
-609 -1896 0
-610 -1897 0
-611 -1898 0
-608 -1907 0
-610 -1910 0
-611 -1911 0
-608 -1919 0
-609 -1922 0
-611 -1923 0
-607 -1925 0
-608 -1926 0
-609 -1928 0
-610 -1929 0
-611 -1930 0
-608 -1933 0
-610 -1936 0
-611 -1937 0
-608 -1940 0
-609 -1942 0
-610 -1943 0
-611 -1944 0
-608 -1946 0
-610 -1949 0
-611 -1950 0
-614 -718 0
-615 -720 0
-616 -721 0
-617 -722 0
-618 -723 0
-612 -730 0
-613 -731 0
-615 -733 0
-616 -734 0
-618 -735 0
-613 -769 0
-614 -770 0
-616 -772 0
-618 -773 0
-613 -774 0
-614 -775 0
-616 -777 0
-617 -778 0
-618 -780 0
-612 -788 0
-616 -789 0
-617 -790 0
-618 -792 0
-612 -816 0
-614 -818 0
-616 -819 0
-617 -820 0
-618 -821 0
-612 -824 0
-614 -826 0
-615 -827 0
-616 -828 0
-618 -830 0
-612 -839 0
-615 -841 0
-617 -842 0
-618 -844 0
-612 -846 0
-617 -848 0
-618 -850 0
-614 -864 0
-617 -865 0
-618 -867 0
-612 -868 0
-616 -871 0
-618 -873 0
-614 -882 0
-616 -884 0
-618 -885 0
-615 -888 0
-617 -889 0
-618 -891 0
-612 -915 0
-616 -917 0
-618 -918 0
-612 -940 0
-614 -941 0
-615 -943 0
-617 -944 0
-618 -946 0
-615 -973 0
-617 -974 0
-618 -975 0
-618 -981 0
-612 -990 0
-614 -991 0
-615 -992 0
-616 -993 0
-618 -994 0
-615 -1015 0
-616 -1016 0
-618 -1018 0
-616 -1022 0
-617 -1023 0
-618 -1024 0
-614 -1036 0
-615 -1037 0
-617 -1038 0
-618 -1039 0
-614 -1042 0
-615 -1043 0
-618 -1045 0
-612 -1053 0
-613 -1054 0
-616 -1056 0
-617 -1057 0
-618 -1058 0
-612 -1060 0
-613 -1061 0
-615 -1063 0
-616 -1064 0
-617 -1065 0
-618 -1067 0
-612 -1083 0
-614 -1084 0
-615 -1086 0
-616 -1087 0
-618 -1088 0
-613 -1092 0
-614 -1093 0
-615 -1095 0
-616 -1096 0
-617 -1097 0
-618 -1098 0
-613 -1108 0
-617 -1110 0
-618 -1112 0
-612 -1126 0
-615 -1128 0
-616 -1129 0
-617 -1130 0
-618 -1132 0
-613 -1134 0
-616 -1136 0
-617 -1137 0
-618 -1138 0
-614 -1154 0
-616 -1156 0
-618 -1158 0
-613 -1174 0
-616 -1175 0
-617 -1176 0
-618 -1178 0
-613 -1181 0
-615 -1182 0
-616 -1183 0
-618 -1184 0
-613 -1194 0
-614 -1195 0
-615 -1196 0
-617 -1197 0
-618 -1198 0
-613 -1200 0
-614 -1201 0
-617 -1202 0
-618 -1204 0
-613 -1221 0
-614 -1222 0
-615 -1224 0
-616 -1225 0
-617 -1226 0
-618 -1228 0
-613 -1230 0
-614 -1231 0
-616 -1233 0
-618 -1234 0
-615 -1250 0
-616 -1251 0
-618 -1253 0
-616 -1256 0
-617 -1257 0
-618 -1259 0
-614 -1267 0
-615 -1269 0
-617 -1270 0
-618 -1272 0
-612 -1287 0
-614 -1288 0
-616 -1290 0
-618 -1292 0
-612 -1307 0
-615 -1309 0
-616 -1310 0
-617 -1311 0
-618 -1313 0
-614 -1323 0
-616 -1325 0
-618 -1327 0
-614 -1329 0
-616 -1330 0
-617 -1331 0
-618 -1333 0
-615 -1393 0
-616 -1394 0
-618 -1396 0
-615 -1418 0
-616 -1419 0
-617 -1420 0
-618 -1421 0
-614 -1435 0
-615 -1437 0
-616 -1438 0
-618 -1440 0
-613 -1450 0
-614 -1451 0
-615 -1452 0
-616 -1453 0
-618 -1455 0
-612 -1465 0
-615 -1467 0
-617 -1468 0
-618 -1470 0
-612 -1480 0
-614 -1482 0
-615 -1483 0
-616 -1484 0
-618 -1486 0
-615 -1495 0
-616 -1496 0
-618 -1498 0
-612 -1516 0
-614 -1517 0
-615 -1519 0
-617 -1520 0
-618 -1521 0
-612 -1543 0
-614 -1544 0
-616 -1546 0
-618 -1548 0
-614 -1571 0
-616 -1573 0
-618 -1574 0
-614 -1578 0
-615 -1580 0
-616 -1581 0
-617 -1582 0
-618 -1584 0
-614 -1599 0
-615 -1600 0
-617 -1601 0
-618 -1602 0
-614 -1611 0
-616 -1612 0
-617 -1613 0
-618 -1615 0
-612 -1623 0
-613 -1624 0
-614 -1625 0
-615 -1627 0
-618 -1629 0
-612 -1643 0
-615 -1645 0
-617 -1646 0
-618 -1647 0
-613 -1650 0
-615 -1652 0
-618 -1653 0
-613 -1661 0
-614 -1662 0
-615 -1664 0
-616 -1665 0
-617 -1666 0
-618 -1668 0
-615 -1684 0
-617 -1685 0
-618 -1687 0
-613 -1696 0
-614 -1697 0
-615 -1698 0
-618 -1700 0
-613 -1703 0
-614 -1704 0
-615 -1705 0
-617 -1706 0
-618 -1707 0
-613 -1718 0
-614 -1719 0
-616 -1720 0
-617 -1721 0
-618 -1722 0
-613 -1724 0
-614 -1725 0
-615 -1726 0
-616 -1727 0
-618 -1729 0
-614 -1743 0
-615 -1744 0
-616 -1745 0
-617 -1746 0
-618 -1747 0
-613 -1748 0
-614 -1749 0
-615 -1751 0
-617 -1752 0
-618 -1753 0
-614 -1769 0
-617 -1771 0
-618 -1773 0
-614 -1775 0
-615 -1777 0
-617 -1778 0
-618 -1780 0
-614 -1782 0
-615 -1784 0
-616 -1785 0
-618 -1787 0
-615 -1796 0
-617 -1797 0
-618 -1799 0
-614 -1827 0
-617 -1829 0
-618 -1831 0
-613 -1839 0
-615 -1840 0
-616 -1841 0
-617 -1842 0
-618 -1844 0
-612 -1846 0
-615 -1848 0
-618 -1850 0
-614 -1860 0
-615 -1862 0
-618 -1864 0
-616 -1868 0
-617 -1869 0
-618 -1871 0
-615 -1881 0
-617 -1882 0
-618 -1884 0
-614 -1893 0
-615 -1894 0
-616 -1895 0
-617 -1896 0
-618 -1898 0
-614 -1901 0
-616 -1902 0
-618 -1904 0
-614 -1913 0
-617 -1915 0
-618 -1917 0
-613 -1925 0
-615 -1927 0
-617 -1928 0
-618 -1930 0
-614 -1953 0
-615 -1954 0
-616 -1955 0
-617 -1956 0
-618 -1958 0
-619 -793 0
-620 -794 0
-622 -796 0
-624 -798 0
-625 -799 0
-620 -801 0
-622 -803 0
-625 -805 0
-619 -806 0
-620 -807 0
-621 -809 0
-622 -811 0
-624 -812 0
-625 -814 0
-619 -832 0
-620 -833 0
-622 -836 0
-625 -837 0
-619 -838 0
-620 -839 0
-624 -842 0
-625 -844 0
-620 -846 0
-624 -848 0
-625 -850 0
-619 -862 0
-624 -865 0
-625 -867 0
-620 -868 0
-622 -870 0
-623 -871 0
-625 -873 0
-619 -880 0
-622 -883 0
-623 -884 0
-625 -885 0
-619 -905 0
-620 -906 0
-621 -907 0
-622 -909 0
-623 -911 0
-625 -912 0
-619 -948 0
-620 -949 0
-623 -951 0
-624 -952 0
-625 -953 0
-620 -955 0
-623 -957 0
-625 -959 0
-619 -961 0
-621 -963 0
-623 -965 0
-624 -966 0
-625 -968 0
-619 -983 0
-623 -987 0
-625 -988 0
-619 -995 0
-620 -996 0
-622 -997 0
-625 -1000 0
-620 -1002 0
-622 -1003 0
-624 -1005 0
-625 -1006 0
-619 -1007 0
-621 -1009 0
-622 -1010 0
-625 -1012 0
-619 -1026 0
-622 -1029 0
-624 -1031 0
-625 -1033 0
-619 -1034 0
-624 -1038 0
-625 -1039 0
-625 -1045 0
-619 -1052 0
-620 -1053 0
-621 -1054 0
-622 -1055 0
-623 -1056 0
-624 -1057 0
-625 -1058 0
-620 -1060 0
-621 -1061 0
-622 -1062 0
-623 -1064 0
-624 -1065 0
-625 -1067 0
-620 -1083 0
-622 -1085 0
-623 -1087 0
-625 -1088 0
-619 -1090 0
-621 -1092 0
-622 -1094 0
-623 -1096 0
-624 -1097 0
-625 -1098 0
-620 -1100 0
-623 -1102 0
-624 -1103 0
-625 -1105 0
-623 -1116 0
-624 -1117 0
-625 -1119 0
-620 -1120 0
-622 -1122 0
-623 -1123 0
-624 -1124 0
-625 -1125 0
-619 -1139 0
-622 -1141 0
-623 -1142 0
-624 -1143 0
-625 -1145 0
-622 -1148 0
-623 -1150 0
-625 -1151 0
-619 -1167 0
-621 -1168 0
-622 -1169 0
-624 -1170 0
-625 -1171 0
-619 -1186 0
-621 -1187 0
-622 -1189 0
-625 -1191 0
-619 -1193 0
-621 -1194 0
-624 -1197 0
-625 -1198 0
-621 -1200 0
-624 -1202 0
-625 -1204 0
-619 -1220 0
-621 -1221 0
-622 -1223 0
-623 -1225 0
-624 -1226 0
-625 -1228 0
-621 -1230 0
-622 -1232 0
-623 -1233 0
-625 -1234 0
-619 -1248 0
-622 -1249 0
-623 -1251 0
-625 -1253 0
-622 -1255 0
-623 -1256 0
-624 -1257 0
-625 -1259 0
-623 -1263 0
-624 -1264 0
-625 -1265 0
-620 -1279 0
-621 -1280 0
-622 -1282 0
-625 -1285 0
-621 -1315 0
-624 -1318 0
-625 -1320 0
-622 -1336 0
-623 -1338 0
-624 -1339 0
-625 -1340 0
-621 -1384 0
-623 -1387 0
-625 -1389 0
-621 -1410 0
-622 -1412 0
-624 -1414 0
-625 -1415 0
-621 -1442 0
-622 -1444 0
-623 -1445 0
-624 -1446 0
-625 -1448 0
-620 -1457 0
-622 -1458 0
-623 -1460 0
-624 -1461 0
-625 -1463 0
-619 -1471 0
-620 -1472 0
-622 -1475 0
-623 -1477 0
-624 -1478 0
-625 -1479 0
-620 -1480 0
-623 -1484 0
-625 -1486 0
-619 -1493 0
-623 -1496 0
-625 -1498 0
-619 -1508 0
-620 -1509 0
-621 -1510 0
-622 -1511 0
-623 -1512 0
-624 -1513 0
-625 -1514 0
-619 -1549 0
-620 -1550 0
-623 -1553 0
-625 -1554 0
-620 -1556 0
-623 -1558 0
-624 -1559 0
-625 -1561 0
-619 -1562 0
-621 -1564 0
-623 -1566 0
-625 -1568 0
-619 -1586 0
-623 -1588 0
-624 -1589 0
-625 -1590 0
-620 -1591 0
-622 -1593 0
-623 -1594 0
-624 -1595 0
-625 -1596 0
-619 -1603 0
-622 -1605 0
-623 -1606 0
-624 -1607 0
-625 -1609 0
-623 -1612 0
-624 -1613 0
-625 -1615 0
-620 -1623 0
-621 -1624 0
-622 -1626 0
-625 -1629 0
-620 -1643 0
-622 -1644 0
-624 -1646 0
-625 -1647 0
-619 -1648 0
-621 -1650 0
-622 -1651 0
-625 -1653 0
-620 -1654 0
-624 -1657 0
-625 -1659 0
-625 -1674 0
-622 -1677 0
-623 -1679 0
-624 -1680 0
-625 -1681 0
-619 -1688 0
-621 -1689 0
-622 -1691 0
-623 -1693 0
-625 -1694 0
-619 -1709 0
-621 -1710 0
-622 -1711 0
-623 -1713 0
-624 -1714 0
-625 -1716 0
-619 -1717 0
-621 -1718 0
-623 -1720 0
-624 -1721 0
-625 -1722 0
-621 -1724 0
-623 -1727 0
-625 -1729 0
-623 -1745 0
-624 -1746 0
-625 -1747 0
-621 -1748 0
-622 -1750 0
-624 -1752 0
-625 -1753 0
-619 -1768 0
-622 -1770 0
-624 -1771 0
-625 -1773 0
-622 -1776 0
-624 -1778 0
-625 -1780 0
-621 -1820 0
-623 -1822 0
-624 -1823 0
-625 -1825 0
-619 -1845 0
-620 -1846 0
-622 -1847 0
-625 -1850 0
-619 -1858 0
-622 -1861 0
-625 -1864 0
-619 -1872 0
-621 -1873 0
-622 -1874 0
-623 -1875 0
-625 -1877 0
-619 -1886 0
-622 -1888 0
-623 -1889 0
-624 -1890 0
-625 -1891 0
-619 -1892 0
-623 -1895 0
-624 -1896 0
-625 -1898 0
-619 -1900 0
-623 -1902 0
-625 -1904 0
-619 -1912 0
-622 -1914 0
-624 -1915 0
-625 -1917 0
-619 -1932 0
-622 -1933 0
-623 -1935 0
-625 -1937 0
-626 -787 0
-627 -788 0
-632 -790 0
-633 -791 0
-634 -792 0
-627 -801 0
-629 -802 0
-630 -803 0
-633 -804 0
-634 -805 0
-626 -806 0
-627 -807 0
-628 -809 0
-629 -810 0
-630 -811 0
-632 -812 0
-633 -813 0
-634 -814 0
-626 -823 0
-627 -824 0
-629 -826 0
-631 -827 0
-633 -829 0
-634 -830 0
-626 -838 0
-627 -839 0
-631 -841 0
-632 -842 0
-633 -843 0
-634 -844 0
-627 -852 0
-629 -854 0
-630 -855 0
-631 -856 0
-632 -858 0
-633 -859 0
-634 -860 0
-626 -862 0
-629 -864 0
-632 -865 0
-633 -866 0
-634 -867 0
-627 -874 0
-629 -876 0
-630 -877 0
-631 -878 0
-634 -879 0
-626 -880 0
-629 -882 0
-630 -883 0
-634 -885 0
-626 -899 0
-627 -900 0
-628 -901 0
-633 -902 0
-634 -903 0
-626 -939 0
-627 -940 0
-629 -941 0
-630 -942 0
-631 -943 0
-632 -944 0
-633 -945 0
-634 -946 0
-627 -955 0
-631 -956 0
-633 -958 0
-634 -959 0
-626 -961 0
-628 -963 0
-631 -964 0
-632 -966 0
-633 -967 0
-634 -968 0
-626 -977 0
-630 -979 0
-633 -980 0
-634 -981 0
-626 -989 0
-627 -990 0
-629 -991 0
-631 -992 0
-634 -994 0
-627 -1002 0
-630 -1003 0
-631 -1004 0
-632 -1005 0
-634 -1006 0
-626 -1007 0
-628 -1009 0
-630 -1010 0
-631 -1011 0
-634 -1012 0
-626 -1020 0
-632 -1023 0
-634 -1024 0
-626 -1034 0
-629 -1036 0
-631 -1037 0
-632 -1038 0
-634 -1039 0
-630 -1048 0
-631 -1049 0
-634 -1051 0
-626 -1052 0
-627 -1053 0
-628 -1054 0
-630 -1055 0
-632 -1057 0
-634 -1058 0
-627 -1069 0
-628 -1070 0
-629 -1071 0
-630 -1072 0
-632 -1073 0
-634 -1074 0
-626 -1076 0
-627 -1077 0
-631 -1078 0
-632 -1080 0
-634 -1081 0
-627 -1083 0
-629 -1084 0
-630 -1085 0
-631 -1086 0
-634 -1088 0
-626 -1090 0
-628 -1092 0
-629 -1093 0
-630 -1094 0
-631 -1095 0
-632 -1097 0
-634 -1098 0
-627 -1126 0
-630 -1127 0
-631 -1128 0
-632 -1130 0
-633 -1131 0
-634 -1132 0
-626 -1139 0
-630 -1141 0
-632 -1143 0
-633 -1144 0
-634 -1145 0
-629 -1154 0
-630 -1155 0
-633 -1157 0
-634 -1158 0
-626 -1167 0
-628 -1168 0
-630 -1169 0
-632 -1170 0
-634 -1171 0
-626 -1180 0
-628 -1181 0
-631 -1182 0
-634 -1184 0
-626 -1193 0
-628 -1194 0
-629 -1195 0
-631 -1196 0
-632 -1197 0
-634 -1198 0
-628 -1206 0
-630 -1207 0
-631 -1208 0
-632 -1210 0
-634 -1211 0
-626 -1213 0
-629 -1214 0
-630 -1215 0
-632 -1217 0
-634 -1218 0
-626 -1220 0
-628 -1221 0
-629 -1222 0
-630 -1223 0
-631 -1224 0
-632 -1226 0
-633 -1227 0
-634 -1228 0
-628 -1236 0
-630 -1237 0
-631 -1238 0
-633 -1239 0
-634 -1240 0
-626 -1242 0
-629 -1243 0
-633 -1245 0
-634 -1246 0
-630 -1255 0
-632 -1257 0
-633 -1258 0
-634 -1259 0
-629 -1267 0
-630 -1268 0
-631 -1269 0
-632 -1270 0
-633 -1271 0
-634 -1272 0
-627 -1273 0
-628 -1274 0
-629 -1275 0
-633 -1277 0
-634 -1278 0
-627 -1307 0
-630 -1308 0
-631 -1309 0
-632 -1311 0
-633 -1312 0
-634 -1313 0
-628 -1315 0
-629 -1316 0
-631 -1317 0
-632 -1318 0
-633 -1319 0
-634 -1320 0
-629 -1323 0
-630 -1324 0
-633 -1326 0
-634 -1327 0
-629 -1329 0
-632 -1331 0
-633 -1332 0
-634 -1333 0
-628 -1378 0
-630 -1379 0
-631 -1380 0
-633 -1381 0
-634 -1382 0
-628 -1404 0
-631 -1405 0
-632 -1407 0
-633 -1408 0
-634 -1409 0
-629 -1435 0
-630 -1436 0
-631 -1437 0
-633 -1439 0
-634 -1440 0
-628 -1442 0
-629 -1443 0
-630 -1444 0
-632 -1446 0
-633 -1447 0
-634 -1448 0
-628 -1450 0
-629 -1451 0
-631 -1452 0
-633 -1454 0
-634 -1455 0
-627 -1457 0
-630 -1458 0
-631 -1459 0
-632 -1461 0
-633 -1462 0
-634 -1463 0
-626 -1464 0
-627 -1465 0
-631 -1467 0
-632 -1468 0
-633 -1469 0
-634 -1470 0
-627 -1487 0
-630 -1489 0
-633 -1491 0
-634 -1492 0
-626 -1493 0
-631 -1495 0
-633 -1497 0
-634 -1498 0
-626 -1499 0
-627 -1500 0
-628 -1501 0
-629 -1502 0
-631 -1503 0
-632 -1505 0
-633 -1506 0
-634 -1507 0
-626 -1542 0
-627 -1543 0
-629 -1544 0
-630 -1545 0
-633 -1547 0
-634 -1548 0
-627 -1556 0
-629 -1557 0
-632 -1559 0
-633 -1560 0
-634 -1561 0
-626 -1562 0
-628 -1564 0
-629 -1565 0
-633 -1567 0
-634 -1568 0
-626 -1576 0
-629 -1578 0
-630 -1579 0
-631 -1580 0
-632 -1582 0
-633 -1583 0
-634 -1584 0
-627 -1591 0
-629 -1592 0
-630 -1593 0
-632 -1595 0
-634 -1596 0
-626 -1597 0
-629 -1599 0
-631 -1600 0
-632 -1601 0
-634 -1602 0
-629 -1617 0
-630 -1618 0
-631 -1619 0
-632 -1621 0
-634 -1622 0
-627 -1630 0
-628 -1631 0
-630 -1632 0
-631 -1633 0
-634 -1635 0
-626 -1636 0
-627 -1637 0
-629 -1638 0
-631 -1639 0
-634 -1641 0
-627 -1643 0
-630 -1644 0
-631 -1645 0
-632 -1646 0
-634 -1647 0
-626 -1648 0
-628 -1650 0
-630 -1651 0
-631 -1652 0
-634 -1653 0
-630 -1683 0
-631 -1684 0
-632 -1685 0
-633 -1686 0
-634 -1687 0
-626 -1688 0
-628 -1689 0
-629 -1690 0
-630 -1691 0
-631 -1692 0
-634 -1694 0
-626 -1702 0
-628 -1703 0
-629 -1704 0
-631 -1705 0
-632 -1706 0
-634 -1707 0
-626 -1717 0
-628 -1718 0
-629 -1719 0
-632 -1721 0
-634 -1722 0
-628 -1731 0
-629 -1732 0
-630 -1733 0
-634 -1735 0
-626 -1737 0
-629 -1738 0
-630 -1739 0
-631 -1740 0
-634 -1741 0
-629 -1743 0
-631 -1744 0
-632 -1746 0
-634 -1747 0
-628 -1754 0
-629 -1755 0
-630 -1756 0
-632 -1758 0
-633 -1759 0
-634 -1760 0
-626 -1761 0
-629 -1762 0
-631 -1763 0
-632 -1765 0
-633 -1766 0
-634 -1767 0
-629 -1775 0
-630 -1776 0
-631 -1777 0
-632 -1778 0
-633 -1779 0
-634 -1780 0
-629 -1782 0
-630 -1783 0
-631 -1784 0
-633 -1786 0
-634 -1787 0
-630 -1795 0
-631 -1796 0
-632 -1797 0
-633 -1798 0
-634 -1799 0
-628 -1813 0
-629 -1814 0
-630 -1815 0
-632 -1817 0
-633 -1818 0
-634 -1819 0
-628 -1839 0
-631 -1840 0
-632 -1842 0
-633 -1843 0
-634 -1844 0
-626 -1851 0
-627 -1852 0
-629 -1853 0
-630 -1854 0
-633 -1856 0
-634 -1857 0
-626 -1858 0
-629 -1860 0
-630 -1861 0
-631 -1862 0
-633 -1863 0
-634 -1864 0
-626 -1872 0
-628 -1873 0
-630 -1874 0
-633 -1876 0
-634 -1877 0
-626 -1880 0
-631 -1881 0
-632 -1882 0
-633 -1883 0
-634 -1884 0
-626 -1892 0
-629 -1893 0
-631 -1894 0
-632 -1896 0
-633 -1897 0
-634 -1898 0
-626 -1906 0
-630 -1907 0
-631 -1908 0
-633 -1910 0
-634 -1911 0
-626 -1918 0
-630 -1919 0
-631 -1920 0
-632 -1922 0
-634 -1923 0
-626 -1952 0
-629 -1953 0
-631 -1954 0
-632 -1956 0
-633 -1957 0
-634 -1958 0
-637 -762 0
-638 -763 0
-639 -764 0
-640 -766 0
-641 -767 0
-636 -788 0
-640 -790 0
-641 -792 0
-636 -794 0
-638 -795 0
-639 -796 0
-640 -798 0
-641 -799 0
-636 -807 0
-637 -809 0
-638 -810 0
-639 -811 0
-640 -812 0
-641 -814 0
-636 -816 0
-638 -818 0
-640 -820 0
-641 -821 0
-635 -845 0
-636 -846 0
-640 -848 0
-641 -850 0
-635 -851 0
-636 -852 0
-638 -854 0
-639 -855 0
-640 -858 0
-641 -860 0
-635 -861 0
-638 -864 0
-640 -865 0
-641 -867 0
-636 -868 0
-639 -870 0
-641 -873 0
-636 -874 0
-638 -876 0
-639 -877 0
-641 -879 0
-638 -882 0
-639 -883 0
-641 -885 0
-636 -893 0
-637 -894 0
-640 -896 0
-641 -897 0
-635 -938 0
-636 -940 0
-638 -941 0
-639 -942 0
-640 -944 0
-641 -946 0
-635 -947 0
-636 -949 0
-640 -952 0
-641 -953 0
-635 -960 0
-637 -963 0
-640 -966 0
-641 -968 0
-635 -969 0
-639 -972 0
-640 -974 0
-641 -975 0
-636 -990 0
-638 -991 0
-641 -994 0
-636 -996 0
-639 -997 0
-641 -1000 0
-637 -1009 0
-639 -1010 0
-641 -1012 0
-641 -1018 0
-635 -1040 0
-638 -1042 0
-641 -1045 0
-635 -1046 0
-639 -1048 0
-641 -1051 0
-635 -1059 0
-636 -1060 0
-637 -1061 0
-639 -1062 0
-640 -1065 0
-641 -1067 0
-635 -1068 0
-636 -1069 0
-637 -1070 0
-638 -1071 0
-639 -1072 0
-640 -1073 0
-641 -1074 0
-635 -1075 0
-636 -1077 0
-640 -1080 0
-641 -1081 0
-635 -1089 0
-637 -1092 0
-638 -1093 0
-639 -1094 0
-640 -1097 0
-641 -1098 0
-635 -1113 0
-640 -1117 0
-641 -1119 0
-635 -1146 0
-639 -1148 0
-641 -1151 0
-635 -1152 0
-638 -1154 0
-639 -1155 0
-641 -1158 0
-635 -1166 0
-637 -1168 0
-639 -1169 0
-640 -1170 0
-641 -1171 0
-635 -1172 0
-637 -1174 0
-640 -1176 0
-641 -1178 0
-635 -1199 0
-637 -1200 0
-638 -1201 0
-640 -1202 0
-641 -1204 0
-635 -1205 0
-637 -1206 0
-639 -1207 0
-640 -1210 0
-641 -1211 0
-635 -1212 0
-638 -1214 0
-639 -1215 0
-640 -1217 0
-641 -1218 0
-635 -1229 0
-637 -1230 0
-638 -1231 0
-639 -1232 0
-641 -1234 0
-635 -1235 0
-637 -1236 0
-639 -1237 0
-641 -1240 0
-635 -1241 0
-638 -1243 0
-641 -1246 0
-635 -1247 0
-639 -1249 0
-641 -1253 0
-636 -1307 0
-639 -1308 0
-640 -1311 0
-641 -1313 0
-637 -1315 0
-638 -1316 0
-640 -1318 0
-641 -1320 0
-637 -1371 0
-639 -1372 0
-640 -1374 0
-641 -1376 0
-638 -1435 0
-639 -1436 0
-641 -1440 0
-637 -1442 0
-638 -1443 0
-639 -1444 0
-640 -1446 0
-641 -1448 0
-636 -1480 0
-638 -1482 0
-641 -1486 0
-636 -1487 0
-639 -1489 0
-641 -1492 0
-641 -1498 0
-636 -1543 0
-638 -1544 0
-639 -1545 0
-641 -1548 0
-636 -1550 0
-638 -1551 0
-641 -1554 0
-637 -1564 0
-638 -1565 0
-641 -1568 0
-638 -1571 0
-639 -1572 0
-641 -1574 0
-638 -1611 0
-640 -1613 0
-641 -1615 0
-638 -1617 0
-639 -1618 0
-640 -1621 0
-641 -1622 0
-636 -1623 0
-637 -1624 0
-638 -1625 0
-639 -1626 0
-641 -1629 0
-636 -1630 0
-637 -1631 0
-639 -1632 0
-641 -1635 0
-636 -1637 0
-638 -1638 0
-641 -1641 0
-637 -1650 0
-639 -1651 0
-641 -1653 0
-635 -1669 0
-638 -1671 0
-641 -1674 0
-638 -1676 0
-639 -1677 0
-640 -1680 0
-641 -1681 0
-639 -1683 0
-640 -1685 0
-641 -1687 0
-637 -1689 0
-638 -1690 0
-639 -1691 0
-641 -1694 0
-637 -1696 0
-638 -1697 0
-641 -1700 0
-635 -1723 0
-637 -1724 0
-638 -1725 0
-641 -1729 0
-635 -1730 0
-637 -1731 0
-638 -1732 0
-639 -1733 0
-641 -1735 0
-635 -1736 0
-638 -1738 0
-639 -1739 0
-641 -1741 0
-637 -1748 0
-638 -1749 0
-639 -1750 0
-640 -1752 0
-641 -1753 0
-637 -1754 0
-638 -1755 0
-639 -1756 0
-640 -1758 0
-641 -1760 0
-638 -1762 0
-640 -1765 0
-641 -1767 0
-638 -1769 0
-639 -1770 0
-640 -1771 0
-641 -1773 0
-636 -1846 0
-639 -1847 0
-641 -1850 0
-636 -1852 0
-638 -1853 0
-639 -1854 0
-641 -1857 0
-638 -1860 0
-639 -1861 0
-641 -1864 0
-637 -1873 0
-639 -1874 0
-641 -1877 0
-635 -1899 0
-638 -1901 0
-641 -1904 0
-635 -1905 0
-639 -1907 0
-641 -1911 0
-638 -1913 0
-639 -1914 0
-640 -1915 0
-641 -1917 0
-639 -1919 0
-640 -1922 0
-641 -1923 0
-635 -1931 0
-639 -1933 0
-641 -1937 0
-642 -787 0
-647 -790 0
-648 -792 0
-642 -793 0
-645 -795 0
-646 -796 0
-647 -798 0
-648 -799 0
-645 -802 0
-646 -803 0
-648 -805 0
-642 -838 0
-643 -840 0
-647 -842 0
-648 -844 0
-643 -847 0
-647 -848 0
-648 -850 0
-643 -853 0
-645 -854 0
-646 -855 0
-647 -858 0
-648 -860 0
-643 -869 0
-646 -870 0
-648 -873 0
-643 -875 0
-645 -876 0
-646 -877 0
-648 -879 0
-643 -886 0
-646 -887 0
-647 -889 0
-648 -891 0
-642 -939 0
-645 -941 0
-646 -942 0
-647 -944 0
-648 -946 0
-642 -948 0
-647 -952 0
-648 -953 0
-648 -959 0
-642 -989 0
-645 -991 0
-648 -994 0
-642 -995 0
-646 -997 0
-648 -1000 0
-646 -1003 0
-647 -1005 0
-648 -1006 0
-642 -1034 0
-643 -1035 0
-645 -1036 0
-647 -1038 0
-648 -1039 0
-643 -1041 0
-645 -1042 0
-648 -1045 0
-643 -1047 0
-646 -1048 0
-648 -1051 0
-642 -1052 0
-644 -1054 0
-646 -1055 0
-647 -1057 0
-648 -1058 0
-644 -1061 0
-646 -1062 0
-647 -1065 0
-648 -1067 0
-644 -1070 0
-645 -1071 0
-646 -1072 0
-647 -1073 0
-648 -1074 0
-642 -1076 0
-647 -1080 0
-648 -1081 0
-645 -1084 0
-646 -1085 0
-648 -1088 0
-643 -1107 0
-644 -1108 0
-646 -1109 0
-647 -1110 0
-648 -1112 0
-643 -1114 0
-647 -1117 0
-648 -1119 0
-643 -1133 0
-644 -1134 0
-646 -1135 0
-647 -1137 0
-648 -1138 0
-642 -1139 0
-643 -1140 0
-646 -1141 0
-647 -1143 0
-648 -1145 0
-643 -1147 0
-646 -1148 0
-648 -1151 0
-643 -1153 0
-645 -1154 0
-646 -1155 0
-648 -1158 0
-642 -1193 0
-644 -1194 0
-645 -1195 0
-647 -1197 0
-648 -1198 0
-644 -1200 0
-645 -1201 0
-647 -1202 0
-648 -1204 0
-644 -1206 0
-646 -1207 0
-647 -1210 0
-648 -1211 0
-642 -1213 0
-645 -1214 0
-646 -1215 0
-647 -1217 0
-648 -1218 0
-642 -1220 0
-644 -1221 0
-645 -1222 0
-646 -1223 0
-647 -1226 0
-648 -1228 0
-644 -1230 0
-645 -1231 0
-646 -1232 0
-648 -1234 0
-644 -1236 0
-646 -1237 0
-648 -1240 0
-642 -1242 0
-645 -1243 0
-648 -1246 0
-642 -1248 0
-646 -1249 0
-648 -1253 0
-646 -1255 0
-647 -1257 0
-648 -1259 0
-646 -1308 0
-647 -1311 0
-648 -1313 0
-645 -1435 0
-646 -1436 0
-648 -1440 0
-646 -1458 0
-647 -1461 0
-648 -1463 0
-643 -1481 0
-645 -1482 0
-648 -1486 0
-643 -1488 0
-646 -1489 0
-648 -1492 0
-642 -1542 0
-645 -1544 0
-646 -1545 0
-648 -1548 0
-642 -1549 0
-645 -1551 0
-648 -1554 0
-645 -1557 0
-647 -1559 0
-648 -1561 0
-645 -1592 0
-646 -1593 0
-647 -1595 0
-648 -1596 0
-643 -1610 0
-645 -1611 0
-647 -1613 0
-648 -1615 0
-643 -1616 0
-645 -1617 0
-646 -1618 0
-647 -1621 0
-648 -1622 0
-644 -1624 0
-645 -1625 0
-646 -1626 0
-648 -1629 0
-644 -1631 0
-646 -1632 0
-648 -1635 0
-642 -1636 0
-645 -1638 0
-648 -1641 0
-646 -1644 0
-647 -1646 0
-648 -1647 0
-643 -1660 0
-644 -1661 0
-645 -1662 0
-646 -1663 0
-647 -1666 0
-648 -1668 0
-643 -1670 0
-645 -1671 0
-648 -1674 0
-643 -1675 0
-645 -1676 0
-646 -1677 0
-647 -1680 0
-648 -1681 0
-643 -1682 0
-646 -1683 0
-647 -1685 0
-648 -1687 0
-642 -1717 0
-644 -1718 0
-645 -1719 0
-647 -1721 0
-648 -1722 0
-644 -1724 0
-645 -1725 0
-648 -1729 0
-644 -1731 0
-645 -1732 0
-646 -1733 0
-648 -1735 0
-642 -1737 0
-645 -1738 0
-646 -1739 0
-648 -1741 0
-645 -1743 0
-647 -1746 0
-648 -1747 0
-644 -1748 0
-645 -1749 0
-646 -1750 0
-647 -1752 0
-648 -1753 0
-644 -1754 0
-645 -1755 0
-646 -1756 0
-647 -1758 0
-648 -1760 0
-642 -1761 0
-645 -1762 0
-647 -1765 0
-648 -1767 0
-642 -1768 0
-645 -1769 0
-646 -1770 0
-647 -1771 0
-648 -1773 0
-645 -1775 0
-646 -1776 0
-647 -1778 0
-648 -1780 0
-642 -1845 0
-646 -1847 0
-648 -1850 0
-642 -1851 0
-645 -1853 0
-646 -1854 0
-648 -1857 0
-642 -1865 0
-643 -1866 0
-646 -1867 0
-647 -1869 0
-648 -1871 0
-642 -1892 0
-645 -1893 0
-647 -1896 0
-648 -1898 0
-642 -1900 0
-645 -1901 0
-648 -1904 0
-642 -1906 0
-646 -1907 0
-648 -1911 0
-642 -1912 0
-645 -1913 0
-646 -1914 0
-647 -1915 0
-648 -1917 0
-642 -1918 0
-646 -1919 0
-647 -1922 0
-648 -1923 0
-642 -1924 0
-644 -1925 0
-646 -1926 0
-647 -1928 0
-648 -1930 0
-642 -1932 0
-646 -1933 0
-648 -1937 0
-650 -711 0
-651 -712 0
-653 -713 0
-654 -715 0
-655 -716 0
-650 -737 0
-651 -738 0
-653 -739 0
-655 -741 0
-650 -757 0
-651 -758 0
-654 -760 0
-655 -761 0
-650 -781 0
-653 -782 0
-654 -785 0
-655 -786 0
-649 -794 0
-651 -795 0
-652 -796 0
-653 -797 0
-655 -799 0
-649 -801 0
-651 -802 0
-652 -803 0
-654 -804 0
-655 -805 0
-649 -807 0
-650 -809 0
-651 -810 0
-652 -811 0
-654 -813 0
-655 -814 0
-649 -816 0
-651 -818 0
-655 -821 0
-649 -824 0
-651 -826 0
-653 -827 0
-654 -829 0
-655 -830 0
-649 -852 0
-651 -854 0
-652 -855 0
-653 -856 0
-654 -859 0
-655 -860 0
-651 -864 0
-654 -866 0
-655 -867 0
-649 -868 0
-652 -870 0
-654 -872 0
-655 -873 0
-652 -887 0
-653 -888 0
-654 -890 0
-655 -891 0
-649 -906 0
-650 -907 0
-651 -908 0
-652 -909 0
-653 -910 0
-655 -912 0
-649 -921 0
-651 -922 0
-653 -923 0
-654 -924 0
-655 -925 0
-649 -928 0
-651 -929 0
-655 -931 0
-650 -935 0
-651 -936 0
-655 -937 0
-651 -985 0
-653 -986 0
-655 -988 0
-649 -996 0
-652 -997 0
-653 -998 0
-654 -999 0
-655 -1000 0
-649 -1002 0
-652 -1003 0
-653 -1004 0
-655 -1006 0
-650 -1009 0
-652 -1010 0
-653 -1011 0
-655 -1012 0
-653 -1015 0
-654 -1017 0
-655 -1018 0
-655 -1024 0
-652 -1048 0
-653 -1049 0
-655 -1051 0
-649 -1053 0
-650 -1054 0
-652 -1055 0
-655 -1058 0
-649 -1060 0
-650 -1061 0
-652 -1062 0
-653 -1063 0
-654 -1066 0
-655 -1067 0
-649 -1077 0
-653 -1078 0
-655 -1081 0
-650 -1108 0
-652 -1109 0
-654 -1111 0
-655 -1112 0
-653 -1115 0
-654 -1118 0
-655 -1119 0
-649 -1120 0
-651 -1121 0
-652 -1122 0
-655 -1125 0
-651 -1160 0
-652 -1161 0
-653 -1162 0
-655 -1165 0
-650 -1168 0
-652 -1169 0
-655 -1171 0
-650 -1174 0
-654 -1177 0
-655 -1178 0
-650 -1181 0
-653 -1182 0
-655 -1184 0
-650 -1206 0
-652 -1207 0
-653 -1208 0
-655 -1211 0
-650 -1221 0
-651 -1222 0
-652 -1223 0
-653 -1224 0
-654 -1227 0
-655 -1228 0
-650 -1230 0
-651 -1231 0
-652 -1232 0
-655 -1234 0
-651 -1243 0
-654 -1245 0
-655 -1246 0
-651 -1267 0
-652 -1268 0
-653 -1269 0
-654 -1271 0
-655 -1272 0
-649 -1279 0
-650 -1280 0
-651 -1281 0
-652 -1282 0
-653 -1283 0
-654 -1284 0
-655 -1285 0
-649 -1294 0
-651 -1295 0
-654 -1298 0
-655 -1299 0
-650 -1302 0
-651 -1303 0
-654 -1305 0
-655 -1306 0
-651 -1329 0
-654 -1332 0
-655 -1333 0
-650 -1365 0
-651 -1366 0
-653 -1367 0
-655 -1369 0
-650 -1410 0
-651 -1411 0
-652 -1412 0
-653 -1413 0
-655 -1415 0
-651 -1423 0
-653 -1424 0
-654 -1427 0
-655 -1428 0
-651 -1430 0
-653 -1431 0
-655 -1434 0
-650 -1442 0
-651 -1443 0
-652 -1444 0
-654 -1447 0
-655 -1448 0
-650 -1450 0
-651 -1451 0
-653 -1452 0
-654 -1454 0
-655 -1455 0
-649 -1457 0
-652 -1458 0
-653 -1459 0
-654 -1462 0
-655 -1463 0
-649 -1465 0
-653 -1467 0
-654 -1469 0
-655 -1470 0
-649 -1487 0
-652 -1489 0
-654 -1491 0
-655 -1492 0
-653 -1495 0
-654 -1497 0
-655 -1498 0
-649 -1509 0
-650 -1510 0
-652 -1511 0
-655 -1514 0
-649 -1523 0
-654 -1526 0
-655 -1527 0
-649 -1530 0
-653 -1531 0
-655 -1534 0
-650 -1537 0
-653 -1538 0
-655 -1541 0
-655 -1590 0
-649 -1591 0
-651 -1592 0
-652 -1593 0
-655 -1596 0
-651 -1599 0
-653 -1600 0
-655 -1602 0
-651 -1617 0
-652 -1618 0
-653 -1619 0
-655 -1622 0
-649 -1623 0
-650 -1624 0
-651 -1625 0
-652 -1626 0
-653 -1627 0
-654 -1628 0
-655 -1629 0
-649 -1637 0
-651 -1638 0
-653 -1639 0
-655 -1641 0
-650 -1661 0
-651 -1662 0
-652 -1663 0
-653 -1664 0
-654 -1667 0
-655 -1668 0
-651 -1671 0
-653 -1672 0
-654 -1673 0
-655 -1674 0
-650 -1689 0
-651 -1690 0
-652 -1691 0
-653 -1692 0
-655 -1694 0
-650 -1696 0
-651 -1697 0
-653 -1698 0
-654 -1699 0
-655 -1700 0
-650 -1703 0
-651 -1704 0
-653 -1705 0
-655 -1707 0
-650 -1731 0
-651 -1732 0
-652 -1733 0
-655 -1735 0
-651 -1743 0
-653 -1744 0
-655 -1747 0
-650 -1748 0
-651 -1749 0
-652 -1750 0
-653 -1751 0
-655 -1753 0
-651 -1762 0
-653 -1763 0
-654 -1766 0
-655 -1767 0
-651 -1782 0
-652 -1783 0
-653 -1784 0
-654 -1786 0
-655 -1787 0
-649 -1788 0
-651 -1789 0
-653 -1790 0
-654 -1792 0
-655 -1793 0
-650 -1808 0
-651 -1809 0
-655 -1812 0
-650 -1839 0
-653 -1840 0
-654 -1843 0
-655 -1844 0
-649 -1846 0
-652 -1847 0
-653 -1848 0
-654 -1849 0
-655 -1850 0
-652 -1867 0
-654 -1870 0
-655 -1871 0
-650 -1873 0
-652 -1874 0
-654 -1876 0
-655 -1877 0
-653 -1881 0
-654 -1883 0
-655 -1884 0
-652 -1907 0
-653 -1908 0
-654 -1910 0
-655 -1911 0
-651 -1913 0
-652 -1914 0
-654 -1916 0
-655 -1917 0
-651 -1939 0
-652 -1940 0
-653 -1941 0
-654 -1943 0
-655 -1944 0
-651 -1953 0
-653 -1954 0
-654 -1957 0
-655 -1958 0
-657 -705 0
-658 -706 0
-660 -707 0
-661 -709 0
-656 -730 0
-657 -731 0
-658 -732 0
-659 -733 0
-660 -734 0
-661 -735 0
-657 -737 0
-659 -739 0
-660 -740 0
-661 -741 0
-657 -750 0
-658 -751 0
-659 -752 0
-660 -753 0
-661 -755 0
-657 -774 0
-658 -776 0
-660 -777 0
-661 -780 0
-656 -788 0
-660 -789 0
-661 -792 0
-656 -801 0
-658 -803 0
-661 -805 0
-656 -807 0
-657 -809 0
-658 -811 0
-661 -814 0
-656 -816 0
-660 -819 0
-661 -821 0
-656 -833 0
-658 -836 0
-661 -837 0
-656 -846 0
-661 -850 0
-661 -867 0
-656 -874 0
-658 -877 0
-659 -878 0
-661 -879 0
-658 -887 0
-659 -888 0
-661 -891 0
-656 -900 0
-657 -901 0
-661 -903 0
-656 -915 0
-658 -916 0
-660 -917 0
-661 -918 0
-656 -928 0
-661 -931 0
-657 -935 0
-661 -937 0
-658 -979 0
-661 -981 0
-656 -990 0
-659 -992 0
-660 -993 0
-661 -994 0
-656 -1002 0
-658 -1003 0
-659 -1004 0
-661 -1006 0
-657 -1009 0
-658 -1010 0
-659 -1011 0
-661 -1012 0
-659 -1015 0
-660 -1016 0
-661 -1018 0
-658 -1029 0
-659 -1030 0
-661 -1033 0
-659 -1043 0
-661 -1045 0
-656 -1053 0
-657 -1054 0
-658 -1055 0
-660 -1056 0
-661 -1058 0
-656 -1069 0
-657 -1070 0
-658 -1072 0
-661 -1074 0
-656 -1100 0
-660 -1102 0
-661 -1105 0
-657 -1108 0
-658 -1109 0
-661 -1112 0
-656 -1126 0
-658 -1127 0
-659 -1128 0
-660 -1129 0
-661 -1132 0
-658 -1161 0
-659 -1162 0
-660 -1163 0
-661 -1165 0
-657 -1168 0
-658 -1169 0
-661 -1171 0
-657 -1174 0
-660 -1175 0
-661 -1178 0
-657 -1187 0
-658 -1189 0
-661 -1191 0
-657 -1200 0
-661 -1204 0
-658 -1215 0
-660 -1216 0
-661 -1218 0
-657 -1221 0
-658 -1223 0
-659 -1224 0
-660 -1225 0
-661 -1228 0
-657 -1236 0
-658 -1237 0
-659 -1238 0
-661 -1240 0
-658 -1249 0
-659 -1250 0
-660 -1251 0
-661 -1253 0
-659 -1262 0
-660 -1263 0
-661 -1265 0
-656 -1273 0
-657 -1274 0
-660 -1276 0
-661 -1278 0
-656 -1287 0
-658 -1289 0
-660 -1290 0
-661 -1292 0
-656 -1294 0
-660 -1296 0
-661 -1299 0
-657 -1302 0
-660 -1304 0
-661 -1306 0
-658 -1324 0
-660 -1325 0
-661 -1327 0
-658 -1336 0
-659 -1337 0
-660 -1338 0
-661 -1340 0
-657 -1356 0
-658 -1358 0
-660 -1359 0
-661 -1362 0
-657 -1404 0
-659 -1405 0
-660 -1406 0
-661 -1409 0
-658 -1417 0
-659 -1418 0
-660 -1419 0
-661 -1421 0
-659 -1431 0
-660 -1432 0
-661 -1434 0
-657 -1442 0
-658 -1444 0
-660 -1445 0
-661 -1448 0
-656 -1457 0
-658 -1458 0
-659 -1459 0
-660 -1460 0
-661 -1463 0
-656 -1472 0
-658 -1475 0
-659 -1476 0
-660 -1477 0
-661 -1479 0
-656 -1480 0
-659 -1483 0
-660 -1484 0
-661 -1486 0
-659 -1495 0
-660 -1496 0
-661 -1498 0
-656 -1500 0
-657 -1501 0
-659 -1503 0
-660 -1504 0
-661 -1507 0
-656 -1516 0
-658 -1518 0
-659 -1519 0
-661 -1521 0
-656 -1530 0
-659 -1531 0
-660 -1532 0
-661 -1534 0
-657 -1537 0
-659 -1538 0
-660 -1539 0
-661 -1541 0
-658 -1579 0
-659 -1580 0
-660 -1581 0
-661 -1584 0
-656 -1591 0
-658 -1593 0
-660 -1594 0
-661 -1596 0
-658 -1605 0
-660 -1606 0
-661 -1609 0
-660 -1612 0
-661 -1615 0
-656 -1630 0
-657 -1631 0
-658 -1632 0
-659 -1633 0
-660 -1634 0
-661 -1635 0
-656 -1654 0
-659 -1656 0
-661 -1659 0
-657 -1661 0
-658 -1663 0
-659 -1664 0
-660 -1665 0
-661 -1668 0
-657 -1689 0
-658 -1691 0
-659 -1692 0
-660 -1693 0
-661 -1694 0
-657 -1696 0
-659 -1698 0
-661 -1700 0
-657 -1710 0
-658 -1711 0
-659 -1712 0
-660 -1713 0
-661 -1716 0
-657 -1724 0
-659 -1726 0
-660 -1727 0
-661 -1729 0
-658 -1739 0
-659 -1740 0
-661 -1741 0
-659 -1744 0
-660 -1745 0
-661 -1747 0
-657 -1754 0
-658 -1756 0
-660 -1757 0
-661 -1760 0
-658 -1770 0
-661 -1773 0
-656 -1788 0
-659 -1790 0
-661 -1793 0
-658 -1795 0
-659 -1796 0
-661 -1799 0
-657 -1801 0
-658 -1802 0
-659 -1803 0
-661 -1806 0
-656 -1852 0
-658 -1854 0
-660 -1855 0
-661 -1857 0
-658 -1867 0
-660 -1868 0
-661 -1871 0
-657 -1873 0
-658 -1874 0
-660 -1875 0
-661 -1877 0
-658 -1888 0
-660 -1889 0
-661 -1891 0
-660 -1902 0
-661 -1904 0
-658 -1919 0
-659 -1920 0
-660 -1921 0
-661 -1923 0
-664 -698 0
-665 -699 0
-666 -700 0
-667 -702 0
-668 -703 0
-663 -731 0
-664 -732 0
-665 -733 0
-666 -734 0
-668 -735 0
-663 -774 0
-664 -776 0
-666 -777 0
-667 -779 0
-668 -780 0
-663 -781 0
-665 -782 0
-666 -783 0
-667 -785 0
-668 -786 0
-666 -789 0
-667 -791 0
-668 -792 0
-664 -796 0
-665 -797 0
-668 -799 0
-664 -803 0
-667 -804 0
-668 -805 0
-662 -817 0
-666 -819 0
-668 -821 0
-662 -825 0
-665 -827 0
-666 -828 0
-667 -829 0
-668 -830 0
-662 -834 0
-664 -836 0
-668 -837 0
-662 -869 0
-664 -870 0
-666 -871 0
-667 -872 0
-668 -873 0
-662 -875 0
-664 -877 0
-665 -878 0
-668 -879 0
-662 -881 0
-664 -883 0
-666 -884 0
-668 -885 0
-664 -916 0
-666 -917 0
-668 -918 0
-665 -923 0
-667 -924 0
-668 -925 0
-668 -931 0
-665 -992 0
-666 -993 0
-668 -994 0
-664 -997 0
-665 -998 0
-667 -999 0
-668 -1000 0
-664 -1003 0
-665 -1004 0
-668 -1006 0
-662 -1014 0
-665 -1015 0
-666 -1016 0
-667 -1017 0
-668 -1018 0
-662 -1021 0
-666 -1022 0
-668 -1024 0
-662 -1027 0
-664 -1029 0
-665 -1030 0
-667 -1032 0
-668 -1033 0
-663 -1054 0
-664 -1055 0
-666 -1056 0
-668 -1058 0
-663 -1061 0
-664 -1062 0
-665 -1063 0
-666 -1064 0
-667 -1066 0
-668 -1067 0
-663 -1070 0
-664 -1072 0
-668 -1074 0
-662 -1091 0
-663 -1092 0
-664 -1094 0
-665 -1095 0
-666 -1096 0
-668 -1098 0
-666 -1102 0
-667 -1104 0
-668 -1105 0
-662 -1114 0
-665 -1115 0
-666 -1116 0
-667 -1118 0
-668 -1119 0
-662 -1133 0
-663 -1134 0
-664 -1135 0
-666 -1136 0
-668 -1138 0
-662 -1159 0
-664 -1161 0
-665 -1162 0
-666 -1163 0
-668 -1165 0
-663 -1174 0
-666 -1175 0
-667 -1177 0
-668 -1178 0
-663 -1181 0
-665 -1182 0
-666 -1183 0
-668 -1184 0
-663 -1187 0
-664 -1189 0
-667 -1190 0
-668 -1191 0
-664 -1215 0
-666 -1216 0
-668 -1218 0
-663 -1221 0
-664 -1223 0
-665 -1224 0
-666 -1225 0
-667 -1227 0
-668 -1228 0
-663 -1230 0
-664 -1232 0
-666 -1233 0
-668 -1234 0
-663 -1236 0
-664 -1237 0
-665 -1238 0
-667 -1239 0
-668 -1240 0
-665 -1262 0
-666 -1263 0
-668 -1265 0
-664 -1268 0
-665 -1269 0
-667 -1271 0
-668 -1272 0
-664 -1289 0
-666 -1290 0
-667 -1291 0
-668 -1292 0
-666 -1296 0
-667 -1298 0
-668 -1299 0
-662 -1328 0
-666 -1330 0
-667 -1332 0
-668 -1333 0
-662 -1334 0
-664 -1336 0
-665 -1337 0
-666 -1338 0
-668 -1340 0
-664 -1417 0
-665 -1418 0
-666 -1419 0
-668 -1421 0
-665 -1424 0
-666 -1425 0
-667 -1427 0
-668 -1428 0
-665 -1431 0
-666 -1432 0
-668 -1434 0
-663 -1450 0
-665 -1452 0
-666 -1453 0
-667 -1454 0
-668 -1455 0
-664 -1458 0
-665 -1459 0
-666 -1460 0
-667 -1462 0
-668 -1463 0
-662 -1466 0
-665 -1467 0
-667 -1469 0
-668 -1470 0
-662 -1473 0
-664 -1475 0
-665 -1476 0
-666 -1477 0
-668 -1479 0
-664 -1518 0
-665 -1519 0
-668 -1521 0
-666 -1524 0
-667 -1526 0
-668 -1527 0
-665 -1531 0
-666 -1532 0
-668 -1534 0
-664 -1593 0
-666 -1594 0
-668 -1596 0
-662 -1598 0
-665 -1600 0
-668 -1602 0
-662 -1604 0
-664 -1605 0
-666 -1606 0
-667 -1608 0
-668 -1609 0
-663 -1624 0
-664 -1626 0
-665 -1627 0
-667 -1628 0
-668 -1629 0
-663 -1631 0
-664 -1632 0
-665 -1633 0
-666 -1634 0
-668 -1635 0
-662 -1649 0
-663 -1650 0
-664 -1651 0
-665 -1652 0
-668 -1653 0
-665 -1656 0
-667 -1658 0
-668 -1659 0
-662 -1670 0
-665 -1672 0
-667 -1673 0
-668 -1674 0
-663 -1696 0
-665 -1698 0
-667 -1699 0
-668 -1700 0
-663 -1703 0
-665 -1705 0
-668 -1707 0
-663 -1710 0
-664 -1711 0
-665 -1712 0
-666 -1713 0
-667 -1715 0
-668 -1716 0
-664 -1739 0
-665 -1740 0
-668 -1741 0
-665 -1744 0
-666 -1745 0
-668 -1747 0
-663 -1748 0
-664 -1750 0
-665 -1751 0
-668 -1753 0
-663 -1754 0
-664 -1756 0
-666 -1757 0
-667 -1759 0
-668 -1760 0
-664 -1783 0
-665 -1784 0
-666 -1785 0
-667 -1786 0
-668 -1787 0
-665 -1790 0
-667 -1792 0
-668 -1793 0
-663 -1839 0
-665 -1840 0
-666 -1841 0
-667 -1843 0
-668 -1844 0
-664 -1847 0
-665 -1848 0
-667 -1849 0
-668 -1850 0
-664 -1854 0
-666 -1855 0
-667 -1856 0
-668 -1857 0
-662 -1859 0
-664 -1861 0
-665 -1862 0
-667 -1863 0
-668 -1864 0
-665 -1881 0
-667 -1883 0
-668 -1884 0
-664 -1888 0
-666 -1889 0
-668 -1891 0
-664 -1914 0
-667 -1916 0
-668 -1917 0
-664 -1919 0
-665 -1920 0
-666 -1921 0
-668 -1923 0
-663 -1925 0
-664 -1926 0
-665 -1927 0
-667 -1929 0
-668 -1930 0
-664 -1940 0
-665 -1941 0
-667 -1943 0
-668 -1944 0
-665 -1954 0
-666 -1955 0
-667 -1957 0
-668 -1958 0
-672 -739 0
-674 -741 0
-670 -788 0
-673 -790 0
-674 -792 0
-670 -794 0
-671 -796 0
-672 -797 0
-673 -798 0
-674 -799 0
-669 -800 0
-670 -801 0
-671 -803 0
-674 -805 0
-670 -816 0
-673 -820 0
-674 -821 0
-669 -822 0
-670 -824 0
-672 -827 0
-674 -830 0
-669 -831 0
-670 -833 0
-671 -836 0
-674 -837 0
-670 -839 0
-672 -841 0
-673 -842 0
-674 -844 0
-669 -845 0
-670 -846 0
-673 -848 0
-674 -850 0
-669 -851 0
-670 -852 0
-671 -855 0
-672 -856 0
-673 -858 0
-674 -860 0
-669 -861 0
-673 -865 0
-674 -867 0
-670 -893 0
-672 -895 0
-673 -896 0
-674 -897 0
-669 -898 0
-670 -900 0
-674 -903 0
-669 -904 0
-670 -906 0
-671 -909 0
-672 -910 0
-674 -912 0
-669 -932 0
-674 -937 0
-669 -960 0
-672 -964 0
-673 -966 0
-674 -968 0
-670 -990 0
-672 -992 0
-674 -994 0
-670 -996 0
-671 -997 0
-672 -998 0
-674 -1000 0
-669 -1001 0
-670 -1002 0
-671 -1003 0
-672 -1004 0
-673 -1005 0
-674 -1006 0
-672 -1015 0
-674 -1018 0
-669 -1019 0
-673 -1023 0
-674 -1024 0
-669 -1025 0
-671 -1029 0
-672 -1030 0
-673 -1031 0
-674 -1033 0
-672 -1037 0
-673 -1038 0
-674 -1039 0
-669 -1040 0
-672 -1043 0
-674 -1045 0
-669 -1046 0
-671 -1048 0
-672 -1049 0
-674 -1051 0
-669 -1075 0
-670 -1077 0
-672 -1078 0
-673 -1080 0
-674 -1081 0
-669 -1082 0
-670 -1083 0
-671 -1085 0
-672 -1086 0
-674 -1088 0
-669 -1099 0
-670 -1100 0
-673 -1103 0
-674 -1105 0
-669 -1113 0
-672 -1115 0
-673 -1117 0
-674 -1119 0
-669 -1172 0
-673 -1176 0
-674 -1178 0
-669 -1179 0
-672 -1182 0
-674 -1184 0
-669 -1185 0
-671 -1189 0
-674 -1191 0
-669 -1192 0
-672 -1196 0
-673 -1197 0
-674 -1198 0
-669 -1199 0
-673 -1202 0
-674 -1204 0
-669 -1205 0
-671 -1207 0
-672 -1208 0
-673 -1210 0
-674 -1211 0
-669 -1241 0
-674 -1246 0
-669 -1247 0
-671 -1249 0
-672 -1250 0
-674 -1253 0
-669 -1254 0
-671 -1255 0
-673 -1257 0
-674 -1259 0
-669 -1260 0
-672 -1262 0
-673 -1264 0
-674 -1265 0
-669 -1266 0
-671 -1268 0
-672 -1269 0
-673 -1270 0
-674 -1272 0
-670 -1273 0
-674 -1278 0
-670 -1279 0
-671 -1282 0
-672 -1283 0
-674 -1285 0
-674 -1306 0
-672 -1317 0
-673 -1318 0
-674 -1320 0
-673 -1331 0
-674 -1333 0
-671 -1336 0
-672 -1337 0
-673 -1339 0
-674 -1340 0
-672 -1344 0
-674 -1346 0
-672 -1405 0
-673 -1407 0
-674 -1409 0
-671 -1412 0
-672 -1413 0
-673 -1414 0
-674 -1415 0
-669 -1449 0
-672 -1452 0
-674 -1455 0
-670 -1457 0
-671 -1458 0
-672 -1459 0
-673 -1461 0
-674 -1463 0
-670 -1465 0
-672 -1467 0
-673 -1468 0
-674 -1470 0
-670 -1472 0
-671 -1475 0
-672 -1476 0
-673 -1478 0
-674 -1479 0
-670 -1480 0
-672 -1483 0
-674 -1486 0
-670 -1487 0
-671 -1489 0
-674 -1492 0
-672 -1495 0
-674 -1498 0
-670 -1500 0
-672 -1503 0
-673 -1505 0
-674 -1507 0
-670 -1509 0
-671 -1511 0
-673 -1513 0
-674 -1514 0
-672 -1538 0
-673 -1540 0
-674 -1541 0
-674 -1568 0
-670 -1591 0
-671 -1593 0
-673 -1595 0
-674 -1596 0
-672 -1600 0
-673 -1601 0
-674 -1602 0
-671 -1605 0
-673 -1607 0
-674 -1609 0
-673 -1613 0
-674 -1615 0
-671 -1618 0
-672 -1619 0
-673 -1621 0
-674 -1622 0
-670 -1637 0
-672 -1639 0
-674 -1641 0
-669 -1642 0
-670 -1643 0
-671 -1644 0
-672 -1645 0
-673 -1646 0
-674 -1647 0
-670 -1654 0
-672 -1656 0
-673 -1657 0
-674 -1659 0
-669 -1669 0
-672 -1672 0
-674 -1674 0
-672 -1698 0
-674 -1700 0
-669 -1701 0
-672 -1705 0
-673 -1706 0
-674 -1707 0
-669 -1708 0
-671 -1711 0
-672 -1712 0
-673 -1714 0
-674 -1716 0
-673 -1721 0
-674 -1722 0
-669 -1723 0
-672 -1726 0
-674 -1729 0
-669 -1730 0
-671 -1733 0
-674 -1735 0
-672 -1763 0
-673 -1765 0
-674 -1767 0
-671 -1770 0
-673 -1771 0
-674 -1773 0
-669 -1774 0
-671 -1776 0
-672 -1777 0
-673 -1778 0
-674 -1780 0
-671 -1783 0
-672 -1784 0
-674 -1787 0
-672 -1840 0
-673 -1842 0
-674 -1844 0
-669 -1879 0
-672 -1881 0
-673 -1882 0
-674 -1884 0
-669 -1885 0
-671 -1888 0
-673 -1890 0
-674 -1891 0
-672 -1894 0
-673 -1896 0
-674 -1898 0
-669 -1899 0
-674 -1904 0
-669 -1905 0
-671 -1907 0
-672 -1908 0
-674 -1911 0
-672 -1954 0
-673 -1956 0
-674 -1958 0
-675 -787 0
-680 -792 0
-675 -793 0
-678 -796 0
-679 -797 0
-680 -799 0
-675 -806 0
-676 -808 0
-677 -809 0
-678 -811 0
-680 -814 0
-675 -823 0
-676 -825 0
-679 -827 0
-680 -830 0
-675 -832 0
-676 -834 0
-678 -836 0
-680 -837 0
-676 -847 0
-680 -850 0
-676 -853 0
-678 -855 0
-679 -856 0
-680 -860 0
-675 -880 0
-676 -881 0
-678 -883 0
-680 -885 0
-676 -886 0
-678 -887 0
-679 -888 0
-680 -891 0
-675 -899 0
-677 -901 0
-680 -903 0
-675 -905 0
-677 -907 0
-678 -909 0
-679 -910 0
-680 -912 0
-675 -927 0
-680 -931 0
-679 -956 0
-680 -959 0
-675 -989 0
-679 -992 0
-680 -994 0
-675 -995 0
-678 -997 0
-679 -998 0
-680 -1000 0
-675 -1007 0
-676 -1008 0
-677 -1009 0
-678 -1010 0
-679 -1011 0
-680 -1012 0
-675 -1020 0
-676 -1021 0
-680 -1024 0
-675 -1026 0
-676 -1027 0
-678 -1029 0
-679 -1030 0
-680 -1033 0
-676 -1041 0
-679 -1043 0
-680 -1045 0
-676 -1047 0
-678 -1048 0
-679 -1049 0
-680 -1051 0
-675 -1052 0
-677 -1054 0
-678 -1055 0
-680 -1058 0
-675 -1076 0
-679 -1078 0
-680 -1081 0
-675 -1090 0
-676 -1091 0
-677 -1092 0
-678 -1094 0
-679 -1095 0
-680 -1098 0
-680 -1105 0
-676 -1107 0
-677 -1108 0
-678 -1109 0
-680 -1112 0
-676 -1114 0
-679 -1115 0
-680 -1119 0
-675 -1139 0
-676 -1140 0
-678 -1141 0
-680 -1145 0
-676 -1159 0
-678 -1161 0
-679 -1162 0
-680 -1165 0
-675 -1167 0
-677 -1168 0
-678 -1169 0
-680 -1171 0
-675 -1180 0
-677 -1181 0
-679 -1182 0
-680 -1184 0
-675 -1186 0
-677 -1187 0
-678 -1189 0
-680 -1191 0
-677 -1200 0
-680 -1204 0
-677 -1206 0
-678 -1207 0
-679 -1208 0
-680 -1211 0
-675 -1220 0
-677 -1221 0
-678 -1223 0
-679 -1224 0
-680 -1228 0
-675 -1242 0
-680 -1246 0
-675 -1248 0
-678 -1249 0
-679 -1250 0
-680 -1253 0
-679 -1262 0
-680 -1265 0
-678 -1268 0
-679 -1269 0
-680 -1272 0
-677 -1274 0
-680 -1278 0
-677 -1280 0
-678 -1282 0
-679 -1283 0
-680 -1285 0
-680 -1299 0
-676 -1328 0
-680 -1333 0
-676 -1334 0
-678 -1336 0
-679 -1337 0
-680 -1340 0
-677 -1404 0
-679 -1405 0
-680 -1409 0
-677 -1410 0
-678 -1412 0
-679 -1413 0
-680 -1415 0
-679 -1431 0
-680 -1434 0
-677 -1442 0
-678 -1444 0
-680 -1448 0
-677 -1450 0
-679 -1452 0
-680 -1455 0
-675 -1464 0
-676 -1466 0
-679 -1467 0
-680 -1470 0
-675 -1471 0
-676 -1473 0
-678 -1475 0
-679 -1476 0
-680 -1479 0
-676 -1481 0
-679 -1483 0
-680 -1486 0
-676 -1488 0
-678 -1489 0
-680 -1492 0
-675 -1499 0
-677 -1501 0
-679 -1503 0
-680 -1507 0
-675 -1508 0
-677 -1510 0
-678 -1511 0
-680 -1514 0
-675 -1529 0
-679 -1531 0
-680 -1534 0
-680 -1561 0
-675 -1597 0
-676 -1598 0
-679 -1600 0
-680 -1602 0
-675 -1603 0
-676 -1604 0
-678 -1605 0
-680 -1609 0
-676 -1610 0
-680 -1615 0
-676 -1616 0
-678 -1618 0
-679 -1619 0
-680 -1622 0
-675 -1636 0
-679 -1639 0
-680 -1641 0
-675 -1648 0
-676 -1649 0
-677 -1650 0
-678 -1651 0
-679 -1652 0
-680 -1653 0
-679 -1656 0
-680 -1659 0
-676 -1660 0
-677 -1661 0
-678 -1663 0
-679 -1664 0
-680 -1668 0
-676 -1670 0
-679 -1672 0
-680 -1674 0
-675 -1688 0
-677 -1689 0
-678 -1691 0
-679 -1692 0
-680 -1694 0
-675 -1702 0
-677 -1703 0
-679 -1705 0
-680 -1707 0
-675 -1709 0
-677 -1710 0
-678 -1711 0
-679 -1712 0
-680 -1716 0
-677 -1724 0
-679 -1726 0
-680 -1729 0
-677 -1731 0
-678 -1733 0
-680 -1735 0
-679 -1744 0
-680 -1747 0
-675 -1761 0
-679 -1763 0
-680 -1767 0
-675 -1768 0
-678 -1770 0
-680 -1773 0
-678 -1783 0
-679 -1784 0
-680 -1787 0
-679 -1790 0
-680 -1793 0
-677 -1839 0
-679 -1840 0
-680 -1844 0
-675 -1858 0
-676 -1859 0
-678 -1861 0
-679 -1862 0
-680 -1864 0
-675 -1865 0
-676 -1866 0
-678 -1867 0
-680 -1871 0
-675 -1872 0
-677 -1873 0
-678 -1874 0
-680 -1877 0
-675 -1880 0
-679 -1881 0
-680 -1884 0
-675 -1886 0
-678 -1888 0
-680 -1891 0
-675 -1900 0
-680 -1904 0
-675 -1906 0
-678 -1907 0
-679 -1908 0
-680 -1911 0
-675 -1952 0
-679 -1954 0
-680 -1958 0
-683 -781 0
-685 -784 0
-686 -785 0
-687 -786 0
-685 -790 0
-686 -791 0
-687 -792 0
-681 -800 0
-684 -803 0
-686 -804 0
-687 -805 0
-682 -808 0
-683 -809 0
-684 -811 0
-685 -812 0
-686 -813 0
-687 -814 0
-682 -817 0
-685 -820 0
-687 -821 0
-681 -831 0
-682 -834 0
-684 -836 0
-687 -837 0
-682 -840 0
-685 -842 0
-686 -843 0
-687 -844 0
-681 -851 0
-682 -853 0
-684 -855 0
-685 -858 0
-686 -859 0
-687 -860 0
-682 -869 0
-684 -870 0
-686 -872 0
-687 -873 0
-682 -881 0
-684 -883 0
-687 -885 0
-682 -886 0
-684 -887 0
-685 -889 0
-686 -890 0
-687 -891 0
-683 -894 0
-685 -896 0
-687 -897 0
-681 -904 0
-683 -907 0
-684 -909 0
-687 -912 0
-681 -919 0
-686 -924 0
-687 -925 0
-681 -947 0
-685 -952 0
-687 -953 0
-687 -994 0
-681 -1001 0
-684 -1003 0
-685 -1005 0
-687 -1006 0
-682 -1008 0
-683 -1009 0
-684 -1010 0
-687 -1012 0
-682 -1014 0
-686 -1017 0
-687 -1018 0
-681 -1025 0
-682 -1027 0
-684 -1029 0
-685 -1031 0
-686 -1032 0
-687 -1033 0
-682 -1035 0
-685 -1038 0
-687 -1039 0
-681 -1046 0
-682 -1047 0
-684 -1048 0
-687 -1051 0
-681 -1059 0
-683 -1061 0
-684 -1062 0
-685 -1065 0
-686 -1066 0
-687 -1067 0
-681 -1075 0
-685 -1080 0
-687 -1081 0
-681 -1082 0
-684 -1085 0
-687 -1088 0
-681 -1089 0
-682 -1091 0
-683 -1092 0
-684 -1094 0
-685 -1097 0
-687 -1098 0
-681 -1099 0
-685 -1103 0
-686 -1104 0
-687 -1105 0
-681 -1106 0
-682 -1107 0
-683 -1108 0
-684 -1109 0
-685 -1110 0
-686 -1111 0
-687 -1112 0
-681 -1146 0
-682 -1147 0
-684 -1148 0
-687 -1151 0
-681 -1166 0
-683 -1168 0
-684 -1169 0
-685 -1170 0
-687 -1171 0
-681 -1172 0
-683 -1174 0
-685 -1176 0
-686 -1177 0
-687 -1178 0
-681 -1185 0
-683 -1187 0
-684 -1189 0
-686 -1190 0
-687 -1191 0
-681 -1192 0
-683 -1194 0
-685 -1197 0
-687 -1198 0
-681 -1205 0
-683 -1206 0
-684 -1207 0
-685 -1210 0
-687 -1211 0
-681 -1229 0
-683 -1230 0
-684 -1232 0
-687 -1234 0
-681 -1241 0
-686 -1245 0
-687 -1246 0
-681 -1254 0
-684 -1255 0
-685 -1257 0
-686 -1258 0
-687 -1259 0
-681 -1260 0
-685 -1264 0
-687 -1265 0
-683 -1280 0
-684 -1282 0
-686 -1284 0
-687 -1285 0
-682 -1334 0
-684 -1336 0
-685 -1339 0
-687 -1340 0
-683 -1410 0
-684 -1412 0
-685 -1414 0
-687 -1415 0
-685 -1426 0
-686 -1427 0
-687 -1428 0
-683 -1442 0
-684 -1444 0
-685 -1446 0
-686 -1447 0
-687 -1448 0
-684 -1458 0
-685 -1461 0
-686 -1462 0
-687 -1463 0
-682 -1473 0
-684 -1475 0
-685 -1478 0
-687 -1479 0
-682 -1488 0
-684 -1489 0
-686 -1491 0
-687 -1492 0
-683 -1510 0
-684 -1511 0
-685 -1513 0
-687 -1514 0
-685 -1525 0
-686 -1526 0
-687 -1527 0
-687 -1554 0
-684 -1593 0
-685 -1595 0
-687 -1596 0
-682 -1604 0
-684 -1605 0
-685 -1607 0
-686 -1608 0
-687 -1609 0
-682 -1616 0
-684 -1618 0
-685 -1621 0
-687 -1622 0
-683 -1624 0
-684 -1626 0
-686 -1628 0
-687 -1629 0
-687 -1641 0
-681 -1642 0
-684 -1644 0
-685 -1646 0
-687 -1647 0
-682 -1649 0
-683 -1650 0
-684 -1651 0
-687 -1653 0
-685 -1657 0
-686 -1658 0
-687 -1659 0
-682 -1660 0
-683 -1661 0
-684 -1663 0
-685 -1666 0
-686 -1667 0
-687 -1668 0
-682 -1675 0
-684 -1677 0
-685 -1680 0
-687 -1681 0
-683 -1689 0
-684 -1691 0
-687 -1694 0
-683 -1696 0
-686 -1699 0
-687 -1700 0
-681 -1708 0
-683 -1710 0
-684 -1711 0
-685 -1714 0
-686 -1715 0
-687 -1716 0
-683 -1718 0
-685 -1721 0
-687 -1722 0
-681 -1730 0
-683 -1731 0
-684 -1733 0
-687 -1735 0
-683 -1748 0
-684 -1750 0
-685 -1752 0
-687 -1753 0
-685 -1765 0
-686 -1766 0
-687 -1767 0
-681 -1774 0
-684 -1776 0
-685 -1778 0
-686 -1779 0
-687 -1780 0
-684 -1847 0
-686 -1849 0
-687 -1850 0
-682 -1859 0
-684 -1861 0
-686 -1863 0
-687 -1864 0
-682 -1866 0
-684 -1867 0
-685 -1869 0
-686 -1870 0
-687 -1871 0
-683 -1873 0
-684 -1874 0
-686 -1876 0
-687 -1877 0
-681 -1885 0
-684 -1888 0
-685 -1890 0
-687 -1891 0
-685 -1896 0
-686 -1897 0
-687 -1898 0
-681 -1905 0
-684 -1907 0
-686 -1910 0
-687 -1911 0
-684 -1914 0
-685 -1915 0
-686 -1916 0
-687 -1917 0
-681 -1931 0
-684 -1933 0
-686 -1936 0
-687 -1937 0
-681 -1938 0
-684 -1940 0
-685 -1942 0
-686 -1943 0
-687 -1944 0
-690 -731 0
-692 -732 0
-693 -733 0
-694 -734 0
-696 -735 0
-690 -774 0
-691 -775 0
-692 -776 0
-694 -777 0
-695 -778 0
-696 -780 0
-691 -795 0
-692 -796 0
-693 -797 0
-695 -798 0
-696 -799 0
-688 -800 0
-691 -802 0
-692 -803 0
-696 -805 0
-689 -808 0
-690 -809 0
-691 -810 0
-692 -811 0
-695 -812 0
-696 -814 0
-689 -817 0
-691 -818 0
-694 -819 0
-695 -820 0
-696 -821 0
-688 -822 0
-689 -825 0
-691 -826 0
-693 -827 0
-694 -828 0
-696 -830 0
-689 -840 0
-693 -841 0
-695 -842 0
-696 -844 0
-688 -845 0
-689 -847 0
-695 -848 0
-696 -850 0
-689 -875 0
-691 -876 0
-692 -877 0
-693 -878 0
-696 -879 0
-689 -881 0
-691 -882 0
-692 -883 0
-694 -884 0
-696 -885 0
-689 -886 0
-692 -887 0
-693 -888 0
-695 -889 0
-696 -891 0
-690 -894 0
-693 -895 0
-695 -896 0
-696 -897 0
-688 -898 0
-690 -901 0
-696 -903 0
-688 -913 0
-692 -916 0
-694 -917 0
-696 -918 0
-688 -938 0
-691 -941 0
-692 -942 0
-693 -943 0
-695 -944 0
-696 -946 0
-692 -997 0
-693 -998 0
-696 -1000 0
-688 -1001 0
-692 -1003 0
-693 -1004 0
-695 -1005 0
-696 -1006 0
-689 -1008 0
-690 -1009 0
-692 -1010 0
-693 -1011 0
-696 -1012 0
-689 -1014 0
-693 -1015 0
-694 -1016 0
-696 -1018 0
-688 -1019 0
-689 -1021 0
-694 -1022 0
-695 -1023 0
-696 -1024 0
-689 -1035 0
-691 -1036 0
-693 -1037 0
-695 -1038 0
-696 -1039 0
-688 -1040 0
-689 -1041 0
-691 -1042 0
-693 -1043 0
-696 -1045 0
-688 -1068 0
-690 -1070 0
-691 -1071 0
-692 -1072 0
-695 -1073 0
-696 -1074 0
-688 -1082 0
-691 -1084 0
-692 -1085 0
-693 -1086 0
-694 -1087 0
-696 -1088 0
-688 -1089 0
-689 -1091 0
-690 -1092 0
-691 -1093 0
-692 -1094 0
-693 -1095 0
-694 -1096 0
-695 -1097 0
-696 -1098 0
-688 -1106 0
-689 -1107 0
-690 -1108 0
-692 -1109 0
-695 -1110 0
-696 -1112 0
-688 -1113 0
-689 -1114 0
-693 -1115 0
-694 -1116 0
-695 -1117 0
-696 -1119 0
-688 -1152 0
-689 -1153 0
-691 -1154 0
-692 -1155 0
-694 -1156 0
-696 -1158 0
-688 -1166 0
-690 -1168 0
-692 -1169 0
-695 -1170 0
-696 -1171 0
-688 -1172 0
-690 -1174 0
-694 -1175 0
-695 -1176 0
-696 -1178 0
-688 -1179 0
-690 -1181 0
-693 -1182 0
-694 -1183 0
-696 -1184 0
-688 -1192 0
-690 -1194 0
-691 -1195 0
-693 -1196 0
-695 -1197 0
-696 -1198 0
-688 -1199 0
-690 -1200 0
-691 -1201 0
-695 -1202 0
-696 -1204 0
-688 -1212 0
-691 -1214 0
-692 -1215 0
-694 -1216 0
-695 -1217 0
-696 -1218 0
-688 -1235 0
-690 -1236 0
-692 -1237 0
-693 -1238 0
-696 -1240 0
-688 -1247 0
-692 -1249 0
-693 -1250 0
-694 -1251 0
-696 -1253 0
-688 -1254 0
-692 -1255 0
-694 -1256 0
-695 -1257 0
-696 -1259 0
-688 -1266 0
-691 -1267 0
-692 -1268 0
-693 -1269 0
-695 -1270 0
-696 -1272 0
-690 -1274 0
-691 -1275 0
-694 -1276 0
-696 -1278 0
-691 -1288 0
-692 -1289 0
-694 -1290 0
-696 -1292 0
-692 -1308 0
-693 -1309 0
-694 -1310 0
-695 -1311 0
-696 -1313 0
-689 -1328 0
-691 -1329 0
-694 -1330 0
-695 -1331 0
-696 -1333 0
-690 -1404 0
-693 -1405 0
-694 -1406 0
-695 -1407 0
-696 -1409 0
-692 -1417 0
-693 -1418 0
-694 -1419 0
-695 -1420 0
-696 -1421 0
-691 -1435 0
-692 -1436 0
-693 -1437 0
-694 -1438 0
-696 -1440 0
-690 -1442 0
-691 -1443 0
-692 -1444 0
-694 -1445 0
-695 -1446 0
-696 -1448 0
-688 -1449 0
-690 -1450 0
-691 -1451 0
-693 -1452 0
-694 -1453 0
-696 -1455 0
-692 -1458 0
-693 -1459 0
-694 -1460 0
-695 -1461 0
-696 -1463 0
-689 -1466 0
-693 -1467 0
-695 -1468 0
-696 -1470 0
-689 -1481 0
-691 -1482 0
-693 -1483 0
-694 -1484 0
-696 -1486 0
-690 -1501 0
-691 -1502 0
-693 -1503 0
-694 -1504 0
-695 -1505 0
-696 -1507 0
-691 -1517 0
-692 -1518 0
-693 -1519 0
-695 -1520 0
-696 -1521 0
-691 -1544 0
-692 -1545 0
-694 -1546 0
-696 -1548 0
-691 -1592 0
-692 -1593 0
-694 -1594 0
-695 -1595 0
-696 -1596 0
-689 -1598 0
-691 -1599 0
-693 -1600 0
-695 -1601 0
-696 -1602 0
-689 -1610 0
-691 -1611 0
-694 -1612 0
-695 -1613 0
-696 -1615 0
-690 -1631 0
-692 -1632 0
-693 -1633 0
-694 -1634 0
-696 -1635 0
-688 -1642 0
-692 -1644 0
-693 -1645 0
-695 -1646 0
-696 -1647 0
-689 -1649 0
-690 -1650 0
-692 -1651 0
-693 -1652 0
-696 -1653 0
-689 -1660 0
-690 -1661 0
-691 -1662 0
-692 -1663 0
-693 -1664 0
-694 -1665 0
-695 -1666 0
-696 -1668 0
-688 -1669 0
-689 -1670 0
-691 -1671 0
-693 -1672 0
-696 -1674 0
-689 -1682 0
-692 -1683 0
-693 -1684 0
-695 -1685 0
-696 -1687 0
-690 -1689 0
-691 -1690 0
-692 -1691 0
-693 -1692 0
-694 -1693 0
-696 -1694 0
-690 -1696 0
-691 -1697 0
-693 -1698 0
-696 -1700 0
-688 -1701 0
-690 -1703 0
-691 -1704 0
-693 -1705 0
-695 -1706 0
-696 -1707 0
-690 -1718 0
-691 -1719 0
-694 -1720 0
-695 -1721 0
-696 -1722 0
-688 -1723 0
-690 -1724 0
-691 -1725 0
-693 -1726 0
-694 -1727 0
-696 -1729 0
-688 -1736 0
-691 -1738 0
-692 -1739 0
-693 -1740 0
-696 -1741 0
-690 -1754 0
-691 -1755 0
-692 -1756 0
-694 -1757 0
-695 -1758 0
-696 -1760 0
-691 -1769 0
-692 -1770 0
-695 -1771 0
-696 -1773 0
-688 -1774 0
-691 -1775 0
-692 -1776 0
-693 -1777 0
-695 -1778 0
-696 -1780 0
-691 -1782 0
-692 -1783 0
-693 -1784 0
-694 -1785 0
-696 -1787 0
-690 -1839 0
-693 -1840 0
-694 -1841 0
-695 -1842 0
-696 -1844 0
-691 -1853 0
-692 -1854 0
-694 -1855 0
-696 -1857 0
-689 -1859 0
-691 -1860 0
-692 -1861 0
-693 -1862 0
-696 -1864 0
-689 -1866 0
-692 -1867 0
-694 -1868 0
-695 -1869 0
-696 -1871 0
-690 -1873 0
-692 -1874 0
-694 -1875 0
-696 -1877 0
-688 -1879 0
-693 -1881 0
-695 -1882 0
-696 -1884 0
-691 -1893 0
-693 -1894 0
-694 -1895 0
-695 -1896 0
-696 -1898 0
-688 -1899 0
-691 -1901 0
-694 -1902 0
-696 -1904 0
-692 -1919 0
-693 -1920 0
-694 -1921 0
-695 -1922 0
-696 -1923 0
-691 -1953 0
-693 -1954 0
-694 -1955 0
-695 -1956 0
-696 -1958 0
-699 -739 0
-700 -740 0
-703 -741 0
-698 -764 0
-699 -765 0
-701 -766 0
-703 -767 0
-697 -788 0
-700 -789 0
-701 -790 0
-702 -791 0
-703 -792 0
-697 -794 0
-698 -796 0
-699 -797 0
-701 -798 0
-703 -799 0
-697 -801 0
-698 -803 0
-702 -804 0
-703 -805 0
-697 -816 0
-700 -819 0
-701 -820 0
-703 -821 0
-697 -824 0
-699 -827 0
-700 -828 0
-702 -829 0
-703 -830 0
-697 -833 0
-698 -836 0
-703 -837 0
-697 -868 0
-698 -870 0
-700 -871 0
-702 -872 0
-703 -873 0
-697 -874 0
-698 -877 0
-699 -878 0
-703 -879 0
-698 -883 0
-700 -884 0
-703 -885 0
-697 -893 0
-699 -895 0
-701 -896 0
-703 -897 0
-697 -900 0
-702 -902 0
-703 -903 0
-697 -906 0
-698 -909 0
-699 -910 0
-700 -911 0
-703 -912 0
-703 -937 0
-697 -940 0
-698 -942 0
-699 -943 0
-701 -944 0
-702 -945 0
-703 -946 0
-697 -949 0
-699 -950 0
-700 -951 0
-701 -952 0
-703 -953 0
-697 -955 0
-699 -956 0
-700 -957 0
-702 -958 0
-703 -959 0
-698 -972 0
-699 -973 0
-701 -974 0
-703 -975 0
-698 -979 0
-702 -980 0
-703 -981 0
-699 -986 0
-700 -987 0
-703 -988 0
-698 -1010 0
-699 -1011 0
-703 -1012 0
-699 -1037 0
-701 -1038 0
-703 -1039 0
-699 -1043 0
-702 -1044 0
-703 -1045 0
-698 -1048 0
-699 -1049 0
-700 -1050 0
-703 -1051 0
-697 -1077 0
-699 -1078 0
-700 -1079 0
-701 -1080 0
-703 -1081 0
-697 -1083 0
-698 -1085 0
-699 -1086 0
-700 -1087 0
-703 -1088 0
-697 -1120 0
-698 -1122 0
-700 -1123 0
-701 -1124 0
-703 -1125 0
-697 -1126 0
-698 -1127 0
-699 -1128 0
-700 -1129 0
-701 -1130 0
-702 -1131 0
-703 -1132 0
-698 -1141 0
-700 -1142 0
-701 -1143 0
-702 -1144 0
-703 -1145 0
-698 -1148 0
-699 -1149 0
-700 -1150 0
-703 -1151 0
-698 -1155 0
-700 -1156 0
-702 -1157 0
-703 -1158 0
-700 -1175 0
-701 -1176 0
-702 -1177 0
-703 -1178 0
-699 -1182 0
-700 -1183 0
-703 -1184 0
-698 -1189 0
-702 -1190 0
-703 -1191 0
-698 -1215 0
-700 -1216 0
-701 -1217 0
-703 -1218 0
-698 -1223 0
-699 -1224 0
-700 -1225 0
-701 -1226 0
-702 -1227 0
-703 -1228 0
-698 -1232 0
-700 -1233 0
-703 -1234 0
-698 -1237 0
-699 -1238 0
-702 -1239 0
-703 -1240 0
-699 -1262 0
-700 -1263 0
-701 -1264 0
-703 -1265 0
-698 -1268 0
-699 -1269 0
-701 -1270 0
-702 -1271 0
-703 -1272 0
-697 -1273 0
-700 -1276 0
-702 -1277 0
-703 -1278 0
-697 -1279 0
-698 -1282 0
-699 -1283 0
-702 -1284 0
-703 -1285 0
-700 -1304 0
-702 -1305 0
-703 -1306 0
-697 -1307 0
-698 -1308 0
-699 -1309 0
-700 -1310 0
-701 -1311 0
-702 -1312 0
-703 -1313 0
-698 -1324 0
-700 -1325 0
-702 -1326 0
-703 -1327 0
-699 -1344 0
-702 -1345 0
-703 -1346 0
-698 -1372 0
-699 -1373 0
-701 -1374 0
-702 -1375 0
-703 -1376 0
-698 -1379 0
-699 -1380 0
-702 -1381 0
-703 -1382 0
-699 -1386 0
-700 -1387 0
-702 -1388 0
-703 -1389 0
-699 -1452 0
-700 -1453 0
-702 -1454 0
-703 -1455 0
-697 -1457 0
-698 -1458 0
-699 -1459 0
-700 -1460 0
-701 -1461 0
-702 -1462 0
-703 -1463 0
-697 -1465 0
-699 -1467 0
-701 -1468 0
-702 -1469 0
-703 -1470 0
-697 -1472 0
-698 -1475 0
-699 -1476 0
-700 -1477 0
-701 -1478 0
-703 -1479 0
-697 -1500 0
-699 -1503 0
-700 -1504 0
-701 -1505 0
-702 -1506 0
-703 -1507 0
-697 -1509 0
-698 -1511 0
-700 -1512 0
-701 -1513 0
-703 -1514 0
-699 -1538 0
-700 -1539 0
-701 -1540 0
-703 -1541 0
-697 -1543 0
-698 -1545 0
-700 -1546 0
-702 -1547 0
-703 -1548 0
-697 -1550 0
-699 -1552 0
-700 -1553 0
-703 -1554 0
-697 -1556 0
-700 -1558 0
-701 -1559 0
-702 -1560 0
-703 -1561 0
-698 -1572 0
-700 -1573 0
-703 -1574 0
-698 -1579 0
-699 -1580 0
-700 -1581 0
-701 -1582 0
-702 -1583 0
-703 -1584 0
-700 -1588 0
-701 -1589 0
-703 -1590 0
-700 -1612 0
-701 -1613 0
-702 -1614 0
-703 -1615 0
-698 -1618 0
-699 -1619 0
-700 -1620 0
-701 -1621 0
-703 -1622 0
-697 -1637 0
-699 -1639 0
-700 -1640 0
-703 -1641 0
-697 -1643 0
-698 -1644 0
-699 -1645 0
-701 -1646 0
-703 -1647 0
-698 -1677 0
-699 -1678 0
-700 -1679 0
-701 -1680 0
-703 -1681 0
-698 -1683 0
-699 -1684 0
-701 -1685 0
-702 -1686 0
-703 -1687 0
-699 -1698 0
-702 -1699 0
-703 -1700 0
-699 -1705 0
-701 -1706 0
-703 -1707 0
-698 -1711 0
-699 -1712 0
-700 -1713 0
-701 -1714 0
-702 -1715 0
-703 -1716 0
-698 -1739 0
-699 -1740 0
-703 -1741 0
-699 -1744 0
-700 -1745 0
-701 -1746 0
-703 -1747 0
-698 -1750 0
-699 -1751 0
-701 -1752 0
-703 -1753 0
-698 -1756 0
-700 -1757 0
-701 -1758 0
-702 -1759 0
-703 -1760 0
-698 -1783 0
-699 -1784 0
-700 -1785 0
-702 -1786 0
-703 -1787 0
-698 -1795 0
-699 -1796 0
-701 -1797 0
-702 -1798 0
-703 -1799 0
-698 -1815 0
-700 -1816 0
-701 -1817 0
-702 -1818 0
-703 -1819 0
-699 -1821 0
-700 -1822 0
-701 -1823 0
-702 -1824 0
-703 -1825 0
-699 -1840 0
-700 -1841 0
-701 -1842 0
-702 -1843 0
-703 -1844 0
-699 -1881 0
-701 -1882 0
-702 -1883 0
-703 -1884 0
-698 -1888 0
-700 -1889 0
-701 -1890 0
-703 -1891 0
-698 -1914 0
-701 -1915 0
-702 -1916 0
-703 -1917 0
-698 -1919 0
-699 -1920 0
-700 -1921 0
-701 -1922 0
-703 -1923 0
-699 -1954 0
-700 -1955 0
-701 -1956 0
-702 -1957 0
-703 -1958 0
-705 -762 0
-706 -764 0
-708 -766 0
-709 -767 0
-707 -789 0
-708 -790 0
-709 -792 0
-706 -803 0
-709 -805 0
-704 -808 0
-705 -809 0
-706 -811 0
-708 -812 0
-709 -814 0
-704 -817 0
-707 -819 0
-708 -820 0
-709 -821 0
-704 -834 0
-706 -836 0
-709 -837 0
-704 -847 0
-708 -848 0
-709 -850 0
-704 -863 0
-708 -865 0
-709 -867 0
-704 -875 0
-706 -877 0
-709 -879 0
-704 -886 0
-706 -887 0
-708 -889 0
-709 -891 0
-705 -894 0
-708 -896 0
-709 -897 0
-705 -907 0
-706 -909 0
-707 -911 0
-709 -912 0
-709 -925 0
-706 -942 0
-708 -944 0
-709 -946 0
-707 -957 0
-709 -959 0
-704 -962 0
-705 -963 0
-707 -965 0
-708 -966 0
-709 -968 0
-704 -971 0
-706 -972 0
-708 -974 0
-709 -975 0
-704 -984 0
-707 -987 0
-709 -988 0
-706 -997 0
-709 -1000 0
-704 -1035 0
-708 -1038 0
-709 -1039 0
-704 -1047 0
-706 -1048 0
-707 -1050 0
-709 -1051 0
-705 -1061 0
-706 -1062 0
-707 -1064 0
-708 -1065 0
-709 -1067 0
-707 -1079 0
-708 -1080 0
-709 -1081 0
-706 -1085 0
-707 -1087 0
-709 -1088 0
-704 -1091 0
-705 -1092 0
-706 -1094 0
-707 -1096 0
-708 -1097 0
-709 -1098 0
-704 -1114 0
-707 -1116 0
-708 -1117 0
-709 -1119 0
-706 -1122 0
-707 -1123 0
-708 -1124 0
-709 -1125 0
-704 -1133 0
-705 -1134 0
-706 -1135 0
-707 -1136 0
-708 -1137 0
-709 -1138 0
-704 -1140 0
-706 -1141 0
-707 -1142 0
-708 -1143 0
-709 -1145 0
-704 -1153 0
-706 -1155 0
-707 -1156 0
-709 -1158 0
-705 -1168 0
-706 -1169 0
-708 -1170 0
-709 -1171 0
-705 -1174 0
-707 -1175 0
-708 -1176 0
-709 -1178 0
-705 -1187 0
-706 -1189 0
-709 -1191 0
-705 -1200 0
-708 -1202 0
-709 -1204 0
-706 -1215 0
-707 -1216 0
-708 -1217 0
-709 -1218 0
-705 -1221 0
-706 -1223 0
-707 -1225 0
-708 -1226 0
-709 -1228 0
-705 -1236 0
-706 -1237 0
-709 -1240 0
-706 -1249 0
-707 -1251 0
-709 -1253 0
-707 -1263 0
-708 -1264 0
-709 -1265 0
-705 -1280 0
-706 -1282 0
-709 -1285 0
-706 -1308 0
-707 -1310 0
-708 -1311 0
-709 -1313 0
-704 -1314 0
-705 -1315 0
-708 -1318 0
-709 -1320 0
-705 -1371 0
-706 -1372 0
-708 -1374 0
-709 -1376 0
-705 -1384 0
-707 -1387 0
-709 -1389 0
-705 -1442 0
-706 -1444 0
-707 -1445 0
-708 -1446 0
-709 -1448 0
-706 -1458 0
-707 -1460 0
-708 -1461 0
-709 -1463 0
-704 -1473 0
-706 -1475 0
-707 -1477 0
-708 -1478 0
-709 -1479 0
-704 -1481 0
-707 -1484 0
-709 -1486 0
-704 -1494 0
-707 -1496 0
-709 -1498 0
-705 -1510 0
-706 -1511 0
-707 -1512 0
-708 -1513 0
-709 -1514 0
-707 -1524 0
-708 -1525 0
-709 -1527 0
-706 -1545 0
-707 -1546 0
-709 -1548 0
-707 -1558 0
-708 -1559 0
-709 -1561 0
-704 -1563 0
-705 -1564 0
-707 -1566 0
-709 -1568 0
-704 -1570 0
-706 -1572 0
-707 -1573 0
-709 -1574 0
-704 -1587 0
-707 -1588 0
-708 -1589 0
-709 -1590 0
-704 -1616 0
-706 -1618 0
-707 -1620 0
-708 -1621 0
-709 -1622 0
-705 -1624 0
-706 -1626 0
-709 -1629 0
-707 -1640 0
-709 -1641 0
-706 -1644 0
-708 -1646 0
-709 -1647 0
-704 -1649 0
-705 -1650 0
-706 -1651 0
-709 -1653 0
-704 -1670 0
-709 -1674 0
-704 -1682 0
-706 -1683 0
-708 -1685 0
-709 -1687 0
-705 -1689 0
-706 -1691 0
-707 -1693 0
-709 -1694 0
-705 -1696 0
-709 -1700 0
-705 -1710 0
-706 -1711 0
-707 -1713 0
-708 -1714 0
-709 -1716 0
-705 -1724 0
-707 -1727 0
-709 -1729 0
-706 -1739 0
-709 -1741 0
-707 -1745 0
-708 -1746 0
-709 -1747 0
-705 -1754 0
-706 -1756 0
-707 -1757 0
-708 -1758 0
-709 -1760 0
-706 -1770 0
-708 -1771 0
-709 -1773 0
-705 -1820 0
-707 -1822 0
-708 -1823 0
-709 -1825 0
-706 -1847 0
-709 -1850 0
-704 -1859 0
-706 -1861 0
-709 -1864 0
-705 -1873 0
-706 -1874 0
-707 -1875 0
-709 -1877 0
-706 -1888 0
-707 -1889 0
-708 -1890 0
-709 -1891 0
-707 -1902 0
-709 -1904 0
-706 -1919 0
-707 -1921 0
-708 -1922 0
-709 -1923 0
-706 -1933 0
-707 -1935 0
-709 -1937 0
-706 -1946 0
-707 -1948 0
-709 -1950 0
-711 -731 0
-713 -733 0
-716 -735 0
-711 -762 0
-712 -763 0
-713 -765 0
-714 -766 0
-716 -767 0
-711 -769 0
-712 -770 0
-716 -773 0
-712 -795 0
-713 -797 0
-714 -798 0
-716 -799 0
-712 -802 0
-715 -804 0
-716 -805 0
-710 -808 0
-711 -809 0
-712 -810 0
-714 -812 0
-715 -813 0
-716 -814 0
-710 -817 0
-712 -818 0
-714 -820 0
-716 -821 0
-710 -825 0
-712 -826 0
-713 -827 0
-715 -829 0
-716 -830 0
-710 -853 0
-712 -854 0
-713 -856 0
-714 -858 0
-715 -859 0
-716 -860 0
-710 -863 0
-712 -864 0
-714 -865 0
-715 -866 0
-716 -867 0
-710 -869 0
-715 -872 0
-716 -873 0
-710 -886 0
-713 -888 0
-714 -889 0
-715 -890 0
-716 -891 0
-711 -894 0
-713 -895 0
-714 -896 0
-716 -897 0
-711 -901 0
-715 -902 0
-716 -903 0
-716 -918 0
-713 -950 0
-714 -952 0
-716 -953 0
-713 -956 0
-715 -958 0
-716 -959 0
-710 -962 0
-711 -963 0
-713 -964 0
-714 -966 0
-715 -967 0
-716 -968 0
-710 -971 0
-713 -973 0
-714 -974 0
-716 -975 0
-710 -978 0
-715 -980 0
-716 -981 0
-712 -991 0
-713 -992 0
-716 -994 0
-710 -1035 0
-712 -1036 0
-713 -1037 0
-714 -1038 0
-716 -1039 0
-710 -1041 0
-712 -1042 0
-713 -1043 0
-715 -1044 0
-716 -1045 0
-711 -1070 0
-712 -1071 0
-714 -1073 0
-716 -1074 0
-712 -1084 0
-713 -1086 0
-716 -1088 0
-710 -1091 0
-711 -1092 0
-712 -1093 0
-713 -1095 0
-714 -1097 0
-716 -1098 0
-713 -1128 0
-714 -1130 0
-715 -1131 0
-716 -1132 0
-710 -1133 0
-711 -1134 0
-714 -1137 0
-716 -1138 0
-710 -1140 0
-714 -1143 0
-715 -1144 0
-716 -1145 0
-710 -1147 0
-713 -1149 0
-716 -1151 0
-711 -1168 0
-714 -1170 0
-716 -1171 0
-711 -1174 0
-714 -1176 0
-715 -1177 0
-716 -1178 0
-711 -1181 0
-713 -1182 0
-716 -1184 0
-711 -1206 0
-713 -1208 0
-714 -1210 0
-716 -1211 0
-711 -1221 0
-712 -1222 0
-713 -1224 0
-714 -1226 0
-715 -1227 0
-716 -1228 0
-711 -1230 0
-712 -1231 0
-716 -1234 0
-712 -1243 0
-715 -1245 0
-716 -1246 0
-712 -1267 0
-713 -1269 0
-714 -1270 0
-715 -1271 0
-716 -1272 0
-711 -1274 0
-712 -1275 0
-715 -1277 0
-716 -1278 0
-712 -1288 0
-715 -1291 0
-716 -1292 0
-710 -1314 0
-711 -1315 0
-712 -1316 0
-713 -1317 0
-714 -1318 0
-715 -1319 0
-716 -1320 0
-710 -1322 0
-712 -1323 0
-715 -1326 0
-716 -1327 0
-711 -1371 0
-713 -1373 0
-714 -1374 0
-715 -1375 0
-716 -1376 0
-711 -1378 0
-713 -1380 0
-715 -1381 0
-716 -1382 0
-713 -1393 0
-715 -1395 0
-716 -1396 0
-712 -1435 0
-713 -1437 0
-715 -1439 0
-716 -1440 0
-711 -1442 0
-712 -1443 0
-714 -1446 0
-715 -1447 0
-716 -1448 0
-711 -1450 0
-712 -1451 0
-713 -1452 0
-715 -1454 0
-716 -1455 0
-713 -1459 0
-714 -1461 0
-715 -1462 0
-716 -1463 0
-710 -1466 0
-713 -1467 0
-714 -1468 0
-715 -1469 0
-716 -1470 0
-710 -1488 0
-715 -1491 0
-716 -1492 0
-710 -1494 0
-713 -1495 0
-715 -1497 0
-716 -1498 0
-711 -1501 0
-712 -1502 0
-713 -1503 0
-714 -1505 0
-715 -1506 0
-716 -1507 0
-712 -1517 0
-713 -1519 0
-714 -1520 0
-716 -1521 0
-712 -1551 0
-713 -1552 0
-716 -1554 0
-712 -1557 0
-714 -1559 0
-715 -1560 0
-716 -1561 0
-710 -1563 0
-711 -1564 0
-712 -1565 0
-715 -1567 0
-716 -1568 0
-710 -1570 0
-712 -1571 0
-716 -1574 0
-710 -1577 0
-712 -1578 0
-713 -1580 0
-714 -1582 0
-715 -1583 0
-716 -1584 0
-710 -1610 0
-712 -1611 0
-714 -1613 0
-715 -1614 0
-716 -1615 0
-711 -1631 0
-713 -1633 0
-716 -1635 0
-713 -1645 0
-714 -1646 0
-716 -1647 0
-710 -1649 0
-711 -1650 0
-713 -1652 0
-716 -1653 0
-710 -1675 0
-712 -1676 0
-713 -1678 0
-714 -1680 0
-716 -1681 0
-711 -1689 0
-712 -1690 0
-713 -1692 0
-716 -1694 0
-711 -1696 0
-712 -1697 0
-713 -1698 0
-715 -1699 0
-716 -1700 0
-711 -1703 0
-712 -1704 0
-713 -1705 0
-714 -1706 0
-716 -1707 0
-711 -1731 0
-712 -1732 0
-716 -1735 0
-712 -1743 0
-713 -1744 0
-714 -1746 0
-716 -1747 0
-711 -1748 0
-712 -1749 0
-713 -1751 0
-714 -1752 0
-716 -1753 0
-712 -1762 0
-713 -1763 0
-714 -1765 0
-715 -1766 0
-716 -1767 0
-712 -1782 0
-713 -1784 0
-715 -1786 0
-716 -1787 0
-710 -1794 0
-713 -1796 0
-714 -1797 0
-715 -1798 0
-716 -1799 0
-711 -1813 0
-712 -1814 0
-714 -1817 0
-715 -1818 0
-716 -1819 0
-712 -1827 0
-714 -1829 0
-715 -1830 0
-716 -1831 0
-711 -1839 0
-713 -1840 0
-714 -1842 0
-715 -1843 0
-716 -1844 0
-712 -1853 0
-715 -1856 0
-716 -1857 0
-710 -1859 0
-712 -1860 0
-713 -1862 0
-715 -1863 0
-716 -1864 0
-711 -1873 0
-715 -1876 0
-716 -1877 0
-713 -1881 0
-714 -1882 0
-715 -1883 0
-716 -1884 0
-713 -1908 0
-715 -1910 0
-716 -1911 0
-712 -1913 0
-714 -1915 0
-715 -1916 0
-716 -1917 0
-712 -1953 0
-713 -1954 0
-714 -1956 0
-715 -1957 0
-716 -1958 0
-717 -736 0
-718 -738 0
-720 -739 0
-721 -740 0
-723 -741 0
-718 -758 0
-722 -759 0
-723 -761 0
-721 -789 0
-722 -790 0
-723 -792 0
-717 -817 0
-718 -818 0
-721 -819 0
-722 -820 0
-723 -821 0
-717 -825 0
-718 -826 0
-720 -827 0
-721 -828 0
-723 -830 0
-717 -840 0
-720 -841 0
-722 -842 0
-723 -844 0
-717 -847 0
-722 -848 0
-723 -850 0
-717 -863 0
-718 -864 0
-722 -865 0
-723 -867 0
-717 -869 0
-719 -870 0
-721 -871 0
-723 -873 0
-717 -881 0
-718 -882 0
-719 -883 0
-721 -884 0
-723 -885 0
-717 -886 0
-719 -887 0
-720 -888 0
-722 -889 0
-723 -891 0
-720 -895 0
-722 -896 0
-723 -897 0
-723 -903 0
-718 -922 0
-720 -923 0
-723 -925 0
-718 -929 0
-722 -930 0
-723 -931 0
-717 -934 0
-718 -936 0
-723 -937 0
-720 -950 0
-721 -951 0
-722 -952 0
-723 -953 0
-720 -956 0
-721 -957 0
-723 -959 0
-717 -962 0
-720 -964 0
-721 -965 0
-722 -966 0
-723 -968 0
-717 -984 0
-718 -985 0
-720 -986 0
-721 -987 0
-723 -988 0
-719 -997 0
-720 -998 0
-723 -1000 0
-719 -1003 0
-720 -1004 0
-722 -1005 0
-723 -1006 0
-717 -1008 0
-719 -1010 0
-720 -1011 0
-723 -1012 0
-717 -1027 0
-718 -1028 0
-719 -1029 0
-720 -1030 0
-722 -1031 0
-723 -1033 0
-717 -1047 0
-719 -1048 0
-720 -1049 0
-721 -1050 0
-723 -1051 0
-720 -1078 0
-721 -1079 0
-722 -1080 0
-723 -1081 0
-718 -1101 0
-721 -1102 0
-722 -1103 0
-723 -1105 0
-717 -1114 0
-720 -1115 0
-721 -1116 0
-722 -1117 0
-723 -1119 0
-718 -1121 0
-719 -1122 0
-721 -1123 0
-722 -1124 0
-723 -1125 0
-717 -1140 0
-719 -1141 0
-721 -1142 0
-722 -1143 0
-723 -1145 0
-717 -1147 0
-719 -1148 0
-720 -1149 0
-721 -1150 0
-723 -1151 0
-717 -1159 0
-718 -1160 0
-719 -1161 0
-720 -1162 0
-721 -1163 0
-722 -1164 0
-723 -1165 0
-721 -1175 0
-722 -1176 0
-723 -1178 0
-720 -1182 0
-721 -1183 0
-723 -1184 0
-718 -1195 0
-720 -1196 0
-722 -1197 0
-723 -1198 0
-718 -1201 0
-722 -1202 0
-723 -1204 0
-718 -1222 0
-719 -1223 0
-720 -1224 0
-721 -1225 0
-722 -1226 0
-723 -1228 0
-718 -1231 0
-719 -1232 0
-721 -1233 0
-723 -1234 0
-719 -1249 0
-720 -1250 0
-721 -1251 0
-723 -1253 0
-719 -1255 0
-721 -1256 0
-722 -1257 0
-723 -1259 0
-718 -1267 0
-719 -1268 0
-720 -1269 0
-722 -1270 0
-723 -1272 0
-718 -1275 0
-721 -1276 0
-723 -1278 0
-718 -1295 0
-721 -1296 0
-722 -1297 0
-723 -1299 0
-717 -1301 0
-718 -1303 0
-721 -1304 0
-723 -1306 0
-717 -1314 0
-718 -1316 0
-720 -1317 0
-722 -1318 0
-723 -1320 0
-717 -1334 0
-718 -1335 0
-719 -1336 0
-720 -1337 0
-721 -1338 0
-722 -1339 0
-723 -1340 0
-718 -1343 0
-720 -1344 0
-723 -1346 0
-718 -1366 0
-720 -1367 0
-722 -1368 0
-723 -1369 0
-718 -1385 0
-720 -1386 0
-721 -1387 0
-723 -1389 0
-718 -1411 0
-719 -1412 0
-720 -1413 0
-722 -1414 0
-723 -1415 0
-718 -1451 0
-720 -1452 0
-721 -1453 0
-723 -1455 0
-717 -1466 0
-720 -1467 0
-722 -1468 0
-723 -1470 0
-717 -1481 0
-718 -1482 0
-720 -1483 0
-721 -1484 0
-723 -1486 0
-717 -1494 0
-720 -1495 0
-721 -1496 0
-723 -1498 0
-718 -1502 0
-720 -1503 0
-721 -1504 0
-722 -1505 0
-723 -1507 0
-721 -1524 0
-722 -1525 0
-723 -1527 0
-720 -1531 0
-721 -1532 0
-722 -1533 0
-723 -1534 0
-717 -1536 0
-720 -1538 0
-721 -1539 0
-722 -1540 0
-723 -1541 0
-718 -1551 0
-720 -1552 0
-721 -1553 0
-723 -1554 0
-718 -1557 0
-721 -1558 0
-722 -1559 0
-723 -1561 0
-717 -1563 0
-718 -1565 0
-721 -1566 0
-723 -1568 0
-717 -1587 0
-721 -1588 0
-722 -1589 0
-723 -1590 0
-718 -1592 0
-719 -1593 0
-721 -1594 0
-722 -1595 0
-723 -1596 0
-717 -1604 0
-719 -1605 0
-721 -1606 0
-722 -1607 0
-723 -1609 0
-717 -1616 0
-718 -1617 0
-719 -1618 0
-720 -1619 0
-721 -1620 0
-722 -1621 0
-723 -1622 0
-718 -1638 0
-720 -1639 0
-721 -1640 0
-723 -1641 0
-718 -1655 0
-720 -1656 0
-722 -1657 0
-723 -1659 0
-717 -1670 0
-718 -1671 0
-720 -1672 0
-723 -1674 0
-717 -1675 0
-718 -1676 0
-719 -1677 0
-720 -1678 0
-721 -1679 0
-722 -1680 0
-723 -1681 0
-718 -1697 0
-720 -1698 0
-723 -1700 0
-718 -1704 0
-720 -1705 0
-722 -1706 0
-723 -1707 0
-718 -1719 0
-721 -1720 0
-722 -1721 0
-723 -1722 0
-718 -1725 0
-720 -1726 0
-721 -1727 0
-723 -1729 0
-718 -1743 0
-720 -1744 0
-721 -1745 0
-722 -1746 0
-723 -1747 0
-718 -1749 0
-719 -1750 0
-720 -1751 0
-722 -1752 0
-723 -1753 0
-718 -1769 0
-719 -1770 0
-722 -1771 0
-723 -1773 0
-718 -1775 0
-719 -1776 0
-720 -1777 0
-722 -1778 0
-723 -1780 0
-718 -1782 0
-719 -1783 0
-720 -1784 0
-721 -1785 0
-723 -1787 0
-718 -1789 0
-720 -1790 0
-722 -1791 0
-723 -1793 0
-718 -1809 0
-721 -1810 0
-722 -1811 0
-723 -1812 0
-720 -1821 0
-721 -1822 0
-722 -1823 0
-723 -1825 0
-720 -1840 0
-721 -1841 0
-722 -1842 0
-723 -1844 0
-720 -1881 0
-722 -1882 0
-723 -1884 0
-718 -1893 0
-720 -1894 0
-721 -1895 0
-722 -1896 0
-723 -1898 0
-718 -1901 0
-721 -1902 0
-723 -1904 0
-718 -1913 0
-719 -1914 0
-722 -1915 0
-723 -1917 0
-718 -1953 0
-720 -1954 0
-721 -1955 0
-722 -1956 0
-723 -1958 0
-725 -732 0
-726 -733 0
-729 -735 0
-724 -736 0
-726 -739 0
-729 -741 0
-725 -751 0
-726 -752 0
-727 -754 0
-729 -755 0
-725 -796 0
-726 -797 0
-727 -798 0
-729 -799 0
-724 -817 0
-727 -820 0
-729 -821 0
-724 -834 0
-725 -836 0
-729 -837 0
-724 -840 0
-726 -841 0
-727 -842 0
-728 -843 0
-729 -844 0
-724 -853 0
-725 -855 0
-726 -856 0
-727 -858 0
-728 -859 0
-729 -860 0
-724 -863 0
-727 -865 0
-728 -866 0
-729 -867 0
-724 -875 0
-725 -877 0
-726 -878 0
-729 -879 0
-724 -881 0
-725 -883 0
-729 -885 0
-724 -886 0
-725 -887 0
-726 -888 0
-727 -889 0
-728 -890 0
-729 -891 0
-726 -895 0
-727 -896 0
-729 -897 0
-725 -909 0
-726 -910 0
-729 -912 0
-725 -916 0
-729 -918 0
-727 -930 0
-729 -931 0
-724 -934 0
-729 -937 0
-725 -942 0
-726 -943 0
-727 -944 0
-728 -945 0
-729 -946 0
-726 -956 0
-728 -958 0
-729 -959 0
-724 -962 0
-726 -964 0
-727 -966 0
-728 -967 0
-729 -968 0
-724 -978 0
-725 -979 0
-728 -980 0
-729 -981 0
-726 -992 0
-729 -994 0
-725 -1003 0
-726 -1004 0
-727 -1005 0
-729 -1006 0
-724 -1008 0
-725 -1010 0
-726 -1011 0
-729 -1012 0
-724 -1021 0
-727 -1023 0
-729 -1024 0
-724 -1041 0
-726 -1043 0
-728 -1044 0
-729 -1045 0
-725 -1127 0
-726 -1128 0
-727 -1130 0
-728 -1131 0
-729 -1132 0
-724 -1140 0
-725 -1141 0
-727 -1143 0
-728 -1144 0
-729 -1145 0
-724 -1153 0
-725 -1155 0
-728 -1157 0
-729 -1158 0
-724 -1159 0
-725 -1161 0
-726 -1162 0
-727 -1164 0
-729 -1165 0
-727 -1176 0
-728 -1177 0
-729 -1178 0
-725 -1189 0
-728 -1190 0
-729 -1191 0
-726 -1196 0
-727 -1197 0
-729 -1198 0
-725 -1207 0
-726 -1208 0
-727 -1210 0
-729 -1211 0
-725 -1215 0
-727 -1217 0
-729 -1218 0
-725 -1223 0
-726 -1224 0
-727 -1226 0
-728 -1227 0
-729 -1228 0
-725 -1237 0
-726 -1238 0
-728 -1239 0
-729 -1240 0
-728 -1245 0
-729 -1246 0
-725 -1255 0
-727 -1257 0
-728 -1258 0
-729 -1259 0
-726 -1262 0
-727 -1264 0
-729 -1265 0
-725 -1282 0
-726 -1283 0
-728 -1284 0
-729 -1285 0
-725 -1289 0
-728 -1291 0
-729 -1292 0
-727 -1297 0
-728 -1298 0
-729 -1299 0
-724 -1301 0
-728 -1305 0
-729 -1306 0
-725 -1308 0
-726 -1309 0
-727 -1311 0
-728 -1312 0
-729 -1313 0
-724 -1314 0
-726 -1317 0
-727 -1318 0
-728 -1319 0
-729 -1320 0
-724 -1322 0
-725 -1324 0
-728 -1326 0
-729 -1327 0
-724 -1328 0
-727 -1331 0
-728 -1332 0
-729 -1333 0
-726 -1344 0
-728 -1345 0
-729 -1346 0
-725 -1358 0
-727 -1360 0
-728 -1361 0
-729 -1362 0
-725 -1379 0
-726 -1380 0
-728 -1381 0
-729 -1382 0
-726 -1405 0
-727 -1407 0
-728 -1408 0
-729 -1409 0
-724 -1473 0
-725 -1475 0
-726 -1476 0
-727 -1478 0
-729 -1479 0
-724 -1488 0
-725 -1489 0
-728 -1491 0
-729 -1492 0
-724 -1494 0
-726 -1495 0
-728 -1497 0
-729 -1498 0
-725 -1511 0
-727 -1513 0
-729 -1514 0
-725 -1518 0
-726 -1519 0
-727 -1520 0
-729 -1521 0
-726 -1531 0
-727 -1533 0
-729 -1534 0
-724 -1536 0
-726 -1538 0
-727 -1540 0
-729 -1541 0
-725 -1545 0
-728 -1547 0
-729 -1548 0
-727 -1559 0
-728 -1560 0
-729 -1561 0
-724 -1563 0
-728 -1567 0
-729 -1568 0
-724 -1577 0
-725 -1579 0
-726 -1580 0
-727 -1582 0
-728 -1583 0
-729 -1584 0
-725 -1593 0
-727 -1595 0
-729 -1596 0
-724 -1598 0
-726 -1600 0
-727 -1601 0
-729 -1602 0
-724 -1610 0
-727 -1613 0
-728 -1614 0
-729 -1615 0
-724 -1682 0
-725 -1683 0
-726 -1684 0
-727 -1685 0
-728 -1686 0
-729 -1687 0
-726 -1698 0
-728 -1699 0
-729 -1700 0
-725 -1711 0
-726 -1712 0
-727 -1714 0
-728 -1715 0
-729 -1716 0
-727 -1721 0
-729 -1722 0
-725 -1733 0
-729 -1735 0
-725 -1739 0
-726 -1740 0
-729 -1741 0
-726 -1744 0
-727 -1746 0
-729 -1747 0
-725 -1756 0
-727 -1758 0
-728 -1759 0
-729 -1760 0
-726 -1763 0
-727 -1765 0
-728 -1766 0
-729 -1767 0
-725 -1776 0
-726 -1777 0
-727 -1778 0
-728 -1779 0
-729 -1780 0
-726 -1790 0
-727 -1791 0
-728 -1792 0
-729 -1793 0
-724 -1794 0
-725 -1795 0
-726 -1796 0
-727 -1797 0
-728 -1798 0
-729 -1799 0
-725 -1802 0
-726 -1803 0
-727 -1804 0
-728 -1805 0
-729 -1806 0
-725 -1815 0
-727 -1817 0
-728 -1818 0
-729 -1819 0
-725 -1888 0
-727 -1890 0
-729 -1891 0
-726 -1894 0
-727 -1896 0
-728 -1897 0
-729 -1898 0
-725 -1907 0
-726 -1908 0
-728 -1910 0
-729 -1911 0
-725 -1919 0
-726 -1920 0
-727 -1922 0
-729 -1923 0
-730 -794 0
-732 -796 0
-733 -797 0
-735 -799 0
-730 -801 0
-732 -803 0
-735 -805 0
-730 -807 0
-731 -809 0
-732 -811 0
-735 -814 0
-730 -833 0
-732 -836 0
-735 -837 0
-730 -839 0
-733 -841 0
-735 -844 0
-730 -846 0
-735 -850 0
-735 -867 0
-730 -868 0
-732 -870 0
-734 -871 0
-735 -873 0
-732 -883 0
-734 -884 0
-735 -885 0
-730 -893 0
-731 -894 0
-733 -895 0
-735 -897 0
-730 -900 0
-731 -901 0
-735 -903 0
-730 -921 0
-733 -923 0
-735 -925 0
-730 -928 0
-735 -931 0
-731 -935 0
-735 -937 0
-730 -940 0
-732 -942 0
-733 -943 0
-735 -946 0
-732 -972 0
-733 -973 0
-735 -975 0
-732 -979 0
-735 -981 0
-730 -990 0
-733 -992 0
-734 -993 0
-735 -994 0
-733 -1015 0
-734 -1016 0
-735 -1018 0
-734 -1022 0
-735 -1024 0
-730 -1069 0
-731 -1070 0
-732 -1072 0
-735 -1074 0
-731 -1108 0
-732 -1109 0
-735 -1112 0
-730 -1126 0
-732 -1127 0
-733 -1128 0
-734 -1129 0
-735 -1132 0
-731 -1134 0
-732 -1135 0
-734 -1136 0
-735 -1138 0
-732 -1155 0
-734 -1156 0
-735 -1158 0
-732 -1161 0
-733 -1162 0
-734 -1163 0
-735 -1165 0
-731 -1168 0
-732 -1169 0
-735 -1171 0
-731 -1187 0
-732 -1189 0
-735 -1191 0
-731 -1194 0
-733 -1196 0
-735 -1198 0
-731 -1200 0
-735 -1204 0
-731 -1221 0
-732 -1223 0
-733 -1224 0
-734 -1225 0
-735 -1228 0
-731 -1230 0
-732 -1232 0
-734 -1233 0
-735 -1234 0
-732 -1249 0
-733 -1250 0
-734 -1251 0
-735 -1253 0
-732 -1255 0
-734 -1256 0
-735 -1259 0
-733 -1262 0
-734 -1263 0
-735 -1265 0
-730 -1279 0
-731 -1280 0
-732 -1282 0
-733 -1283 0
-735 -1285 0
-731 -1315 0
-733 -1317 0
-735 -1320 0
-732 -1336 0
-733 -1337 0
-734 -1338 0
-735 -1340 0
-731 -1342 0
-733 -1344 0
-735 -1346 0
-731 -1365 0
-733 -1367 0
-735 -1369 0
-731 -1371 0
-732 -1372 0
-733 -1373 0
-735 -1376 0
-731 -1378 0
-732 -1379 0
-733 -1380 0
-735 -1382 0
-732 -1399 0
-733 -1400 0
-735 -1403 0
-731 -1404 0
-733 -1405 0
-734 -1406 0
-735 -1409 0
-733 -1424 0
-734 -1425 0
-735 -1428 0
-733 -1431 0
-734 -1432 0
-735 -1434 0
-732 -1436 0
-733 -1437 0
-734 -1438 0
-735 -1440 0
-730 -1457 0
-732 -1458 0
-733 -1459 0
-734 -1460 0
-735 -1463 0
-730 -1472 0
-732 -1475 0
-733 -1476 0
-734 -1477 0
-735 -1479 0
-730 -1480 0
-733 -1483 0
-734 -1484 0
-735 -1486 0
-733 -1495 0
-734 -1496 0
-735 -1498 0
-730 -1500 0
-731 -1501 0
-733 -1503 0
-734 -1504 0
-735 -1507 0
-730 -1523 0
-734 -1524 0
-735 -1527 0
-730 -1530 0
-733 -1531 0
-734 -1532 0
-735 -1534 0
-731 -1537 0
-733 -1538 0
-734 -1539 0
-735 -1541 0
-730 -1543 0
-732 -1545 0
-734 -1546 0
-735 -1548 0
-732 -1572 0
-734 -1573 0
-735 -1574 0
-732 -1579 0
-733 -1580 0
-734 -1581 0
-735 -1584 0
-733 -1600 0
-735 -1602 0
-730 -1630 0
-731 -1631 0
-732 -1632 0
-733 -1633 0
-734 -1634 0
-735 -1635 0
-731 -1661 0
-732 -1663 0
-733 -1664 0
-734 -1665 0
-735 -1668 0
-732 -1683 0
-733 -1684 0
-735 -1687 0
-731 -1689 0
-732 -1691 0
-733 -1692 0
-734 -1693 0
-735 -1694 0
-731 -1710 0
-732 -1711 0
-733 -1712 0
-734 -1713 0
-735 -1716 0
-731 -1718 0
-734 -1720 0
-735 -1722 0
-731 -1724 0
-733 -1726 0
-734 -1727 0
-735 -1729 0
-733 -1744 0
-734 -1745 0
-735 -1747 0
-731 -1748 0
-732 -1750 0
-733 -1751 0
-735 -1753 0
-732 -1770 0
-735 -1773 0
-732 -1776 0
-733 -1777 0
-735 -1780 0
-731 -1808 0
-734 -1810 0
-735 -1812 0
-731 -1813 0
-732 -1815 0
-734 -1816 0
-735 -1819 0
-732 -1833 0
-734 -1834 0
-735 -1837 0
-730 -1846 0
-732 -1847 0
-733 -1848 0
-735 -1850 0
-732 -1861 0
-733 -1862 0
-735 -1864 0
-733 -1881 0
-735 -1884 0
-731 -1925 0
-732 -1926 0
-733 -1927 0
-735 -1930 0
-732 -1940 0
-733 -1941 0
-735 -1944 0
-732 -1946 0
-733 -1947 0
-734 -1948 0
-735 -1950 0
-740 -789 0
-741 -792 0
-738 -795 0
-739 -797 0
-741 -799 0
-738 -802 0
-741 -805 0
-736 -840 0
-739 -841 0
-741 -844 0
-736 -847 0
-741 -850 0
-736 -853 0
-738 -854 0
-739 -856 0
-740 -857 0
-741 -860 0
-736 -869 0
-740 -871 0
-741 -873 0
-736 -875 0
-738 -876 0
-739 -878 0
-741 -879 0
-736 -886 0
-739 -888 0
-741 -891 0
-737 -894 0
-739 -895 0
-741 -897 0
-737 -901 0
-741 -903 0
-737 -907 0
-738 -908 0
-739 -910 0
-740 -911 0
-741 -912 0
-740 -917 0
-741 -918 0
-738 -922 0
-739 -923 0
-741 -925 0
-738 -929 0
-741 -931 0
-736 -962 0
-737 -963 0
-739 -964 0
-740 -965 0
-741 -968 0
-736 -971 0
-739 -973 0
-741 -975 0
-736 -978 0
-741 -981 0
-736 -984 0
-738 -985 0
-739 -986 0
-740 -987 0
-741 -988 0
-736 -1008 0
-737 -1009 0
-739 -1011 0
-741 -1012 0
-736 -1014 0
-739 -1015 0
-740 -1016 0
-741 -1018 0
-736 -1021 0
-740 -1022 0
-741 -1024 0
-736 -1027 0
-738 -1028 0
-739 -1030 0
-741 -1033 0
-738 -1101 0
-740 -1102 0
-741 -1105 0
-738 -1121 0
-740 -1123 0
-741 -1125 0
-739 -1128 0
-740 -1129 0
-741 -1132 0
-736 -1159 0
-738 -1160 0
-739 -1162 0
-740 -1163 0
-741 -1165 0
-737 -1194 0
-738 -1195 0
-739 -1196 0
-741 -1198 0
-737 -1200 0
-738 -1201 0
-741 -1204 0
-737 -1206 0
-739 -1208 0
-740 -1209 0
-741 -1211 0
-738 -1214 0
-740 -1216 0
-741 -1218 0
-737 -1221 0
-738 -1222 0
-739 -1224 0
-740 -1225 0
-741 -1228 0
-737 -1230 0
-738 -1231 0
-740 -1233 0
-741 -1234 0
-737 -1236 0
-739 -1238 0
-741 -1240 0
-738 -1243 0
-740 -1244 0
-741 -1246 0
-739 -1250 0
-740 -1251 0
-741 -1253 0
-740 -1256 0
-741 -1259 0
-739 -1309 0
-740 -1310 0
-741 -1313 0
-737 -1371 0
-739 -1373 0
-741 -1376 0
-737 -1378 0
-739 -1380 0
-741 -1382 0
-737 -1384 0
-738 -1385 0
-739 -1386 0
-740 -1387 0
-741 -1389 0
-739 -1393 0
-740 -1394 0
-741 -1396 0
-738 -1398 0
-739 -1400 0
-741 -1403 0
-737 -1404 0
-739 -1405 0
-740 -1406 0
-741 -1409 0
-737 -1410 0
-738 -1411 0
-739 -1413 0
-741 -1415 0
-739 -1418 0
-740 -1419 0
-741 -1421 0
-738 -1423 0
-739 -1424 0
-740 -1425 0
-741 -1428 0
-738 -1430 0
-739 -1431 0
-740 -1432 0
-741 -1434 0
-739 -1459 0
-740 -1460 0
-741 -1463 0
-736 -1481 0
-738 -1482 0
-739 -1483 0
-740 -1484 0
-741 -1486 0
-736 -1488 0
-740 -1490 0
-741 -1492 0
-737 -1501 0
-738 -1502 0
-739 -1503 0
-740 -1504 0
-741 -1507 0
-737 -1510 0
-740 -1512 0
-741 -1514 0
-738 -1517 0
-739 -1519 0
-741 -1521 0
-740 -1524 0
-741 -1527 0
-739 -1531 0
-740 -1532 0
-741 -1534 0
-736 -1563 0
-737 -1564 0
-738 -1565 0
-740 -1566 0
-741 -1568 0
-736 -1570 0
-738 -1571 0
-740 -1573 0
-741 -1574 0
-736 -1577 0
-738 -1578 0
-739 -1580 0
-740 -1581 0
-741 -1584 0
-736 -1587 0
-740 -1588 0
-741 -1590 0
-736 -1598 0
-738 -1599 0
-739 -1600 0
-741 -1602 0
-736 -1604 0
-740 -1606 0
-741 -1609 0
-738 -1655 0
-739 -1656 0
-741 -1659 0
-737 -1718 0
-738 -1719 0
-740 -1720 0
-741 -1722 0
-737 -1724 0
-738 -1725 0
-739 -1726 0
-740 -1727 0
-741 -1729 0
-737 -1731 0
-738 -1732 0
-740 -1734 0
-741 -1735 0
-738 -1738 0
-739 -1740 0
-741 -1741 0
-738 -1743 0
-739 -1744 0
-740 -1745 0
-741 -1747 0
-737 -1748 0
-738 -1749 0
-739 -1751 0
-741 -1753 0
-737 -1754 0
-738 -1755 0
-740 -1757 0
-741 -1760 0
-738 -1762 0
-739 -1763 0
-740 -1764 0
-741 -1767 0
-738 -1769 0
-741 -1773 0
-738 -1775 0
-739 -1777 0
-741 -1780 0
-737 -1813 0
-738 -1814 0
-740 -1816 0
-741 -1819 0
-737 -1820 0
-739 -1821 0
-740 -1822 0
-741 -1825 0
-738 -1827 0
-741 -1831 0
-740 -1834 0
-741 -1837 0
-739 -1848 0
-741 -1850 0
-738 -1853 0
-740 -1855 0
-741 -1857 0
-736 -1866 0
-740 -1868 0
-741 -1871 0
-737 -1873 0
-740 -1875 0
-741 -1877 0
-739 -1881 0
-741 -1884 0
-738 -1887 0
-740 -1889 0
-741 -1891 0
-738 -1939 0
-739 -1941 0
-741 -1944 0
-738 -1945 0
-739 -1947 0
-740 -1948 0
-741 -1950 0
-743 -787 0
-746 -789 0
-747 -791 0
-748 -792 0
-743 -793 0
-745 -796 0
-748 -799 0
-743 -806 0
-744 -809 0
-745 -811 0
-747 -813 0
-748 -814 0
-743 -823 0
-746 -828 0
-747 -829 0
-748 -830 0
-743 -832 0
-745 -836 0
-748 -837 0
-743 -838 0
-747 -843 0
-748 -844 0
-743 -862 0
-747 -866 0
-748 -867 0
-743 -880 0
-745 -883 0
-746 -884 0
-748 -885 0
-743 -899 0
-744 -901 0
-747 -902 0
-748 -903 0
-743 -905 0
-744 -907 0
-745 -909 0
-746 -911 0
-748 -912 0
-743 -927 0
-748 -931 0
-743 -939 0
-745 -942 0
-747 -945 0
-748 -946 0
-743 -948 0
-746 -951 0
-748 -953 0
-743 -961 0
-744 -963 0
-746 -965 0
-747 -967 0
-748 -968 0
-743 -977 0
-745 -979 0
-747 -980 0
-748 -981 0
-743 -983 0
-746 -987 0
-748 -988 0
-743 -989 0
-746 -993 0
-748 -994 0
-743 -995 0
-745 -997 0
-747 -999 0
-748 -1000 0
-743 -1007 0
-744 -1009 0
-745 -1010 0
-748 -1012 0
-743 -1020 0
-746 -1022 0
-748 -1024 0
-743 -1026 0
-745 -1029 0
-747 -1032 0
-748 -1033 0
-743 -1034 0
-748 -1039 0
-744 -1061 0
-745 -1062 0
-746 -1064 0
-747 -1066 0
-748 -1067 0
-744 -1070 0
-745 -1072 0
-748 -1074 0
-745 -1085 0
-746 -1087 0
-748 -1088 0
-746 -1102 0
-747 -1104 0
-748 -1105 0
-744 -1108 0
-745 -1109 0
-747 -1111 0
-748 -1112 0
-746 -1116 0
-747 -1118 0
-748 -1119 0
-745 -1122 0
-746 -1123 0
-748 -1125 0
-745 -1127 0
-746 -1129 0
-747 -1131 0
-748 -1132 0
-744 -1134 0
-745 -1135 0
-746 -1136 0
-748 -1138 0
-745 -1148 0
-746 -1150 0
-748 -1151 0
-745 -1155 0
-746 -1156 0
-747 -1157 0
-748 -1158 0
-745 -1161 0
-746 -1163 0
-748 -1165 0
-744 -1200 0
-747 -1203 0
-748 -1204 0
-744 -1206 0
-745 -1207 0
-746 -1209 0
-748 -1211 0
-744 -1230 0
-745 -1232 0
-746 -1233 0
-748 -1234 0
-744 -1236 0
-745 -1237 0
-747 -1239 0
-748 -1240 0
-745 -1255 0
-746 -1256 0
-747 -1258 0
-748 -1259 0
-746 -1263 0
-748 -1265 0
-745 -1268 0
-747 -1271 0
-748 -1272 0
-744 -1274 0
-746 -1276 0
-747 -1277 0
-748 -1278 0
-744 -1280 0
-745 -1282 0
-747 -1284 0
-748 -1285 0
-746 -1296 0
-747 -1298 0
-748 -1299 0
-745 -1308 0
-746 -1310 0
-747 -1312 0
-748 -1313 0
-744 -1315 0
-747 -1319 0
-748 -1320 0
-745 -1324 0
-746 -1325 0
-747 -1326 0
-748 -1327 0
-746 -1330 0
-747 -1332 0
-748 -1333 0
-745 -1336 0
-746 -1338 0
-748 -1340 0
-744 -1378 0
-745 -1379 0
-747 -1381 0
-748 -1382 0
-744 -1384 0
-746 -1387 0
-747 -1388 0
-748 -1389 0
-745 -1399 0
-747 -1402 0
-748 -1403 0
-744 -1404 0
-746 -1406 0
-747 -1408 0
-748 -1409 0
-744 -1410 0
-745 -1412 0
-748 -1415 0
-746 -1432 0
-748 -1434 0
-745 -1436 0
-746 -1438 0
-747 -1439 0
-748 -1440 0
-743 -1464 0
-747 -1469 0
-748 -1470 0
-743 -1471 0
-745 -1475 0
-746 -1477 0
-748 -1479 0
-743 -1493 0
-746 -1496 0
-747 -1497 0
-748 -1498 0
-743 -1499 0
-744 -1501 0
-746 -1504 0
-747 -1506 0
-748 -1507 0
-743 -1508 0
-744 -1510 0
-745 -1511 0
-746 -1512 0
-748 -1514 0
-743 -1529 0
-746 -1532 0
-748 -1534 0
-743 -1542 0
-745 -1545 0
-746 -1546 0
-747 -1547 0
-748 -1548 0
-743 -1549 0
-746 -1553 0
-748 -1554 0
-743 -1562 0
-744 -1564 0
-746 -1566 0
-747 -1567 0
-748 -1568 0
-743 -1576 0
-745 -1579 0
-746 -1581 0
-747 -1583 0
-748 -1584 0
-743 -1586 0
-746 -1588 0
-748 -1590 0
-743 -1597 0
-748 -1602 0
-743 -1603 0
-745 -1605 0
-746 -1606 0
-747 -1608 0
-748 -1609 0
-744 -1624 0
-745 -1626 0
-747 -1628 0
-748 -1629 0
-744 -1631 0
-745 -1632 0
-746 -1634 0
-748 -1635 0
-745 -1644 0
-748 -1647 0
-747 -1658 0
-748 -1659 0
-744 -1661 0
-745 -1663 0
-746 -1665 0
-747 -1667 0
-748 -1668 0
-747 -1673 0
-748 -1674 0
-745 -1677 0
-746 -1679 0
-748 -1681 0
-745 -1683 0
-747 -1686 0
-748 -1687 0
-744 -1724 0
-746 -1727 0
-747 -1728 0
-748 -1729 0
-744 -1731 0
-745 -1733 0
-746 -1734 0
-748 -1735 0
-746 -1745 0
-748 -1747 0
-744 -1748 0
-745 -1750 0
-748 -1753 0
-744 -1754 0
-745 -1756 0
-746 -1757 0
-747 -1759 0
-748 -1760 0
-745 -1776 0
-747 -1779 0
-748 -1780 0
-745 -1783 0
-746 -1785 0
-747 -1786 0
-748 -1787 0
-747 -1792 0
-748 -1793 0
-745 -1795 0
-747 -1798 0
-748 -1799 0
-744 -1813 0
-745 -1815 0
-746 -1816 0
-747 -1818 0
-748 -1819 0
-744 -1820 0
-746 -1822 0
-747 -1824 0
-748 -1825 0
-745 -1833 0
-746 -1834 0
-747 -1836 0
-748 -1837 0
-743 -1858 0
-745 -1861 0
-747 -1863 0
-748 -1864 0
-743 -1872 0
-744 -1873 0
-745 -1874 0
-746 -1875 0
-747 -1876 0
-748 -1877 0
-743 -1880 0
-747 -1883 0
-748 -1884 0
-743 -1886 0
-745 -1888 0
-746 -1889 0
-748 -1891 0
-743 -1892 0
-746 -1895 0
-747 -1897 0
-748 -1898 0
-743 -1924 0
-744 -1925 0
-745 -1926 0
-747 -1929 0
-748 -1930 0
-743 -1932 0
-745 -1933 0
-746 -1935 0
-747 -1936 0
-748 -1937 0
-743 -1952 0
-746 -1955 0
-747 -1957 0
-748 -1958 0
-753 -789 0
-754 -790 0
-755 -792 0
-749 -800 0
-751 -803 0
-755 -805 0
-750 -809 0
-751 -811 0
-754 -812 0
-755 -814 0
-753 -819 0
-754 -820 0
-755 -821 0
-749 -831 0
-751 -836 0
-755 -837 0
-749 -845 0
-754 -848 0
-755 -850 0
-749 -861 0
-754 -865 0
-755 -867 0
-751 -870 0
-753 -871 0
-755 -873 0
-751 -883 0
-753 -884 0
-755 -885 0
-750 -894 0
-752 -895 0
-754 -896 0
-755 -897 0
-749 -904 0
-750 -907 0
-751 -909 0
-752 -910 0
-753 -911 0
-755 -912 0
-749 -919 0
-752 -923 0
-755 -925 0
-749 -938 0
-751 -942 0
-752 -943 0
-754 -944 0
-755 -946 0
-749 -954 0
-752 -956 0
-753 -957 0
-755 -959 0
-749 -960 0
-750 -963 0
-752 -964 0
-753 -965 0
-754 -966 0
-755 -968 0
-749 -969 0
-751 -972 0
-752 -973 0
-754 -974 0
-755 -975 0
-749 -982 0
-752 -986 0
-753 -987 0
-755 -988 0
-752 -992 0
-753 -993 0
-755 -994 0
-749 -1001 0
-751 -1003 0
-752 -1004 0
-754 -1005 0
-755 -1006 0
-750 -1009 0
-751 -1010 0
-752 -1011 0
-755 -1012 0
-752 -1015 0
-753 -1016 0
-755 -1018 0
-749 -1025 0
-751 -1029 0
-752 -1030 0
-754 -1031 0
-755 -1033 0
-749 -1040 0
-752 -1043 0
-755 -1045 0
-750 -1054 0
-751 -1055 0
-753 -1056 0
-754 -1057 0
-755 -1058 0
-749 -1068 0
-750 -1070 0
-751 -1072 0
-754 -1073 0
-755 -1074 0
-749 -1099 0
-753 -1102 0
-754 -1103 0
-755 -1105 0
-749 -1106 0
-750 -1108 0
-751 -1109 0
-754 -1110 0
-755 -1112 0
-751 -1122 0
-753 -1123 0
-754 -1124 0
-755 -1125 0
-750 -1134 0
-751 -1135 0
-753 -1136 0
-754 -1137 0
-755 -1138 0
-751 -1141 0
-753 -1142 0
-754 -1143 0
-755 -1145 0
-749 -1152 0
-751 -1155 0
-753 -1156 0
-755 -1158 0
-749 -1192 0
-750 -1194 0
-752 -1196 0
-754 -1197 0
-755 -1198 0
-749 -1205 0
-750 -1206 0
-751 -1207 0
-752 -1208 0
-753 -1209 0
-754 -1210 0
-755 -1211 0
-750 -1221 0
-751 -1223 0
-752 -1224 0
-753 -1225 0
-754 -1226 0
-755 -1228 0
-749 -1235 0
-750 -1236 0
-751 -1237 0
-752 -1238 0
-755 -1240 0
-749 -1247 0
-751 -1249 0
-752 -1250 0
-753 -1251 0
-755 -1253 0
-749 -1260 0
-752 -1262 0
-753 -1263 0
-754 -1264 0
-755 -1265 0
-750 -1280 0
-751 -1282 0
-752 -1283 0
-755 -1285 0
-751 -1308 0
-752 -1309 0
-753 -1310 0
-754 -1311 0
-755 -1313 0
-750 -1315 0
-752 -1317 0
-754 -1318 0
-755 -1320 0
-751 -1336 0
-752 -1337 0
-753 -1338 0
-754 -1339 0
-755 -1340 0
-750 -1371 0
-751 -1372 0
-752 -1373 0
-754 -1374 0
-755 -1376 0
-749 -1383 0
-750 -1384 0
-752 -1386 0
-753 -1387 0
-755 -1389 0
-750 -1410 0
-751 -1412 0
-752 -1413 0
-754 -1414 0
-755 -1415 0
-752 -1424 0
-753 -1425 0
-754 -1426 0
-755 -1428 0
-751 -1436 0
-752 -1437 0
-753 -1438 0
-755 -1440 0
-751 -1458 0
-752 -1459 0
-753 -1460 0
-754 -1461 0
-755 -1463 0
-751 -1475 0
-752 -1476 0
-753 -1477 0
-754 -1478 0
-755 -1479 0
-752 -1483 0
-753 -1484 0
-755 -1486 0
-752 -1495 0
-753 -1496 0
-755 -1498 0
-750 -1510 0
-751 -1511 0
-753 -1512 0
-754 -1513 0
-755 -1514 0
-753 -1524 0
-754 -1525 0
-755 -1527 0
-751 -1545 0
-753 -1546 0
-755 -1548 0
-749 -1555 0
-753 -1558 0
-754 -1559 0
-755 -1561 0
-750 -1564 0
-753 -1566 0
-755 -1568 0
-751 -1572 0
-753 -1573 0
-755 -1574 0
-749 -1585 0
-753 -1588 0
-754 -1589 0
-755 -1590 0
-751 -1593 0
-753 -1594 0
-754 -1595 0
-755 -1596 0
-751 -1605 0
-753 -1606 0
-754 -1607 0
-755 -1609 0
-753 -1612 0
-754 -1613 0
-755 -1615 0
-750 -1631 0
-751 -1632 0
-752 -1633 0
-753 -1634 0
-755 -1635 0
-752 -1656 0
-754 -1657 0
-755 -1659 0
-750 -1661 0
-751 -1663 0
-752 -1664 0
-753 -1665 0
-754 -1666 0
-755 -1668 0
-751 -1683 0
-752 -1684 0
-754 -1685 0
-755 -1687 0
-750 -1718 0
-753 -1720 0
-754 -1721 0
-755 -1722 0
-749 -1730 0
-750 -1731 0
-751 -1733 0
-753 -1734 0
-755 -1735 0
-750 -1754 0
-751 -1756 0
-753 -1757 0
-754 -1758 0
-755 -1760 0
-751 -1770 0
-754 -1771 0
-755 -1773 0
-750 -1820 0
-752 -1821 0
-753 -1822 0
-754 -1823 0
-755 -1825 0
-751 -1847 0
-752 -1848 0
-755 -1850 0
-751 -1861 0
-752 -1862 0
-755 -1864 0
-750 -1873 0
-751 -1874 0
-753 -1875 0
-755 -1877 0
-749 -1885 0
-751 -1888 0
-753 -1889 0
-754 -1890 0
-755 -1891 0
-749 -1899 0
-753 -1902 0
-755 -1904 0
-751 -1914 0
-754 -1915 0
-755 -1917 0
-750 -1925 0
-751 -1926 0
-752 -1927 0
-754 -1928 0
-755 -1930 0
-749 -1938 0
-751 -1940 0
-752 -1941 0
-754 -1942 0
-755 -1944 0
-751 -1946 0
-752 -1947 0
-753 -1948 0
-755 -1950 0
-758 -795 0
-759 -798 0
-761 -799 0
-756 -800 0
-758 -802 0
-760 -804 0
-761 -805 0
-757 -809 0
-758 -810 0
-759 -812 0
-760 -813 0
-761 -814 0
-758 -818 0
-759 -820 0
-761 -821 0
-756 -822 0
-758 -826 0
-760 -829 0
-761 -830 0
-756 -851 0
-758 -854 0
-759 -858 0
-760 -859 0
-761 -860 0
-756 -861 0
-758 -864 0
-759 -865 0
-760 -866 0
-761 -867 0
-758 -876 0
-761 -879 0
-758 -882 0
-761 -885 0
-757 -894 0
-759 -896 0
-761 -897 0
-756 -898 0
-757 -901 0
-760 -902 0
-761 -903 0
-756 -913 0
-761 -918 0
-756 -947 0
-759 -952 0
-761 -953 0
-756 -954 0
-760 -958 0
-761 -959 0
-756 -960 0
-757 -963 0
-759 -966 0
-760 -967 0
-761 -968 0
-756 -969 0
-759 -974 0
-761 -975 0
-756 -976 0
-760 -980 0
-761 -981 0
-760 -999 0
-761 -1000 0
-756 -1001 0
-759 -1005 0
-761 -1006 0
-757 -1009 0
-761 -1012 0
-760 -1017 0
-761 -1018 0
-756 -1019 0
-759 -1023 0
-761 -1024 0
-756 -1046 0
-761 -1051 0
-757 -1054 0
-759 -1057 0
-761 -1058 0
-756 -1059 0
-757 -1061 0
-759 -1065 0
-760 -1066 0
-761 -1067 0
-756 -1075 0
-759 -1080 0
-761 -1081 0
-756 -1106 0
-757 -1108 0
-759 -1110 0
-760 -1111 0
-761 -1112 0
-756 -1113 0
-759 -1117 0
-760 -1118 0
-761 -1119 0
-759 -1130 0
-760 -1131 0
-761 -1132 0
-757 -1134 0
-759 -1137 0
-761 -1138 0
-759 -1143 0
-760 -1144 0
-761 -1145 0
-756 -1146 0
-761 -1151 0
-756 -1192 0
-757 -1194 0
-758 -1195 0
-759 -1197 0
-761 -1198 0
-756 -1199 0
-757 -1200 0
-758 -1201 0
-759 -1202 0
-760 -1203 0
-761 -1204 0
-756 -1212 0
-758 -1214 0
-759 -1217 0
-761 -1218 0
-757 -1221 0
-758 -1222 0
-759 -1226 0
-760 -1227 0
-761 -1228 0
-756 -1229 0
-757 -1230 0
-758 -1231 0
-761 -1234 0
-756 -1241 0
-758 -1243 0
-760 -1245 0
-761 -1246 0
-756 -1266 0
-758 -1267 0
-759 -1270 0
-760 -1271 0
-761 -1272 0
-757 -1274 0
-758 -1275 0
-760 -1277 0
-761 -1278 0
-758 -1288 0
-760 -1291 0
-761 -1292 0
-757 -1315 0
-758 -1316 0
-759 -1318 0
-760 -1319 0
-761 -1320 0
-756 -1321 0
-758 -1323 0
-760 -1326 0
-761 -1327 0
-758 -1329 0
-759 -1331 0
-760 -1332 0
-761 -1333 0
-757 -1371 0
-759 -1374 0
-760 -1375 0
-761 -1376 0
-756 -1377 0
-757 -1378 0
-760 -1381 0
-761 -1382 0
-756 -1390 0
-760 -1395 0
-761 -1396 0
-757 -1404 0
-759 -1407 0
-760 -1408 0
-761 -1409 0
-759 -1420 0
-761 -1421 0
-759 -1461 0
-760 -1462 0
-761 -1463 0
-759 -1468 0
-760 -1469 0
-761 -1470 0
-760 -1491 0
-761 -1492 0
-760 -1497 0
-761 -1498 0
-757 -1501 0
-758 -1502 0
-759 -1505 0
-760 -1506 0
-761 -1507 0
-758 -1517 0
-759 -1520 0
-761 -1521 0
-758 -1551 0
-761 -1554 0
-756 -1555 0
-758 -1557 0
-759 -1559 0
-760 -1560 0
-761 -1561 0
-757 -1564 0
-758 -1565 0
-760 -1567 0
-761 -1568 0
-758 -1571 0
-761 -1574 0
-756 -1575 0
-758 -1578 0
-759 -1582 0
-760 -1583 0
-761 -1584 0
-758 -1592 0
-759 -1595 0
-761 -1596 0
-758 -1599 0
-759 -1601 0
-761 -1602 0
-758 -1617 0
-759 -1621 0
-761 -1622 0
-757 -1624 0
-758 -1625 0
-760 -1628 0
-761 -1629 0
-758 -1638 0
-761 -1641 0
-757 -1661 0
-758 -1662 0
-759 -1666 0
-760 -1667 0
-761 -1668 0
-756 -1669 0
-758 -1671 0
-760 -1673 0
-761 -1674 0
-758 -1676 0
-759 -1680 0
-761 -1681 0
-757 -1718 0
-758 -1719 0
-759 -1721 0
-761 -1722 0
-756 -1723 0
-757 -1724 0
-758 -1725 0
-760 -1728 0
-761 -1729 0
-756 -1736 0
-758 -1738 0
-761 -1741 0
-757 -1748 0
-758 -1749 0
-759 -1752 0
-761 -1753 0
-758 -1762 0
-759 -1765 0
-760 -1766 0
-761 -1767 0
-758 -1782 0
-760 -1786 0
-761 -1787 0
-759 -1797 0
-760 -1798 0
-761 -1799 0
-757 -1813 0
-758 -1814 0
-759 -1817 0
-760 -1818 0
-761 -1819 0
-758 -1827 0
-759 -1829 0
-760 -1830 0
-761 -1831 0
-758 -1853 0
-760 -1856 0
-761 -1857 0
-758 -1860 0
-760 -1863 0
-761 -1864 0
-757 -1873 0
-760 -1876 0
-761 -1877 0
-756 -1879 0
-759 -1882 0
-760 -1883 0
-761 -1884 0
-756 -1905 0
-760 -1910 0
-761 -1911 0
-759 -1922 0
-761 -1923 0
-757 -1925 0
-759 -1928 0
-760 -1929 0
-761 -1930 0
-756 -1931 0
-760 -1936 0
-761 -1937 0
-758 -1953 0
-759 -1956 0
-760 -1957 0
-761 -1958 0
-766 -790 0
-767 -792 0
-763 -795 0
-764 -796 0
-765 -797 0
-766 -798 0
-767 -799 0
-762 -809 0
-763 -810 0
-764 -811 0
-766 -812 0
-767 -814 0
-763 -818 0
-766 -820 0
-767 -821 0
-766 -848 0
-767 -850 0
-763 -854 0
-764 -855 0
-765 -856 0
-766 -858 0
-767 -860 0
-763 -864 0
-766 -865 0
-767 -867 0
-764 -887 0
-765 -888 0
-766 -889 0
-767 -891 0
-762 -901 0
-767 -903 0
-762 -907 0
-763 -908 0
-764 -909 0
-765 -910 0
-767 -912 0
-764 -916 0
-767 -918 0
-763 -922 0
-765 -923 0
-767 -925 0
-762 -935 0
-763 -936 0
-767 -937 0
-765 -956 0
-767 -959 0
-764 -979 0
-767 -981 0
-763 -985 0
-765 -986 0
-767 -988 0
-763 -991 0
-765 -992 0
-767 -994 0
-764 -997 0
-765 -998 0
-767 -1000 0
-762 -1009 0
-764 -1010 0
-765 -1011 0
-767 -1012 0
-765 -1015 0
-767 -1018 0
-763 -1042 0
-765 -1043 0
-767 -1045 0
-764 -1048 0
-765 -1049 0
-767 -1051 0
-762 -1061 0
-764 -1062 0
-765 -1063 0
-766 -1065 0
-767 -1067 0
-762 -1070 0
-763 -1071 0
-764 -1072 0
-766 -1073 0
-767 -1074 0
-765 -1078 0
-766 -1080 0
-767 -1081 0
-762 -1092 0
-763 -1093 0
-764 -1094 0
-765 -1095 0
-766 -1097 0
-767 -1098 0
-765 -1115 0
-766 -1117 0
-767 -1119 0
-763 -1121 0
-764 -1122 0
-766 -1124 0
-767 -1125 0
-764 -1127 0
-765 -1128 0
-766 -1130 0
-767 -1132 0
-762 -1134 0
-764 -1135 0
-766 -1137 0
-767 -1138 0
-764 -1141 0
-766 -1143 0
-767 -1145 0
-762 -1181 0
-765 -1182 0
-767 -1184 0
-762 -1187 0
-763 -1188 0
-764 -1189 0
-767 -1191 0
-762 -1230 0
-763 -1231 0
-764 -1232 0
-767 -1234 0
-762 -1236 0
-764 -1237 0
-765 -1238 0
-767 -1240 0
-763 -1243 0
-767 -1246 0
-764 -1249 0
-765 -1250 0
-767 -1253 0
-762 -1274 0
-763 -1275 0
-767 -1278 0
-762 -1280 0
-763 -1281 0
-764 -1282 0
-765 -1283 0
-767 -1285 0
-763 -1288 0
-764 -1289 0
-767 -1292 0
-762 -1302 0
-763 -1303 0
-767 -1306 0
-763 -1323 0
-764 -1324 0
-767 -1327 0
-762 -1356 0
-763 -1357 0
-764 -1358 0
-766 -1360 0
-767 -1362 0
-762 -1365 0
-763 -1366 0
-765 -1367 0
-766 -1368 0
-767 -1369 0
-763 -1398 0
-764 -1399 0
-765 -1400 0
-766 -1401 0
-767 -1403 0
-762 -1404 0
-765 -1405 0
-766 -1407 0
-767 -1409 0
-762 -1410 0
-763 -1411 0
-764 -1412 0
-765 -1413 0
-766 -1414 0
-767 -1415 0
-764 -1417 0
-765 -1418 0
-766 -1420 0
-767 -1421 0
-763 -1423 0
-765 -1424 0
-766 -1426 0
-767 -1428 0
-762 -1450 0
-763 -1451 0
-765 -1452 0
-767 -1455 0
-763 -1482 0
-765 -1483 0
-767 -1486 0
-764 -1489 0
-767 -1492 0
-765 -1495 0
-767 -1498 0
-762 -1501 0
-763 -1502 0
-765 -1503 0
-766 -1505 0
-767 -1507 0
-762 -1510 0
-764 -1511 0
-766 -1513 0
-767 -1514 0
-763 -1517 0
-764 -1518 0
-765 -1519 0
-766 -1520 0
-767 -1521 0
-766 -1525 0
-767 -1527 0
-762 -1537 0
-765 -1538 0
-766 -1540 0
-767 -1541 0
-763 -1557 0
-766 -1559 0
-767 -1561 0
-763 -1578 0
-764 -1579 0
-765 -1580 0
-766 -1582 0
-767 -1584 0
-766 -1589 0
-767 -1590 0
-763 -1611 0
-766 -1613 0
-767 -1615 0
-763 -1617 0
-764 -1618 0
-765 -1619 0
-766 -1621 0
-767 -1622 0
-762 -1624 0
-763 -1625 0
-764 -1626 0
-765 -1627 0
-767 -1629 0
-762 -1631 0
-764 -1632 0
-765 -1633 0
-767 -1635 0
-763 -1638 0
-765 -1639 0
-767 -1641 0
-762 -1650 0
-764 -1651 0
-765 -1652 0
-767 -1653 0
-763 -1671 0
-765 -1672 0
-767 -1674 0
-762 -1703 0
-763 -1704 0
-765 -1705 0
-766 -1706 0
-767 -1707 0
-762 -1710 0
-764 -1711 0
-765 -1712 0
-766 -1714 0
-767 -1716 0
-763 -1743 0
-765 -1744 0
-766 -1746 0
-767 -1747 0
-762 -1748 0
-763 -1749 0
-764 -1750 0
-765 -1751 0
-766 -1752 0
-767 -1753 0
-762 -1754 0
-763 -1755 0
-764 -1756 0
-766 -1758 0
-767 -1760 0
-763 -1762 0
-765 -1763 0
-766 -1765 0
-767 -1767 0
-763 -1769 0
-764 -1770 0
-766 -1771 0
-767 -1773 0
-764 -1795 0
-765 -1796 0
-766 -1797 0
-767 -1799 0
-762 -1801 0
-764 -1802 0
-765 -1803 0
-766 -1804 0
-767 -1806 0
-762 -1808 0
-763 -1809 0
-766 -1811 0
-767 -1812 0
-764 -1833 0
-766 -1835 0
-767 -1837 0
-762 -1839 0
-765 -1840 0
-766 -1842 0
-767 -1844 0
-764 -1867 0
-766 -1869 0
-767 -1871 0
-762 -1873 0
-764 -1874 0
-767 -1877 0
-763 -1901 0
-767 -1904 0
-764 -1907 0
-765 -1908 0
-767 -1911 0
-762 -1925 0
-764 -1926 0
-765 -1927 0
-766 -1928 0
-767 -1930 0
-763 -1939 0
-764 -1940 0
-765 -1941 0
-766 -1942 0
-767 -1944 0
-772 -789 0
-773 -792 0
-770 -818 0
-772 -819 0
-773 -821 0
-768 -822 0
-770 -826 0
-772 -828 0
-773 -830 0
-773 -844 0
-768 -845 0
-773 -850 0
-768 -861 0
-770 -864 0
-773 -867 0
-769 -894 0
-773 -897 0
-768 -898 0
-769 -901 0
-773 -903 0
-768 -919 0
-770 -922 0
-773 -925 0
-768 -926 0
-770 -929 0
-773 -931 0
-768 -932 0
-769 -935 0
-770 -936 0
-773 -937 0
-768 -947 0
-772 -951 0
-773 -953 0
-768 -954 0
-772 -957 0
-773 -959 0
-768 -960 0
-769 -963 0
-772 -965 0
-773 -968 0
-768 -982 0
-770 -985 0
-772 -987 0
-773 -988 0
-770 -991 0
-772 -993 0
-773 -994 0
-772 -1016 0
-773 -1018 0
-768 -1019 0
-772 -1022 0
-773 -1024 0
-770 -1036 0
-773 -1039 0
-768 -1040 0
-770 -1042 0
-773 -1045 0
-769 -1054 0
-771 -1055 0
-772 -1056 0
-773 -1058 0
-768 -1059 0
-769 -1061 0
-771 -1062 0
-772 -1064 0
-773 -1067 0
-768 -1082 0
-770 -1084 0
-771 -1085 0
-772 -1087 0
-773 -1088 0
-768 -1089 0
-769 -1092 0
-770 -1093 0
-771 -1094 0
-772 -1096 0
-773 -1098 0
-768 -1106 0
-769 -1108 0
-771 -1109 0
-773 -1112 0
-770 -1121 0
-771 -1122 0
-772 -1123 0
-773 -1125 0
-771 -1141 0
-772 -1142 0
-773 -1145 0
-768 -1146 0
-771 -1148 0
-772 -1150 0
-773 -1151 0
-770 -1160 0
-771 -1161 0
-772 -1163 0
-773 -1165 0
-768 -1166 0
-769 -1168 0
-771 -1169 0
-773 -1171 0
-768 -1185 0
-769 -1187 0
-770 -1188 0
-771 -1189 0
-773 -1191 0
-768 -1205 0
-769 -1206 0
-771 -1207 0
-772 -1209 0
-773 -1211 0
-769 -1221 0
-770 -1222 0
-771 -1223 0
-772 -1225 0
-773 -1228 0
-768 -1229 0
-769 -1230 0
-770 -1231 0
-771 -1232 0
-772 -1233 0
-773 -1234 0
-768 -1247 0
-771 -1249 0
-772 -1251 0
-773 -1253 0
-768 -1254 0
-771 -1255 0
-772 -1256 0
-773 -1259 0
-768 -1266 0
-770 -1267 0
-771 -1268 0
-773 -1272 0
-769 -1274 0
-770 -1275 0
-772 -1276 0
-773 -1278 0
-768 -1293 0
-770 -1295 0
-772 -1296 0
-773 -1299 0
-769 -1302 0
-770 -1303 0
-772 -1304 0
-773 -1306 0
-769 -1315 0
-770 -1316 0
-773 -1320 0
-770 -1329 0
-772 -1330 0
-773 -1333 0
-769 -1342 0
-770 -1343 0
-773 -1346 0
-768 -1363 0
-769 -1365 0
-770 -1366 0
-773 -1369 0
-768 -1383 0
-769 -1384 0
-770 -1385 0
-772 -1387 0
-773 -1389 0
-769 -1404 0
-772 -1406 0
-773 -1409 0
-770 -1423 0
-772 -1425 0
-773 -1428 0
-768 -1429 0
-770 -1430 0
-772 -1432 0
-773 -1434 0
-769 -1442 0
-770 -1443 0
-771 -1444 0
-772 -1445 0
-773 -1448 0
-773 -1470 0
-770 -1482 0
-772 -1484 0
-773 -1486 0
-772 -1496 0
-773 -1498 0
-769 -1501 0
-770 -1502 0
-772 -1504 0
-773 -1507 0
-772 -1524 0
-773 -1527 0
-768 -1528 0
-772 -1532 0
-773 -1534 0
-769 -1537 0
-772 -1539 0
-773 -1541 0
-770 -1551 0
-772 -1553 0
-773 -1554 0
-768 -1555 0
-770 -1557 0
-772 -1558 0
-773 -1561 0
-769 -1564 0
-770 -1565 0
-772 -1566 0
-773 -1568 0
-768 -1585 0
-772 -1588 0
-773 -1590 0
-770 -1599 0
-773 -1602 0
-770 -1611 0
-772 -1612 0
-773 -1615 0
-769 -1624 0
-770 -1625 0
-771 -1626 0
-773 -1629 0
-768 -1642 0
-771 -1644 0
-773 -1647 0
-769 -1650 0
-771 -1651 0
-773 -1653 0
-769 -1661 0
-770 -1662 0
-771 -1663 0
-772 -1665 0
-773 -1668 0
-770 -1676 0
-771 -1677 0
-772 -1679 0
-773 -1681 0
-769 -1689 0
-770 -1690 0
-771 -1691 0
-772 -1693 0
-773 -1694 0
-768 -1708 0
-769 -1710 0
-771 -1711 0
-772 -1713 0
-773 -1716 0
-768 -1730 0
-769 -1731 0
-770 -1732 0
-771 -1733 0
-772 -1734 0
-773 -1735 0
-769 -1748 0
-770 -1749 0
-771 -1750 0
-773 -1753 0
-770 -1769 0
-771 -1770 0
-773 -1773 0
-768 -1774 0
-770 -1775 0
-771 -1776 0
-773 -1780 0
-770 -1782 0
-771 -1783 0
-772 -1785 0
-773 -1787 0
-770 -1789 0
-773 -1793 0
-769 -1808 0
-770 -1809 0
-772 -1810 0
-773 -1812 0
-769 -1820 0
-772 -1822 0
-773 -1825 0
-768 -1879 0
-773 -1884 0
-770 -1893 0
-772 -1895 0
-773 -1898 0
-768 -1899 0
-770 -1901 0
-772 -1902 0
-773 -1904 0
-768 -1931 0
-771 -1933 0
-772 -1935 0
-773 -1937 0
-768 -1938 0
-770 -1939 0
-771 -1940 0
-773 -1944 0
-770 -1953 0
-772 -1955 0
-773 -1958 0
-777 -789 0
-778 -790 0
-779 -791 0
-780 -792 0
-775 -818 0
-777 -819 0
-778 -820 0
-780 -821 0
-775 -826 0
-777 -828 0
-779 -829 0
-780 -830 0
-776 -870 0
-777 -871 0
-779 -872 0
-780 -873 0
-775 -882 0
-776 -883 0
-777 -884 0
-780 -885 0
-774 -894 0
-778 -896 0
-780 -897 0
-774 -901 0
-779 -902 0
-780 -903 0
-775 -922 0
-779 -924 0
-780 -925 0
-775 -929 0
-778 -930 0
-780 -931 0
-774 -935 0
-775 -936 0
-780 -937 0
-775 -941 0
-776 -942 0
-778 -944 0
-779 -945 0
-780 -946 0
-776 -972 0
-778 -974 0
-780 -975 0
-776 -979 0
-779 -980 0
-780 -981 0
-776 -997 0
-779 -999 0
-780 -1000 0
-776 -1003 0
-778 -1005 0
-780 -1006 0
-774 -1009 0
-776 -1010 0
-780 -1012 0
-775 -1028 0
-776 -1029 0
-778 -1031 0
-779 -1032 0
-780 -1033 0
-775 -1036 0
-778 -1038 0
-780 -1039 0
-775 -1042 0
-779 -1044 0
-780 -1045 0
-774 -1054 0
-776 -1055 0
-777 -1056 0
-778 -1057 0
-780 -1058 0
-774 -1061 0
-776 -1062 0
-777 -1064 0
-778 -1065 0
-779 -1066 0
-780 -1067 0
-775 -1084 0
-776 -1085 0
-777 -1087 0
-780 -1088 0
-774 -1092 0
-775 -1093 0
-776 -1094 0
-777 -1096 0
-778 -1097 0
-780 -1098 0
-775 -1101 0
-777 -1102 0
-778 -1103 0
-779 -1104 0
-780 -1105 0
-777 -1116 0
-778 -1117 0
-779 -1118 0
-780 -1119 0
-776 -1127 0
-777 -1129 0
-778 -1130 0
-779 -1131 0
-780 -1132 0
-774 -1134 0
-776 -1135 0
-777 -1136 0
-778 -1137 0
-780 -1138 0
-775 -1154 0
-776 -1155 0
-777 -1156 0
-779 -1157 0
-780 -1158 0
-775 -1160 0
-776 -1161 0
-777 -1163 0
-778 -1164 0
-780 -1165 0
-774 -1168 0
-776 -1169 0
-778 -1170 0
-780 -1171 0
-774 -1187 0
-775 -1188 0
-776 -1189 0
-779 -1190 0
-780 -1191 0
-774 -1194 0
-775 -1195 0
-778 -1197 0
-780 -1198 0
-774 -1200 0
-775 -1201 0
-778 -1202 0
-779 -1203 0
-780 -1204 0
-774 -1236 0
-776 -1237 0
-779 -1239 0
-780 -1240 0
-775 -1267 0
-776 -1268 0
-778 -1270 0
-779 -1271 0
-780 -1272 0
-774 -1274 0
-775 -1275 0
-777 -1276 0
-779 -1277 0
-780 -1278 0
-775 -1295 0
-777 -1296 0
-778 -1297 0
-779 -1298 0
-780 -1299 0
-774 -1302 0
-775 -1303 0
-777 -1304 0
-779 -1305 0
-780 -1306 0
-776 -1308 0
-777 -1310 0
-778 -1311 0
-779 -1312 0
-780 -1313 0
-775 -1323 0
-776 -1324 0
-777 -1325 0
-779 -1326 0
-780 -1327 0
-775 -1335 0
-776 -1336 0
-777 -1338 0
-778 -1339 0
-780 -1340 0
-774 -1342 0
-775 -1343 0
-779 -1345 0
-780 -1346 0
-774 -1365 0
-775 -1366 0
-778 -1368 0
-780 -1369 0
-774 -1371 0
-776 -1372 0
-778 -1374 0
-779 -1375 0
-780 -1376 0
-774 -1378 0
-776 -1379 0
-779 -1381 0
-780 -1382 0
-775 -1398 0
-776 -1399 0
-778 -1401 0
-779 -1402 0
-780 -1403 0
-774 -1410 0
-775 -1411 0
-776 -1412 0
-778 -1414 0
-780 -1415 0
-774 -1442 0
-775 -1443 0
-776 -1444 0
-777 -1445 0
-778 -1446 0
-779 -1447 0
-780 -1448 0
-778 -1468 0
-779 -1469 0
-780 -1470 0
-774 -1501 0
-775 -1502 0
-777 -1504 0
-778 -1505 0
-779 -1506 0
-780 -1507 0
-777 -1524 0
-778 -1525 0
-779 -1526 0
-780 -1527 0
-777 -1532 0
-778 -1533 0
-780 -1534 0
-774 -1537 0
-777 -1539 0
-778 -1540 0
-780 -1541 0
-775 -1544 0
-776 -1545 0
-777 -1546 0
-779 -1547 0
-780 -1548 0
-775 -1571 0
-776 -1572 0
-777 -1573 0
-780 -1574 0
-775 -1578 0
-776 -1579 0
-777 -1581 0
-778 -1582 0
-779 -1583 0
-780 -1584 0
-775 -1592 0
-776 -1593 0
-777 -1594 0
-778 -1595 0
-780 -1596 0
-776 -1605 0
-777 -1606 0
-778 -1607 0
-779 -1608 0
-780 -1609 0
-775 -1611 0
-777 -1612 0
-778 -1613 0
-779 -1614 0
-780 -1615 0
-774 -1624 0
-775 -1625 0
-776 -1626 0
-779 -1628 0
-780 -1629 0
-776 -1644 0
-778 -1646 0
-780 -1647 0
-774 -1650 0
-776 -1651 0
-780 -1653 0
-775 -1655 0
-778 -1657 0
-779 -1658 0
-780 -1659 0
-775 -1671 0
-779 -1673 0
-780 -1674 0
-776 -1683 0
-778 -1685 0
-779 -1686 0
-780 -1687 0
-774 -1689 0
-775 -1690 0
-776 -1691 0
-777 -1693 0
-780 -1694 0
-774 -1710 0
-776 -1711 0
-777 -1713 0
-778 -1714 0
-779 -1715 0
-780 -1716 0
-774 -1718 0
-775 -1719 0
-777 -1720 0
-778 -1721 0
-780 -1722 0
-774 -1724 0
-775 -1725 0
-777 -1727 0
-779 -1728 0
-780 -1729 0
-775 -1743 0
-777 -1745 0
-778 -1746 0
-780 -1747 0
-774 -1754 0
-775 -1755 0
-776 -1756 0
-777 -1757 0
-778 -1758 0
-779 -1759 0
-780 -1760 0
-775 -1782 0
-776 -1783 0
-777 -1785 0
-779 -1786 0
-780 -1787 0
-775 -1789 0
-778 -1791 0
-779 -1792 0
-780 -1793 0
-776 -1795 0
-778 -1797 0
-779 -1798 0
-780 -1799 0
-774 -1808 0
-775 -1809 0
-777 -1810 0
-778 -1811 0
-780 -1812 0
-774 -1813 0
-775 -1814 0
-776 -1815 0
-777 -1816 0
-778 -1817 0
-779 -1818 0
-780 -1819 0
-776 -1833 0
-777 -1834 0
-778 -1835 0
-779 -1836 0
-780 -1837 0
-778 -1882 0
-779 -1883 0
-780 -1884 0
-775 -1913 0
-776 -1914 0
-778 -1915 0
-779 -1916 0
-780 -1917 0
-776 -1933 0
-777 -1935 0
-779 -1936 0
-780 -1937 0
-775 -1945 0
-776 -1946 0
-777 -1948 0
-779 -1949 0
-780 -1950 0
-775 -1953 0
-777 -1955 0
-778 -1956 0
-779 -1957 0
-780 -1958 0
-782 -797 0
-784 -798 0
-786 -799 0
-783 -819 0
-784 -820 0
-786 -821 0
-786 -837 0
-782 -878 0
-786 -879 0
-783 -884 0
-786 -885 0
-781 -894 0
-782 -895 0
-784 -896 0
-786 -897 0
-781 -907 0
-782 -910 0
-783 -911 0
-786 -912 0
-783 -917 0
-786 -918 0
-784 -930 0
-786 -931 0
-781 -935 0
-786 -937 0
-782 -950 0
-783 -951 0
-784 -952 0
-786 -953 0
-782 -973 0
-784 -974 0
-786 -975 0
-782 -986 0
-783 -987 0
-786 -988 0
-782 -992 0
-783 -993 0
-786 -994 0
-782 -1004 0
-784 -1005 0
-786 -1006 0
-781 -1009 0
-782 -1011 0
-786 -1012 0
-783 -1022 0
-784 -1023 0
-786 -1024 0
-782 -1037 0
-784 -1038 0
-786 -1039 0
-782 -1049 0
-783 -1050 0
-786 -1051 0
-781 -1054 0
-783 -1056 0
-784 -1057 0
-786 -1058 0
-781 -1070 0
-784 -1073 0
-786 -1074 0
-782 -1078 0
-783 -1079 0
-784 -1080 0
-786 -1081 0
-782 -1086 0
-783 -1087 0
-786 -1088 0
-781 -1092 0
-782 -1095 0
-783 -1096 0
-784 -1097 0
-786 -1098 0
-783 -1123 0
-784 -1124 0
-786 -1125 0
-781 -1134 0
-783 -1136 0
-784 -1137 0
-786 -1138 0
-782 -1149 0
-783 -1150 0
-786 -1151 0
-782 -1162 0
-783 -1163 0
-784 -1164 0
-786 -1165 0
-781 -1168 0
-784 -1170 0
-786 -1171 0
-781 -1181 0
-782 -1182 0
-783 -1183 0
-786 -1184 0
-781 -1194 0
-782 -1196 0
-784 -1197 0
-786 -1198 0
-781 -1206 0
-782 -1208 0
-783 -1209 0
-784 -1210 0
-786 -1211 0
-783 -1216 0
-784 -1217 0
-786 -1218 0
-781 -1230 0
-783 -1233 0
-786 -1234 0
-782 -1262 0
-783 -1263 0
-784 -1264 0
-786 -1265 0
-781 -1280 0
-782 -1283 0
-785 -1284 0
-786 -1285 0
-783 -1290 0
-785 -1291 0
-786 -1292 0
-783 -1296 0
-784 -1297 0
-785 -1298 0
-786 -1299 0
-781 -1302 0
-783 -1304 0
-785 -1305 0
-786 -1306 0
-783 -1330 0
-784 -1331 0
-785 -1332 0
-786 -1333 0
-781 -1342 0
-782 -1344 0
-785 -1345 0
-786 -1346 0
-781 -1356 0
-783 -1359 0
-784 -1360 0
-785 -1361 0
-786 -1362 0
-781 -1371 0
-782 -1373 0
-784 -1374 0
-785 -1375 0
-786 -1376 0
-781 -1384 0
-782 -1386 0
-783 -1387 0
-785 -1388 0
-786 -1389 0
-782 -1393 0
-783 -1394 0
-785 -1395 0
-786 -1396 0
-782 -1400 0
-784 -1401 0
-785 -1402 0
-786 -1403 0
-781 -1404 0
-782 -1405 0
-783 -1406 0
-784 -1407 0
-785 -1408 0
-786 -1409 0
-782 -1437 0
-783 -1438 0
-785 -1439 0
-786 -1440 0
-781 -1442 0
-783 -1445 0
-784 -1446 0
-785 -1447 0
-786 -1448 0
-781 -1450 0
-782 -1452 0
-783 -1453 0
-785 -1454 0
-786 -1455 0
-782 -1476 0
-783 -1477 0
-784 -1478 0
-786 -1479 0
-781 -1510 0
-783 -1512 0
-784 -1513 0
-786 -1514 0
-782 -1519 0
-784 -1520 0
-786 -1521 0
-782 -1531 0
-783 -1532 0
-784 -1533 0
-786 -1534 0
-781 -1537 0
-782 -1538 0
-783 -1539 0
-784 -1540 0
-786 -1541 0
-782 -1552 0
-783 -1553 0
-786 -1554 0
-783 -1573 0
-786 -1574 0
-783 -1588 0
-784 -1589 0
-786 -1590 0
-783 -1594 0
-784 -1595 0
-786 -1596 0
-782 -1600 0
-784 -1601 0
-786 -1602 0
-782 -1619 0
-783 -1620 0
-784 -1621 0
-786 -1622 0
-781 -1631 0
-782 -1633 0
-783 -1634 0
-786 -1635 0
-782 -1639 0
-783 -1640 0
-786 -1641 0
-782 -1645 0
-784 -1646 0
-786 -1647 0
-781 -1650 0
-782 -1652 0
-786 -1653 0
-782 -1678 0
-783 -1679 0
-784 -1680 0
-786 -1681 0
-781 -1689 0
-782 -1692 0
-783 -1693 0
-786 -1694 0
-781 -1703 0
-782 -1705 0
-784 -1706 0
-786 -1707 0
-781 -1718 0
-783 -1720 0
-784 -1721 0
-786 -1722 0
-781 -1731 0
-783 -1734 0
-786 -1735 0
-782 -1740 0
-786 -1741 0
-782 -1744 0
-783 -1745 0
-784 -1746 0
-786 -1747 0
-781 -1748 0
-782 -1751 0
-784 -1752 0
-786 -1753 0
-782 -1790 0
-784 -1791 0
-785 -1792 0
-786 -1793 0
-781 -1801 0
-782 -1803 0
-784 -1804 0
-785 -1805 0
-786 -1806 0
-781 -1820 0
-782 -1821 0
-783 -1822 0
-784 -1823 0
-785 -1824 0
-786 -1825 0
-784 -1829 0
-785 -1830 0
-786 -1831 0
-783 -1834 0
-784 -1835 0
-785 -1836 0
-786 -1837 0
-781 -1839 0
-782 -1840 0
-783 -1841 0
-784 -1842 0
-785 -1843 0
-786 -1844 0
-783 -1889 0
-784 -1890 0
-786 -1891 0
-782 -1920 0
-783 -1921 0
-784 -1922 0
-786 -1923 0
-787 -983 0
-789 -987 0
-792 -988 0
-787 -1026 0
-790 -1031 0
-791 -1032 0
-792 -1033 0
-789 -1050 0
-792 -1051 0
-789 -1156 0
-791 -1157 0
-792 -1158 0
-787 -1186 0
-791 -1190 0
-792 -1191 0
-789 -1209 0
-790 -1210 0
-792 -1211 0
-791 -1239 0
-792 -1240 0
-787 -1248 0
-789 -1251 0
-791 -1252 0
-792 -1253 0
-789 -1256 0
-790 -1257 0
-791 -1258 0
-792 -1259 0
-790 -1270 0
-791 -1271 0
-792 -1272 0
-789 -1338 0
-790 -1339 0
-792 -1340 0
-787 -1364 0
-790 -1368 0
-792 -1369 0
-789 -1387 0
-791 -1388 0
-792 -1389 0
-790 -1401 0
-791 -1402 0
-792 -1403 0
-790 -1414 0
-792 -1415 0
-787 -1422 0
-789 -1425 0
-790 -1426 0
-791 -1427 0
-792 -1428 0
-789 -1432 0
-790 -1433 0
-792 -1434 0
-787 -1471 0
-788 -1472 0
-789 -1477 0
-790 -1478 0
-792 -1479 0
-788 -1487 0
-789 -1490 0
-791 -1491 0
-792 -1492 0
-787 -1493 0
-789 -1496 0
-791 -1497 0
-792 -1498 0
-787 -1508 0
-788 -1509 0
-789 -1512 0
-790 -1513 0
-792 -1514 0
-787 -1522 0
-788 -1523 0
-789 -1524 0
-790 -1525 0
-791 -1526 0
-792 -1527 0
-787 -1529 0
-788 -1530 0
-789 -1532 0
-790 -1533 0
-792 -1534 0
-787 -1535 0
-789 -1539 0
-790 -1540 0
-792 -1541 0
-787 -1549 0
-788 -1550 0
-789 -1553 0
-792 -1554 0
-788 -1556 0
-789 -1558 0
-790 -1559 0
-791 -1560 0
-792 -1561 0
-787 -1562 0
-789 -1566 0
-791 -1567 0
-792 -1568 0
-787 -1569 0
-789 -1573 0
-792 -1574 0
-787 -1576 0
-789 -1581 0
-790 -1582 0
-791 -1583 0
-792 -1584 0
-788 -1591 0
-789 -1594 0
-790 -1595 0
-792 -1596 0
-787 -1597 0
-790 -1601 0
-792 -1602 0
-789 -1612 0
-790 -1613 0
-791 -1614 0
-792 -1615 0
-788 -1630 0
-789 -1634 0
-792 -1635 0
-788 -1643 0
-790 -1646 0
-792 -1647 0
-787 -1648 0
-792 -1653 0
-789 -1665 0
-790 -1666 0
-791 -1667 0
-792 -1668 0
-791 -1673 0
-792 -1674 0
-789 -1679 0
-790 -1680 0
-792 -1681 0
-787 -1688 0
-789 -1693 0
-792 -1694 0
-787 -1695 0
-791 -1699 0
-792 -1700 0
-787 -1702 0
-790 -1706 0
-792 -1707 0
-787 -1717 0
-789 -1720 0
-790 -1721 0
-792 -1722 0
-789 -1727 0
-791 -1728 0
-792 -1729 0
-787 -1737 0
-792 -1741 0
-790 -1752 0
-792 -1753 0
-787 -1761 0
-789 -1764 0
-790 -1765 0
-791 -1766 0
-792 -1767 0
-788 -1788 0
-790 -1791 0
-791 -1792 0
-792 -1793 0
-790 -1797 0
-791 -1798 0
-792 -1799 0
-787 -1800 0
-790 -1804 0
-791 -1805 0
-792 -1806 0
-789 -1816 0
-790 -1817 0
-791 -1818 0
-792 -1819 0
-787 -1826 0
-790 -1829 0
-791 -1830 0
-792 -1831 0
-789 -1841 0
-790 -1842 0
-791 -1843 0
-792 -1844 0
-787 -1886 0
-789 -1889 0
-790 -1890 0
-792 -1891 0
-787 -1906 0
-789 -1909 0
-791 -1910 0
-792 -1911 0
-787 -1918 0
-789 -1921 0
-790 -1922 0
-792 -1923 0
-793 -977 0
-796 -979 0
-799 -981 0
-793 -1020 0
-798 -1023 0
-799 -1024 0
-795 -1042 0
-797 -1043 0
-799 -1045 0
-797 -1115 0
-798 -1117 0
-799 -1119 0
-796 -1148 0
-797 -1149 0
-799 -1151 0
-793 -1180 0
-797 -1182 0
-799 -1184 0
-795 -1201 0
-798 -1202 0
-799 -1204 0
-793 -1213 0
-795 -1214 0
-796 -1215 0
-798 -1217 0
-799 -1218 0
-795 -1231 0
-796 -1232 0
-799 -1234 0
-793 -1242 0
-795 -1243 0
-799 -1246 0
-796 -1255 0
-798 -1257 0
-799 -1259 0
-795 -1261 0
-797 -1262 0
-798 -1264 0
-799 -1265 0
-795 -1323 0
-796 -1324 0
-799 -1327 0
-795 -1329 0
-798 -1331 0
-799 -1333 0
-793 -1355 0
-795 -1357 0
-796 -1358 0
-798 -1360 0
-799 -1362 0
-796 -1379 0
-797 -1380 0
-799 -1382 0
-793 -1391 0
-796 -1392 0
-797 -1393 0
-799 -1396 0
-795 -1398 0
-796 -1399 0
-797 -1400 0
-798 -1401 0
-799 -1403 0
-797 -1405 0
-798 -1407 0
-799 -1409 0
-793 -1416 0
-796 -1417 0
-797 -1418 0
-798 -1420 0
-799 -1421 0
-795 -1430 0
-797 -1431 0
-798 -1433 0
-799 -1434 0
-795 -1435 0
-796 -1436 0
-797 -1437 0
-799 -1440 0
-795 -1451 0
-797 -1452 0
-799 -1455 0
-793 -1464 0
-794 -1465 0
-797 -1467 0
-798 -1468 0
-799 -1470 0
-794 -1480 0
-795 -1482 0
-797 -1483 0
-799 -1486 0
-793 -1493 0
-797 -1495 0
-799 -1498 0
-793 -1499 0
-794 -1500 0
-795 -1502 0
-797 -1503 0
-798 -1505 0
-799 -1507 0
-793 -1515 0
-794 -1516 0
-795 -1517 0
-796 -1518 0
-797 -1519 0
-798 -1520 0
-799 -1521 0
-793 -1529 0
-794 -1530 0
-797 -1531 0
-798 -1533 0
-799 -1534 0
-793 -1535 0
-797 -1538 0
-798 -1540 0
-799 -1541 0
-793 -1542 0
-794 -1543 0
-795 -1544 0
-796 -1545 0
-799 -1548 0
-794 -1556 0
-795 -1557 0
-798 -1559 0
-799 -1561 0
-793 -1562 0
-795 -1565 0
-799 -1568 0
-793 -1569 0
-795 -1571 0
-796 -1572 0
-799 -1574 0
-793 -1586 0
-798 -1589 0
-799 -1590 0
-794 -1591 0
-795 -1592 0
-796 -1593 0
-798 -1595 0
-799 -1596 0
-793 -1603 0
-796 -1605 0
-798 -1607 0
-799 -1609 0
-795 -1617 0
-796 -1618 0
-797 -1619 0
-798 -1621 0
-799 -1622 0
-794 -1623 0
-795 -1625 0
-796 -1626 0
-797 -1627 0
-799 -1629 0
-793 -1636 0
-794 -1637 0
-795 -1638 0
-797 -1639 0
-799 -1641 0
-794 -1643 0
-796 -1644 0
-797 -1645 0
-798 -1646 0
-799 -1647 0
-793 -1648 0
-796 -1651 0
-797 -1652 0
-799 -1653 0
-794 -1654 0
-795 -1655 0
-797 -1656 0
-798 -1657 0
-799 -1659 0
-795 -1662 0
-796 -1663 0
-797 -1664 0
-798 -1666 0
-799 -1668 0
-796 -1683 0
-797 -1684 0
-798 -1685 0
-799 -1687 0
-793 -1688 0
-795 -1690 0
-796 -1691 0
-797 -1692 0
-799 -1694 0
-793 -1695 0
-795 -1697 0
-797 -1698 0
-799 -1700 0
-793 -1709 0
-796 -1711 0
-797 -1712 0
-798 -1714 0
-799 -1716 0
-793 -1717 0
-795 -1719 0
-798 -1721 0
-799 -1722 0
-795 -1732 0
-796 -1733 0
-799 -1735 0
-795 -1755 0
-796 -1756 0
-798 -1758 0
-799 -1760 0
-793 -1768 0
-795 -1769 0
-796 -1770 0
-798 -1771 0
-799 -1773 0
-795 -1782 0
-796 -1783 0
-797 -1784 0
-799 -1787 0
-794 -1788 0
-795 -1789 0
-797 -1790 0
-798 -1791 0
-799 -1793 0
-793 -1807 0
-795 -1809 0
-798 -1811 0
-799 -1812 0
-797 -1821 0
-798 -1823 0
-799 -1825 0
-793 -1880 0
-797 -1881 0
-798 -1882 0
-799 -1884 0
-793 -1900 0
-795 -1901 0
-799 -1904 0
-793 -1912 0
-795 -1913 0
-796 -1914 0
-798 -1915 0
-799 -1917 0
-793 -1932 0
-796 -1933 0
-797 -1934 0
-799 -1937 0
-795 -1939 0
-796 -1940 0
-797 -1941 0
-798 -1942 0
-799 -1944 0
-795 -1945 0
-796 -1946 0
-797 -1947 0
-799 -1950 0
-793 -1952 0
-795 -1953 0
-797 -1954 0
-798 -1956 0
-799 -1958 0
-800 -969 0
-803 -972 0
-805 -975 0
-804 -1017 0
-805 -1018 0
-802 -1036 0
-805 -1039 0
-803 -1141 0
-804 -1144 0
-805 -1145 0
-802 -1160 0
-803 -1161 0
-805 -1165 0
-800 -1172 0
-804 -1177 0
-805 -1178 0
-800 -1192 0
-802 -1195 0
-805 -1198 0
-800 -1212 0
-802 -1214 0
-803 -1215 0
-805 -1218 0
-802 -1222 0
-803 -1223 0
-804 -1227 0
-805 -1228 0
-800 -1241 0
-802 -1243 0
-804 -1245 0
-805 -1246 0
-800 -1247 0
-803 -1249 0
-804 -1252 0
-805 -1253 0
-800 -1260 0
-802 -1261 0
-805 -1265 0
-800 -1266 0
-802 -1267 0
-803 -1268 0
-804 -1271 0
-805 -1272 0
-802 -1349 0
-803 -1350 0
-805 -1353 0
-803 -1372 0
-804 -1375 0
-805 -1376 0
-800 -1390 0
-803 -1392 0
-804 -1395 0
-805 -1396 0
-803 -1417 0
-805 -1421 0
-802 -1423 0
-804 -1427 0
-805 -1428 0
-802 -1435 0
-803 -1436 0
-804 -1439 0
-805 -1440 0
-804 -1497 0
-805 -1498 0
-801 -1516 0
-802 -1517 0
-803 -1518 0
-805 -1521 0
-801 -1523 0
-804 -1526 0
-805 -1527 0
-805 -1541 0
-801 -1543 0
-802 -1544 0
-803 -1545 0
-804 -1547 0
-805 -1548 0
-801 -1550 0
-802 -1551 0
-805 -1554 0
-802 -1565 0
-804 -1567 0
-805 -1568 0
-800 -1575 0
-802 -1578 0
-803 -1579 0
-804 -1583 0
-805 -1584 0
-800 -1585 0
-805 -1590 0
-802 -1599 0
-805 -1602 0
-803 -1605 0
-804 -1608 0
-805 -1609 0
-802 -1611 0
-804 -1614 0
-805 -1615 0
-802 -1617 0
-803 -1618 0
-805 -1622 0
-801 -1637 0
-802 -1638 0
-805 -1641 0
-803 -1651 0
-805 -1653 0
-801 -1654 0
-802 -1655 0
-804 -1658 0
-805 -1659 0
-802 -1662 0
-803 -1663 0
-804 -1667 0
-805 -1668 0
-800 -1669 0
-802 -1671 0
-804 -1673 0
-805 -1674 0
-802 -1676 0
-803 -1677 0
-805 -1681 0
-803 -1683 0
-804 -1686 0
-805 -1687 0
-802 -1690 0
-803 -1691 0
-805 -1694 0
-800 -1701 0
-802 -1704 0
-805 -1707 0
-800 -1708 0
-803 -1711 0
-804 -1715 0
-805 -1716 0
-800 -1723 0
-802 -1725 0
-804 -1728 0
-805 -1729 0
-800 -1730 0
-802 -1732 0
-803 -1733 0
-805 -1735 0
-800 -1742 0
-802 -1743 0
-805 -1747 0
-802 -1749 0
-803 -1750 0
-805 -1753 0
-802 -1755 0
-803 -1756 0
-804 -1759 0
-805 -1760 0
-800 -1774 0
-802 -1775 0
-803 -1776 0
-804 -1779 0
-805 -1780 0
-803 -1795 0
-804 -1798 0
-805 -1799 0
-803 -1802 0
-804 -1805 0
-805 -1806 0
-802 -1809 0
-805 -1812 0
-802 -1814 0
-803 -1815 0
-804 -1818 0
-805 -1819 0
-804 -1824 0
-805 -1825 0
-800 -1832 0
-803 -1833 0
-804 -1836 0
-805 -1837 0
-804 -1843 0
-805 -1844 0
-802 -1893 0
-804 -1897 0
-805 -1898 0
-806 -1213 0
-810 -1214 0
-811 -1215 0
-812 -1217 0
-814 -1218 0
-806 -1242 0
-810 -1243 0
-813 -1245 0
-814 -1246 0
-806 -1248 0
-811 -1249 0
-813 -1252 0
-814 -1253 0
-811 -1255 0
-812 -1257 0
-813 -1258 0
-814 -1259 0
-810 -1261 0
-812 -1264 0
-814 -1265 0
-810 -1267 0
-811 -1268 0
-812 -1270 0
-813 -1271 0
-814 -1272 0
-806 -1391 0
-811 -1392 0
-813 -1395 0
-814 -1396 0
-810 -1398 0
-811 -1399 0
-812 -1401 0
-813 -1402 0
-814 -1403 0
-806 -1416 0
-811 -1417 0
-812 -1420 0
-814 -1421 0
-806 -1422 0
-810 -1423 0
-812 -1426 0
-813 -1427 0
-814 -1428 0
-810 -1430 0
-812 -1433 0
-814 -1434 0
-810 -1435 0
-811 -1436 0
-813 -1439 0
-814 -1440 0
-806 -1515 0
-807 -1516 0
-810 -1517 0
-811 -1518 0
-812 -1520 0
-814 -1521 0
-806 -1522 0
-807 -1523 0
-812 -1525 0
-813 -1526 0
-814 -1527 0
-806 -1529 0
-807 -1530 0
-812 -1533 0
-814 -1534 0
-806 -1542 0
-807 -1543 0
-810 -1544 0
-811 -1545 0
-813 -1547 0
-814 -1548 0
-806 -1549 0
-807 -1550 0
-810 -1551 0
-814 -1554 0
-807 -1556 0
-810 -1557 0
-812 -1559 0
-813 -1560 0
-814 -1561 0
-806 -1569 0
-808 -1570 0
-810 -1571 0
-811 -1572 0
-814 -1574 0
-806 -1576 0
-808 -1577 0
-810 -1578 0
-811 -1579 0
-812 -1582 0
-813 -1583 0
-814 -1584 0
-806 -1586 0
-808 -1587 0
-812 -1589 0
-814 -1590 0
-807 -1591 0
-810 -1592 0
-811 -1593 0
-812 -1595 0
-814 -1596 0
-806 -1597 0
-808 -1598 0
-810 -1599 0
-812 -1601 0
-814 -1602 0
-806 -1603 0
-808 -1604 0
-811 -1605 0
-812 -1607 0
-813 -1608 0
-814 -1609 0
-808 -1610 0
-810 -1611 0
-812 -1613 0
-813 -1614 0
-814 -1615 0
-808 -1616 0
-810 -1617 0
-811 -1618 0
-812 -1621 0
-814 -1622 0
-806 -1636 0
-807 -1637 0
-810 -1638 0
-814 -1641 0
-807 -1643 0
-811 -1644 0
-812 -1646 0
-814 -1647 0
-807 -1654 0
-810 -1655 0
-812 -1657 0
-813 -1658 0
-814 -1659 0
-808 -1670 0
-810 -1671 0
-813 -1673 0
-814 -1674 0
-808 -1675 0
-810 -1676 0
-811 -1677 0
-812 -1680 0
-814 -1681 0
-808 -1682 0
-811 -1683 0
-812 -1685 0
-813 -1686 0
-814 -1687 0
-806 -1695 0
-809 -1696 0
-810 -1697 0
-813 -1699 0
-814 -1700 0
-806 -1702 0
-809 -1703 0
-810 -1704 0
-812 -1706 0
-814 -1707 0
-806 -1709 0
-809 -1710 0
-811 -1711 0
-812 -1714 0
-813 -1715 0
-814 -1716 0
-806 -1717 0
-809 -1718 0
-810 -1719 0
-812 -1721 0
-814 -1722 0
-809 -1724 0
-810 -1725 0
-813 -1728 0
-814 -1729 0
-809 -1731 0
-810 -1732 0
-811 -1733 0
-814 -1735 0
-809 -1748 0
-810 -1749 0
-811 -1750 0
-812 -1752 0
-814 -1753 0
-809 -1754 0
-810 -1755 0
-811 -1756 0
-812 -1758 0
-813 -1759 0
-814 -1760 0
-807 -1788 0
-810 -1789 0
-812 -1791 0
-813 -1792 0
-814 -1793 0
-808 -1794 0
-811 -1795 0
-812 -1797 0
-813 -1798 0
-814 -1799 0
-806 -1800 0
-809 -1801 0
-811 -1802 0
-812 -1804 0
-813 -1805 0
-814 -1806 0
-806 -1807 0
-809 -1808 0
-810 -1809 0
-812 -1811 0
-814 -1812 0
-809 -1813 0
-810 -1814 0
-811 -1815 0
-812 -1817 0
-813 -1818 0
-814 -1819 0
-809 -1820 0
-812 -1823 0
-813 -1824 0
-814 -1825 0
-809 -1839 0
-812 -1842 0
-813 -1843 0
-814 -1844 0
-816 -955 0
-819 -957 0
-821 -959 0
-816 -1002 0
-820 -1005 0
-821 -1006 0
-817 -1041 0
-818 -1042 0
-821 -1045 0
-817 -1047 0
-819 -1050 0
-821 -1051 0
-818 -1201 0
-820 -1202 0
-821 -1204 0
-819 -1209 0
-820 -1210 0
-821 -1211 0
-818 -1231 0
-819 -1233 0
-821 -1234 0
-821 -1240 0
-819 -1256 0
-820 -1257 0
-821 -1259 0
-818 -1261 0
-819 -1263 0
-820 -1264 0
-821 -1265 0
-818 -1267 0
-820 -1270 0
-821 -1272 0
-821 -1382 0
-818 -1385 0
-819 -1387 0
-821 -1389 0
-818 -1398 0
-820 -1401 0
-821 -1403 0
-819 -1406 0
-820 -1407 0
-821 -1409 0
-818 -1411 0
-820 -1414 0
-821 -1415 0
-818 -1430 0
-819 -1432 0
-820 -1433 0
-821 -1434 0
-818 -1435 0
-819 -1438 0
-821 -1440 0
-816 -1457 0
-819 -1460 0
-820 -1461 0
-821 -1463 0
-816 -1480 0
-817 -1481 0
-818 -1482 0
-819 -1484 0
-821 -1486 0
-816 -1487 0
-817 -1488 0
-819 -1490 0
-821 -1492 0
-815 -1499 0
-816 -1500 0
-818 -1502 0
-819 -1504 0
-820 -1505 0
-821 -1507 0
-815 -1508 0
-816 -1509 0
-819 -1512 0
-820 -1513 0
-821 -1514 0
-815 -1529 0
-816 -1530 0
-819 -1532 0
-820 -1533 0
-821 -1534 0
-815 -1542 0
-816 -1543 0
-818 -1544 0
-819 -1546 0
-821 -1548 0
-815 -1549 0
-816 -1550 0
-818 -1551 0
-819 -1553 0
-821 -1554 0
-815 -1562 0
-817 -1563 0
-818 -1565 0
-819 -1566 0
-821 -1568 0
-815 -1576 0
-817 -1577 0
-818 -1578 0
-819 -1581 0
-820 -1582 0
-821 -1584 0
-815 -1586 0
-817 -1587 0
-819 -1588 0
-820 -1589 0
-821 -1590 0
-815 -1597 0
-817 -1598 0
-818 -1599 0
-820 -1601 0
-821 -1602 0
-815 -1603 0
-817 -1604 0
-819 -1606 0
-820 -1607 0
-821 -1609 0
-816 -1623 0
-818 -1625 0
-821 -1629 0
-816 -1630 0
-819 -1634 0
-821 -1635 0
-816 -1643 0
-820 -1646 0
-821 -1647 0
-816 -1654 0
-818 -1655 0
-820 -1657 0
-821 -1659 0
-817 -1660 0
-818 -1662 0
-819 -1665 0
-820 -1666 0
-821 -1668 0
-817 -1670 0
-818 -1671 0
-821 -1674 0
-817 -1675 0
-818 -1676 0
-819 -1679 0
-820 -1680 0
-821 -1681 0
-817 -1682 0
-820 -1685 0
-821 -1687 0
-815 -1688 0
-818 -1690 0
-819 -1693 0
-821 -1694 0
-815 -1702 0
-818 -1704 0
-820 -1706 0
-821 -1707 0
-815 -1709 0
-819 -1713 0
-820 -1714 0
-821 -1716 0
-815 -1717 0
-818 -1719 0
-819 -1720 0
-820 -1721 0
-821 -1722 0
-815 -1737 0
-818 -1738 0
-821 -1741 0
-815 -1761 0
-818 -1762 0
-819 -1764 0
-820 -1765 0
-821 -1767 0
-815 -1768 0
-818 -1769 0
-820 -1771 0
-821 -1773 0
-816 -1788 0
-818 -1789 0
-820 -1791 0
-821 -1793 0
-817 -1794 0
-820 -1797 0
-821 -1799 0
-815 -1800 0
-820 -1804 0
-821 -1806 0
-815 -1807 0
-818 -1809 0
-819 -1810 0
-820 -1811 0
-821 -1812 0
-815 -1826 0
-818 -1827 0
-820 -1829 0
-821 -1831 0
-819 -1841 0
-820 -1842 0
-821 -1844 0
-815 -1900 0
-818 -1901 0
-819 -1902 0
-821 -1904 0
-815 -1906 0
-819 -1909 0
-821 -1911 0
-815 -1912 0
-818 -1913 0
-820 -1915 0
-821 -1917 0
-815 -1918 0
-819 -1921 0
-820 -1922 0
-821 -1923 0
-818 -1939 0
-820 -1942 0
-821 -1944 0
-818 -1945 0
-819 -1948 0
-821 -1950 0
-822 -947 0
-823 -948 0
-824 -949 0
-827 -950 0
-828 -951 0
-830 -953 0
-823 -995 0
-824 -996 0
-827 -998 0
-829 -999 0
-830 -1000 0
-823 -1034 0
-825 -1035 0
-826 -1036 0
-827 -1037 0
-830 -1039 0
-822 -1046 0
-825 -1047 0
-827 -1049 0
-828 -1050 0
-830 -1051 0
-824 -1126 0
-827 -1128 0
-828 -1129 0
-829 -1131 0
-830 -1132 0
-825 -1159 0
-826 -1160 0
-827 -1162 0
-828 -1163 0
-830 -1165 0
-822 -1192 0
-823 -1193 0
-826 -1195 0
-827 -1196 0
-830 -1198 0
-822 -1205 0
-827 -1208 0
-828 -1209 0
-830 -1211 0
-823 -1220 0
-826 -1222 0
-827 -1224 0
-828 -1225 0
-829 -1227 0
-830 -1228 0
-822 -1235 0
-827 -1238 0
-829 -1239 0
-830 -1240 0
-822 -1247 0
-823 -1248 0
-827 -1250 0
-828 -1251 0
-829 -1252 0
-830 -1253 0
-822 -1260 0
-826 -1261 0
-827 -1262 0
-828 -1263 0
-830 -1265 0
-823 -1370 0
-827 -1373 0
-829 -1375 0
-830 -1376 0
-822 -1383 0
-826 -1385 0
-827 -1386 0
-828 -1387 0
-829 -1388 0
-830 -1389 0
-826 -1411 0
-827 -1413 0
-830 -1415 0
-823 -1422 0
-826 -1423 0
-827 -1424 0
-828 -1425 0
-829 -1427 0
-830 -1428 0
-826 -1435 0
-827 -1437 0
-828 -1438 0
-829 -1439 0
-830 -1440 0
-824 -1487 0
-825 -1488 0
-828 -1490 0
-829 -1491 0
-830 -1492 0
-823 -1508 0
-824 -1509 0
-828 -1512 0
-830 -1514 0
-823 -1522 0
-824 -1523 0
-828 -1524 0
-829 -1526 0
-830 -1527 0
-823 -1542 0
-824 -1543 0
-826 -1544 0
-828 -1546 0
-829 -1547 0
-830 -1548 0
-822 -1555 0
-824 -1556 0
-826 -1557 0
-828 -1558 0
-829 -1560 0
-830 -1561 0
-823 -1562 0
-825 -1563 0
-826 -1565 0
-828 -1566 0
-829 -1567 0
-830 -1568 0
-823 -1569 0
-825 -1570 0
-826 -1571 0
-828 -1573 0
-830 -1574 0
-822 -1585 0
-823 -1586 0
-825 -1587 0
-828 -1588 0
-830 -1590 0
-824 -1591 0
-826 -1592 0
-828 -1594 0
-830 -1596 0
-823 -1603 0
-825 -1604 0
-828 -1606 0
-829 -1608 0
-830 -1609 0
-825 -1610 0
-826 -1611 0
-828 -1612 0
-829 -1614 0
-830 -1615 0
-824 -1630 0
-827 -1633 0
-828 -1634 0
-830 -1635 0
-824 -1654 0
-826 -1655 0
-827 -1656 0
-829 -1658 0
-830 -1659 0
-825 -1660 0
-826 -1662 0
-827 -1664 0
-828 -1665 0
-829 -1667 0
-830 -1668 0
-825 -1682 0
-827 -1684 0
-829 -1686 0
-830 -1687 0
-823 -1688 0
-826 -1690 0
-827 -1692 0
-828 -1693 0
-830 -1694 0
-823 -1695 0
-826 -1697 0
-827 -1698 0
-829 -1699 0
-830 -1700 0
-822 -1708 0
-823 -1709 0
-827 -1712 0
-828 -1713 0
-829 -1715 0
-830 -1716 0
-822 -1723 0
-826 -1725 0
-827 -1726 0
-828 -1727 0
-829 -1728 0
-830 -1729 0
-822 -1736 0
-823 -1737 0
-826 -1738 0
-827 -1740 0
-830 -1741 0
-822 -1742 0
-826 -1743 0
-827 -1744 0
-828 -1745 0
-830 -1747 0
-826 -1749 0
-827 -1751 0
-830 -1753 0
-823 -1761 0
-826 -1762 0
-827 -1763 0
-828 -1764 0
-829 -1766 0
-830 -1767 0
-822 -1774 0
-826 -1775 0
-827 -1777 0
-829 -1779 0
-830 -1780 0
-823 -1807 0
-826 -1809 0
-828 -1810 0
-830 -1812 0
-826 -1814 0
-828 -1816 0
-829 -1818 0
-830 -1819 0
-823 -1826 0
-826 -1827 0
-829 -1830 0
-830 -1831 0
-822 -1832 0
-828 -1834 0
-829 -1836 0
-830 -1837 0
-823 -1892 0
-826 -1893 0
-827 -1894 0
-828 -1895 0
-829 -1897 0
-830 -1898 0
-822 -1905 0
-823 -1906 0
-827 -1908 0
-828 -1909 0
-829 -1910 0
-830 -1911 0
-823 -1918 0
-827 -1920 0
-828 -1921 0
-830 -1923 0
-831 -938 0
-832 -939 0
-833 -940 0
-835 -941 0
-836 -942 0
-837 -946 0
-832 -989 0
-833 -990 0
-835 -991 0
-837 -994 0
-832 -1034 0
-834 -1035 0
-835 -1036 0
-837 -1039 0
-831 -1040 0
-834 -1041 0
-835 -1042 0
-837 -1045 0
-831 -1099 0
-833 -1100 0
-835 -1101 0
-837 -1105 0
-833 -1120 0
-835 -1121 0
-836 -1122 0
-837 -1125 0
-834 -1159 0
-835 -1160 0
-836 -1161 0
-837 -1165 0
-831 -1192 0
-832 -1193 0
-835 -1195 0
-837 -1198 0
-831 -1199 0
-835 -1201 0
-837 -1204 0
-831 -1212 0
-832 -1213 0
-835 -1214 0
-836 -1215 0
-837 -1218 0
-832 -1220 0
-835 -1222 0
-836 -1223 0
-837 -1228 0
-831 -1229 0
-835 -1231 0
-836 -1232 0
-837 -1234 0
-831 -1241 0
-832 -1242 0
-835 -1243 0
-837 -1246 0
-831 -1266 0
-835 -1267 0
-836 -1268 0
-837 -1272 0
-833 -1307 0
-836 -1308 0
-837 -1313 0
-832 -1370 0
-836 -1372 0
-837 -1376 0
-831 -1377 0
-836 -1379 0
-837 -1382 0
-831 -1390 0
-832 -1391 0
-836 -1392 0
-837 -1396 0
-837 -1409 0
-832 -1416 0
-836 -1417 0
-837 -1421 0
-833 -1480 0
-834 -1481 0
-835 -1482 0
-837 -1486 0
-832 -1499 0
-833 -1500 0
-835 -1502 0
-837 -1507 0
-832 -1515 0
-833 -1516 0
-835 -1517 0
-836 -1518 0
-837 -1521 0
-832 -1549 0
-833 -1550 0
-835 -1551 0
-837 -1554 0
-831 -1555 0
-833 -1556 0
-835 -1557 0
-837 -1561 0
-832 -1562 0
-834 -1563 0
-835 -1565 0
-837 -1568 0
-832 -1569 0
-834 -1570 0
-835 -1571 0
-836 -1572 0
-837 -1574 0
-831 -1575 0
-832 -1576 0
-834 -1577 0
-835 -1578 0
-836 -1579 0
-837 -1584 0
-833 -1591 0
-835 -1592 0
-836 -1593 0
-837 -1596 0
-832 -1597 0
-834 -1598 0
-835 -1599 0
-837 -1602 0
-834 -1616 0
-835 -1617 0
-836 -1618 0
-837 -1622 0
-833 -1623 0
-835 -1625 0
-836 -1626 0
-837 -1629 0
-832 -1636 0
-833 -1637 0
-835 -1638 0
-837 -1641 0
-834 -1660 0
-835 -1662 0
-836 -1663 0
-837 -1668 0
-831 -1669 0
-834 -1670 0
-835 -1671 0
-837 -1674 0
-834 -1675 0
-835 -1676 0
-836 -1677 0
-837 -1681 0
-832 -1688 0
-835 -1690 0
-836 -1691 0
-837 -1694 0
-832 -1695 0
-835 -1697 0
-837 -1700 0
-831 -1701 0
-832 -1702 0
-835 -1704 0
-837 -1707 0
-831 -1730 0
-835 -1732 0
-836 -1733 0
-837 -1735 0
-831 -1742 0
-835 -1743 0
-837 -1747 0
-835 -1755 0
-836 -1756 0
-837 -1760 0
-832 -1768 0
-835 -1769 0
-836 -1770 0
-837 -1773 0
-831 -1774 0
-835 -1775 0
-836 -1776 0
-837 -1780 0
-834 -1794 0
-836 -1795 0
-837 -1799 0
-832 -1800 0
-836 -1802 0
-837 -1806 0
-837 -1825 0
-831 -1832 0
-836 -1833 0
-837 -1837 0
-837 -1844 0
-832 -1892 0
-835 -1893 0
-837 -1898 0
-831 -1899 0
-832 -1900 0
-835 -1901 0
-837 -1904 0
-832 -1912 0
-835 -1913 0
-836 -1914 0
-837 -1917 0
-831 -1938 0
-835 -1939 0
-836 -1940 0
-837 -1944 0
-835 -1945 0
-836 -1946 0
-837 -1950 0
-838 -927 0
-839 -928 0
-842 -930 0
-844 -931 0
-839 -1002 0
-841 -1004 0
-842 -1005 0
-844 -1006 0
-838 -1020 0
-840 -1021 0
-842 -1023 0
-844 -1024 0
-838 -1026 0
-840 -1027 0
-841 -1030 0
-842 -1031 0
-843 -1032 0
-844 -1033 0
-839 -1083 0
-841 -1086 0
-844 -1088 0
-840 -1147 0
-841 -1149 0
-844 -1151 0
-840 -1153 0
-843 -1157 0
-844 -1158 0
-838 -1180 0
-841 -1182 0
-844 -1184 0
-838 -1186 0
-843 -1190 0
-844 -1191 0
-844 -1234 0
-841 -1238 0
-843 -1239 0
-844 -1240 0
-838 -1242 0
-843 -1245 0
-844 -1246 0
-838 -1248 0
-841 -1250 0
-843 -1252 0
-844 -1253 0
-839 -1294 0
-842 -1297 0
-843 -1298 0
-844 -1299 0
-840 -1328 0
-842 -1331 0
-843 -1332 0
-844 -1333 0
-840 -1334 0
-841 -1337 0
-842 -1339 0
-844 -1340 0
-838 -1355 0
-842 -1360 0
-843 -1361 0
-844 -1362 0
-838 -1364 0
-841 -1367 0
-842 -1368 0
-844 -1369 0
-841 -1400 0
-842 -1401 0
-843 -1402 0
-844 -1403 0
-841 -1405 0
-842 -1407 0
-843 -1408 0
-844 -1409 0
-841 -1413 0
-842 -1414 0
-844 -1415 0
-838 -1416 0
-841 -1418 0
-842 -1420 0
-844 -1421 0
-838 -1422 0
-841 -1424 0
-842 -1426 0
-843 -1427 0
-844 -1428 0
-841 -1452 0
-843 -1454 0
-844 -1455 0
-839 -1457 0
-841 -1459 0
-842 -1461 0
-843 -1462 0
-844 -1463 0
-838 -1464 0
-839 -1465 0
-840 -1466 0
-841 -1467 0
-842 -1468 0
-843 -1469 0
-844 -1470 0
-838 -1471 0
-839 -1472 0
-840 -1473 0
-841 -1476 0
-842 -1478 0
-844 -1479 0
-838 -1499 0
-839 -1500 0
-841 -1503 0
-842 -1505 0
-843 -1506 0
-844 -1507 0
-838 -1508 0
-839 -1509 0
-842 -1513 0
-844 -1514 0
-838 -1515 0
-839 -1516 0
-841 -1519 0
-842 -1520 0
-844 -1521 0
-838 -1522 0
-839 -1523 0
-842 -1525 0
-843 -1526 0
-844 -1527 0
-838 -1535 0
-840 -1536 0
-841 -1538 0
-842 -1540 0
-844 -1541 0
-839 -1556 0
-842 -1559 0
-843 -1560 0
-844 -1561 0
-838 -1576 0
-840 -1577 0
-841 -1580 0
-842 -1582 0
-843 -1583 0
-844 -1584 0
-838 -1586 0
-840 -1587 0
-842 -1589 0
-844 -1590 0
-840 -1610 0
-842 -1613 0
-843 -1614 0
-844 -1615 0
-840 -1616 0
-841 -1619 0
-842 -1621 0
-844 -1622 0
-839 -1623 0
-841 -1627 0
-843 -1628 0
-844 -1629 0
-839 -1630 0
-841 -1633 0
-844 -1635 0
-838 -1636 0
-839 -1637 0
-841 -1639 0
-844 -1641 0
-838 -1648 0
-840 -1649 0
-841 -1652 0
-844 -1653 0
-840 -1670 0
-841 -1672 0
-843 -1673 0
-844 -1674 0
-838 -1688 0
-841 -1692 0
-844 -1694 0
-838 -1695 0
-841 -1698 0
-843 -1699 0
-844 -1700 0
-841 -1726 0
-843 -1728 0
-844 -1729 0
-844 -1735 0
-838 -1737 0
-841 -1740 0
-844 -1741 0
-841 -1784 0
-843 -1786 0
-844 -1787 0
-840 -1794 0
-841 -1796 0
-842 -1797 0
-843 -1798 0
-844 -1799 0
-842 -1817 0
-843 -1818 0
-844 -1819 0
-841 -1821 0
-842 -1823 0
-843 -1824 0
-844 -1825 0
-838 -1826 0
-842 -1829 0
-843 -1830 0
-844 -1831 0
-838 -1880 0
-841 -1881 0
-842 -1882 0
-843 -1883 0
-844 -1884 0
-838 -1886 0
-842 -1890 0
-844 -1891 0
-838 -1912 0
-842 -1915 0
-843 -1916 0
-844 -1917 0
-838 -1918 0
-841 -1920 0
-842 -1922 0
-844 -1923 0
-838 -1932 0
-841 -1934 0
-843 -1936 0
-844 -1937 0
-841 -1947 0
-843 -1949 0
-844 -1950 0
-838 -1952 0
-841 -1954 0
-842 -1956 0
-843 -1957 0
-844 -1958 0
-845 -919 0
-846 -921 0
-849 -924 0
-850 -925 0
-846 -996 0
-849 -999 0
-850 -1000 0
-847 -1014 0
-849 -1017 0
-850 -1018 0
-845 -1025 0
-847 -1027 0
-848 -1031 0
-849 -1032 0
-850 -1033 0
-846 -1126 0
-848 -1130 0
-849 -1131 0
-850 -1132 0
-847 -1140 0
-848 -1143 0
-849 -1144 0
-850 -1145 0
-845 -1152 0
-847 -1153 0
-849 -1157 0
-850 -1158 0
-845 -1172 0
-848 -1176 0
-849 -1177 0
-850 -1178 0
-845 -1185 0
-849 -1190 0
-850 -1191 0
-848 -1226 0
-849 -1227 0
-850 -1228 0
-845 -1235 0
-849 -1239 0
-850 -1240 0
-845 -1241 0
-849 -1245 0
-850 -1246 0
-845 -1254 0
-848 -1257 0
-849 -1258 0
-850 -1259 0
-845 -1266 0
-848 -1270 0
-849 -1271 0
-850 -1272 0
-847 -1334 0
-848 -1339 0
-850 -1340 0
-850 -1353 0
-845 -1363 0
-848 -1368 0
-850 -1369 0
-848 -1414 0
-850 -1415 0
-848 -1420 0
-850 -1421 0
-845 -1429 0
-848 -1433 0
-850 -1434 0
-846 -1472 0
-847 -1473 0
-848 -1478 0
-850 -1479 0
-846 -1509 0
-848 -1513 0
-850 -1514 0
-846 -1516 0
-848 -1520 0
-850 -1521 0
-845 -1528 0
-846 -1530 0
-848 -1533 0
-850 -1534 0
-847 -1536 0
-848 -1540 0
-850 -1541 0
-846 -1550 0
-850 -1554 0
-847 -1570 0
-850 -1574 0
-845 -1585 0
-847 -1587 0
-848 -1589 0
-850 -1590 0
-846 -1591 0
-848 -1595 0
-850 -1596 0
-847 -1598 0
-848 -1601 0
-850 -1602 0
-847 -1616 0
-848 -1621 0
-850 -1622 0
-846 -1630 0
-850 -1635 0
-846 -1637 0
-850 -1641 0
-845 -1642 0
-846 -1643 0
-848 -1646 0
-850 -1647 0
-847 -1649 0
-850 -1653 0
-847 -1675 0
-848 -1680 0
-850 -1681 0
-850 -1694 0
-845 -1701 0
-848 -1706 0
-850 -1707 0
-848 -1721 0
-850 -1722 0
-845 -1730 0
-850 -1735 0
-845 -1736 0
-850 -1741 0
-845 -1742 0
-848 -1746 0
-850 -1747 0
-848 -1752 0
-850 -1753 0
-846 -1788 0
-848 -1791 0
-849 -1792 0
-850 -1793 0
-848 -1804 0
-849 -1805 0
-850 -1806 0
-848 -1823 0
-849 -1824 0
-850 -1825 0
-848 -1829 0
-849 -1830 0
-850 -1831 0
-845 -1832 0
-848 -1835 0
-849 -1836 0
-850 -1837 0
-848 -1842 0
-849 -1843 0
-850 -1844 0
-845 -1885 0
-848 -1890 0
-850 -1891 0
-848 -1922 0
-850 -1923 0
-851 -913 0
-852 -915 0
-855 -916 0
-857 -917 0
-860 -918 0
-852 -990 0
-854 -991 0
-856 -992 0
-857 -993 0
-860 -994 0
-853 -1014 0
-856 -1015 0
-857 -1016 0
-859 -1017 0
-860 -1018 0
-851 -1019 0
-853 -1021 0
-857 -1022 0
-858 -1023 0
-860 -1024 0
-851 -1075 0
-852 -1077 0
-856 -1078 0
-857 -1079 0
-858 -1080 0
-860 -1081 0
-852 -1120 0
-854 -1121 0
-855 -1122 0
-857 -1123 0
-858 -1124 0
-860 -1125 0
-853 -1140 0
-855 -1141 0
-857 -1142 0
-858 -1143 0
-859 -1144 0
-860 -1145 0
-851 -1146 0
-853 -1147 0
-855 -1148 0
-856 -1149 0
-857 -1150 0
-860 -1151 0
-851 -1172 0
-857 -1175 0
-858 -1176 0
-859 -1177 0
-860 -1178 0
-851 -1179 0
-856 -1182 0
-857 -1183 0
-860 -1184 0
-851 -1212 0
-854 -1214 0
-855 -1215 0
-857 -1216 0
-858 -1217 0
-860 -1218 0
-854 -1222 0
-855 -1223 0
-856 -1224 0
-857 -1225 0
-858 -1226 0
-859 -1227 0
-860 -1228 0
-851 -1229 0
-854 -1231 0
-855 -1232 0
-857 -1233 0
-860 -1234 0
-851 -1247 0
-855 -1249 0
-856 -1250 0
-857 -1251 0
-859 -1252 0
-860 -1253 0
-851 -1254 0
-855 -1255 0
-857 -1256 0
-858 -1257 0
-859 -1258 0
-860 -1259 0
-851 -1260 0
-854 -1261 0
-856 -1262 0
-857 -1263 0
-858 -1264 0
-860 -1265 0
-852 -1287 0
-854 -1288 0
-855 -1289 0
-857 -1290 0
-859 -1291 0
-860 -1292 0
-853 -1328 0
-854 -1329 0
-857 -1330 0
-858 -1331 0
-859 -1332 0
-860 -1333 0
-854 -1349 0
-855 -1350 0
-856 -1351 0
-857 -1352 0
-860 -1353 0
-851 -1354 0
-854 -1357 0
-855 -1358 0
-857 -1359 0
-858 -1360 0
-859 -1361 0
-860 -1362 0
-851 -1390 0
-855 -1392 0
-856 -1393 0
-857 -1394 0
-859 -1395 0
-860 -1396 0
-856 -1405 0
-857 -1406 0
-858 -1407 0
-859 -1408 0
-860 -1409 0
-854 -1423 0
-856 -1424 0
-857 -1425 0
-858 -1426 0
-859 -1427 0
-860 -1428 0
-851 -1429 0
-854 -1430 0
-856 -1431 0
-857 -1432 0
-858 -1433 0
-860 -1434 0
-854 -1435 0
-855 -1436 0
-856 -1437 0
-857 -1438 0
-859 -1439 0
-860 -1440 0
-851 -1449 0
-854 -1451 0
-856 -1452 0
-857 -1453 0
-859 -1454 0
-860 -1455 0
-852 -1465 0
-853 -1466 0
-856 -1467 0
-858 -1468 0
-859 -1469 0
-860 -1470 0
-852 -1500 0
-854 -1502 0
-856 -1503 0
-857 -1504 0
-858 -1505 0
-859 -1506 0
-860 -1507 0
-852 -1523 0
-857 -1524 0
-858 -1525 0
-859 -1526 0
-860 -1527 0
-851 -1528 0
-852 -1530 0
-856 -1531 0
-857 -1532 0
-858 -1533 0
-860 -1534 0
-853 -1536 0
-856 -1538 0
-857 -1539 0
-858 -1540 0
-860 -1541 0
-852 -1543 0
-854 -1544 0
-855 -1545 0
-857 -1546 0
-859 -1547 0
-860 -1548 0
-853 -1570 0
-854 -1571 0
-855 -1572 0
-857 -1573 0
-860 -1574 0
-851 -1575 0
-853 -1577 0
-854 -1578 0
-855 -1579 0
-856 -1580 0
-857 -1581 0
-858 -1582 0
-859 -1583 0
-860 -1584 0
-852 -1591 0
-854 -1592 0
-855 -1593 0
-857 -1594 0
-858 -1595 0
-860 -1596 0
-853 -1604 0
-855 -1605 0
-857 -1606 0
-858 -1607 0
-859 -1608 0
-860 -1609 0
-853 -1610 0
-854 -1611 0
-857 -1612 0
-858 -1613 0
-859 -1614 0
-860 -1615 0
-852 -1623 0
-854 -1625 0
-855 -1626 0
-856 -1627 0
-859 -1628 0
-860 -1629 0
-851 -1642 0
-852 -1643 0
-855 -1644 0
-856 -1645 0
-858 -1646 0
-860 -1647 0
-853 -1649 0
-855 -1651 0
-856 -1652 0
-860 -1653 0
-852 -1654 0
-854 -1655 0
-856 -1656 0
-858 -1657 0
-859 -1658 0
-860 -1659 0
-851 -1669 0
-853 -1670 0
-854 -1671 0
-856 -1672 0
-859 -1673 0
-860 -1674 0
-853 -1682 0
-855 -1683 0
-856 -1684 0
-858 -1685 0
-859 -1686 0
-860 -1687 0
-854 -1690 0
-855 -1691 0
-856 -1692 0
-857 -1693 0
-860 -1694 0
-851 -1708 0
-855 -1711 0
-856 -1712 0
-857 -1713 0
-858 -1714 0
-859 -1715 0
-860 -1716 0
-854 -1719 0
-857 -1720 0
-858 -1721 0
-860 -1722 0
-851 -1723 0
-854 -1725 0
-856 -1726 0
-857 -1727 0
-859 -1728 0
-860 -1729 0
-851 -1742 0
-854 -1743 0
-856 -1744 0
-857 -1745 0
-858 -1746 0
-860 -1747 0
-854 -1755 0
-855 -1756 0
-857 -1757 0
-858 -1758 0
-859 -1759 0
-860 -1760 0
-854 -1782 0
-855 -1783 0
-856 -1784 0
-857 -1785 0
-859 -1786 0
-860 -1787 0
-852 -1788 0
-854 -1789 0
-856 -1790 0
-858 -1791 0
-859 -1792 0
-860 -1793 0
-853 -1794 0
-855 -1795 0
-856 -1796 0
-858 -1797 0
-859 -1798 0
-860 -1799 0
-854 -1809 0
-857 -1810 0
-858 -1811 0
-860 -1812 0
-854 -1814 0
-855 -1815 0
-857 -1816 0
-858 -1817 0
-859 -1818 0
-860 -1819 0
-851 -1832 0
-855 -1833 0
-857 -1834 0
-858 -1835 0
-859 -1836 0
-860 -1837 0
-851 -1879 0
-856 -1881 0
-858 -1882 0
-859 -1883 0
-860 -1884 0
-854 -1913 0
-855 -1914 0
-858 -1915 0
-859 -1916 0
-860 -1917 0
-851 -1931 0
-855 -1933 0
-856 -1934 0
-857 -1935 0
-859 -1936 0
-860 -1937 0
-854 -1945 0
-855 -1946 0
-856 -1947 0
-857 -1948 0
-859 -1949 0
-860 -1950 0
-854 -1953 0
-856 -1954 0
-857 -1955 0
-858 -1956 0
-859 -1957 0
-860 -1958 0
-862 -989 0
-864 -991 0
-867 -994 0
-862 -995 0
-866 -999 0
-867 -1000 0
-861 -1001 0
-865 -1005 0
-867 -1006 0
-864 -1121 0
-865 -1124 0
-867 -1125 0
-865 -1130 0
-866 -1131 0
-867 -1132 0
-862 -1220 0
-864 -1222 0
-865 -1226 0
-866 -1227 0
-867 -1228 0
-861 -1229 0
-864 -1231 0
-867 -1234 0
-861 -1235 0
-866 -1239 0
-867 -1240 0
-861 -1241 0
-862 -1242 0
-864 -1243 0
-866 -1245 0
-867 -1246 0
-861 -1247 0
-862 -1248 0
-866 -1252 0
-867 -1253 0
-861 -1254 0
-865 -1257 0
-866 -1258 0
-867 -1259 0
-861 -1260 0
-864 -1261 0
-865 -1264 0
-867 -1265 0
-861 -1266 0
-864 -1267 0
-865 -1270 0
-866 -1271 0
-867 -1272 0
-865 -1407 0
-866 -1408 0
-867 -1409 0
-864 -1411 0
-865 -1414 0
-867 -1415 0
-862 -1416 0
-865 -1420 0
-867 -1421 0
-862 -1422 0
-864 -1423 0
-865 -1426 0
-866 -1427 0
-867 -1428 0
-861 -1429 0
-864 -1430 0
-865 -1433 0
-867 -1434 0
-864 -1435 0
-866 -1439 0
-867 -1440 0
-865 -1461 0
-866 -1462 0
-867 -1463 0
-862 -1499 0
-864 -1502 0
-865 -1505 0
-866 -1506 0
-867 -1507 0
-862 -1508 0
-865 -1513 0
-867 -1514 0
-862 -1515 0
-864 -1517 0
-865 -1520 0
-867 -1521 0
-862 -1522 0
-865 -1525 0
-866 -1526 0
-867 -1527 0
-861 -1528 0
-862 -1529 0
-865 -1533 0
-867 -1534 0
-862 -1542 0
-864 -1544 0
-866 -1547 0
-867 -1548 0
-862 -1549 0
-864 -1551 0
-867 -1554 0
-861 -1555 0
-864 -1557 0
-865 -1559 0
-866 -1560 0
-867 -1561 0
-862 -1597 0
-863 -1598 0
-864 -1599 0
-865 -1601 0
-867 -1602 0
-862 -1603 0
-863 -1604 0
-865 -1607 0
-866 -1608 0
-867 -1609 0
-863 -1610 0
-864 -1611 0
-865 -1613 0
-866 -1614 0
-867 -1615 0
-863 -1616 0
-864 -1617 0
-865 -1621 0
-867 -1622 0
-864 -1625 0
-866 -1628 0
-867 -1629 0
-867 -1635 0
-862 -1636 0
-864 -1638 0
-867 -1641 0
-861 -1642 0
-865 -1646 0
-867 -1647 0
-864 -1655 0
-865 -1657 0
-866 -1658 0
-867 -1659 0
-863 -1675 0
-864 -1676 0
-865 -1680 0
-867 -1681 0
-863 -1682 0
-865 -1685 0
-866 -1686 0
-867 -1687 0
-862 -1688 0
-864 -1690 0
-867 -1694 0
-862 -1695 0
-864 -1697 0
-866 -1699 0
-867 -1700 0
-861 -1701 0
-862 -1702 0
-864 -1704 0
-865 -1706 0
-867 -1707 0
-861 -1708 0
-862 -1709 0
-865 -1714 0
-866 -1715 0
-867 -1716 0
-862 -1717 0
-864 -1719 0
-865 -1721 0
-867 -1722 0
-861 -1723 0
-864 -1725 0
-866 -1728 0
-867 -1729 0
-861 -1730 0
-864 -1732 0
-867 -1735 0
-861 -1736 0
-862 -1737 0
-864 -1738 0
-867 -1741 0
-861 -1742 0
-864 -1743 0
-865 -1746 0
-867 -1747 0
-864 -1789 0
-865 -1791 0
-866 -1792 0
-867 -1793 0
-862 -1800 0
-865 -1804 0
-866 -1805 0
-867 -1806 0
-862 -1807 0
-864 -1809 0
-865 -1811 0
-867 -1812 0
-864 -1814 0
-865 -1817 0
-866 -1818 0
-867 -1819 0
-865 -1823 0
-866 -1824 0
-867 -1825 0
-862 -1826 0
-864 -1827 0
-865 -1829 0
-866 -1830 0
-867 -1831 0
-861 -1832 0
-865 -1835 0
-866 -1836 0
-867 -1837 0
-865 -1842 0
-866 -1843 0
-867 -1844 0
-862 -1912 0
-864 -1913 0
-865 -1915 0
-866 -1916 0
-867 -1917 0
-862 -1918 0
-865 -1922 0
-867 -1923 0
-864 -1945 0
-866 -1949 0
-867 -1950 0
-868 -921 0
-872 -924 0
-873 -925 0
-868 -949 0
-871 -951 0
-873 -953 0
-869 -971 0
-870 -972 0
-873 -975 0
-869 -984 0
-871 -987 0
-873 -988 0
-871 -1175 0
-872 -1177 0
-873 -1178 0
-870 -1189 0
-872 -1190 0
-873 -1191 0
-873 -1198 0
-870 -1207 0
-871 -1209 0
-873 -1211 0
-870 -1215 0
-871 -1216 0
-873 -1218 0
-870 -1249 0
-871 -1251 0
-872 -1252 0
-873 -1253 0
-870 -1268 0
-872 -1271 0
-873 -1272 0
-870 -1350 0
-871 -1352 0
-873 -1353 0
-873 -1369 0
-870 -1372 0
-872 -1375 0
-873 -1376 0
-871 -1387 0
-872 -1388 0
-873 -1389 0
-870 -1392 0
-871 -1394 0
-872 -1395 0
-873 -1396 0
-870 -1399 0
-872 -1402 0
-873 -1403 0
-871 -1425 0
-872 -1427 0
-873 -1428 0
-868 -1472 0
-869 -1473 0
-870 -1475 0
-871 -1477 0
-873 -1479 0
-868 -1487 0
-869 -1488 0
-870 -1489 0
-871 -1490 0
-872 -1491 0
-873 -1492 0
-869 -1494 0
-871 -1496 0
-872 -1497 0
-873 -1498 0
-868 -1509 0
-870 -1511 0
-871 -1512 0
-873 -1514 0
-868 -1516 0
-870 -1518 0
-873 -1521 0
-868 -1530 0
-871 -1532 0
-873 -1534 0
-869 -1536 0
-871 -1539 0
-873 -1541 0
-868 -1543 0
-870 -1545 0
-871 -1546 0
-872 -1547 0
-873 -1548 0
-868 -1556 0
-871 -1558 0
-872 -1560 0
-873 -1561 0
-869 -1563 0
-871 -1566 0
-872 -1567 0
-873 -1568 0
-869 -1577 0
-870 -1579 0
-871 -1581 0
-872 -1583 0
-873 -1584 0
-869 -1604 0
-870 -1605 0
-871 -1606 0
-872 -1608 0
-873 -1609 0
-869 -1616 0
-870 -1618 0
-871 -1620 0
-873 -1622 0
-868 -1630 0
-870 -1632 0
-871 -1634 0
-873 -1635 0
-868 -1637 0
-871 -1640 0
-873 -1641 0
-868 -1643 0
-870 -1644 0
-873 -1647 0
-869 -1649 0
-870 -1651 0
-873 -1653 0
-868 -1654 0
-872 -1658 0
-873 -1659 0
-869 -1660 0
-870 -1663 0
-871 -1665 0
-872 -1667 0
-873 -1668 0
-869 -1670 0
-872 -1673 0
-873 -1674 0
-869 -1682 0
-870 -1683 0
-872 -1686 0
-873 -1687 0
-870 -1691 0
-871 -1693 0
-873 -1694 0
-873 -1707 0
-871 -1727 0
-872 -1728 0
-873 -1729 0
-870 -1756 0
-871 -1757 0
-872 -1759 0
-873 -1760 0
-871 -1764 0
-872 -1766 0
-873 -1767 0
-870 -1776 0
-872 -1779 0
-873 -1780 0
-868 -1788 0
-872 -1792 0
-873 -1793 0
-869 -1794 0
-870 -1795 0
-872 -1798 0
-873 -1799 0
-870 -1802 0
-872 -1805 0
-873 -1806 0
-870 -1815 0
-871 -1816 0
-872 -1818 0
-873 -1819 0
-871 -1841 0
-872 -1843 0
-873 -1844 0
-870 -1888 0
-871 -1889 0
-873 -1891 0
-871 -1895 0
-872 -1897 0
-873 -1898 0
-870 -1907 0
-871 -1909 0
-872 -1910 0
-873 -1911 0
-874 -915 0
-877 -916 0
-879 -918 0
-874 -940 0
-876 -941 0
-877 -942 0
-878 -943 0
-879 -946 0
-875 -971 0
-877 -972 0
-878 -973 0
-879 -975 0
-875 -978 0
-877 -979 0
-879 -981 0
-874 -1077 0
-878 -1078 0
-879 -1081 0
-874 -1100 0
-876 -1101 0
-879 -1105 0
-875 -1114 0
-878 -1115 0
-879 -1119 0
-879 -1178 0
-878 -1182 0
-879 -1184 0
-876 -1195 0
-878 -1196 0
-879 -1198 0
-876 -1201 0
-879 -1204 0
-876 -1243 0
-879 -1246 0
-876 -1261 0
-878 -1262 0
-879 -1265 0
-874 -1287 0
-876 -1288 0
-877 -1289 0
-879 -1292 0
-874 -1307 0
-877 -1308 0
-878 -1309 0
-879 -1313 0
-875 -1322 0
-876 -1323 0
-877 -1324 0
-879 -1327 0
-876 -1349 0
-877 -1350 0
-878 -1351 0
-879 -1353 0
-876 -1357 0
-877 -1358 0
-879 -1362 0
-877 -1372 0
-878 -1373 0
-879 -1376 0
-877 -1379 0
-878 -1380 0
-879 -1382 0
-876 -1398 0
-877 -1399 0
-878 -1400 0
-879 -1403 0
-877 -1417 0
-878 -1418 0
-879 -1421 0
-876 -1435 0
-877 -1436 0
-878 -1437 0
-879 -1440 0
-876 -1451 0
-878 -1452 0
-879 -1455 0
-874 -1465 0
-875 -1466 0
-878 -1467 0
-879 -1470 0
-874 -1480 0
-875 -1481 0
-876 -1482 0
-878 -1483 0
-879 -1486 0
-875 -1494 0
-878 -1495 0
-879 -1498 0
-874 -1500 0
-876 -1502 0
-878 -1503 0
-879 -1507 0
-874 -1523 0
-879 -1527 0
-874 -1530 0
-878 -1531 0
-879 -1534 0
-875 -1536 0
-878 -1538 0
-879 -1541 0
-874 -1550 0
-876 -1551 0
-878 -1552 0
-879 -1554 0
-874 -1556 0
-876 -1557 0
-879 -1561 0
-875 -1563 0
-876 -1565 0
-879 -1568 0
-875 -1587 0
-879 -1590 0
-875 -1598 0
-876 -1599 0
-878 -1600 0
-879 -1602 0
-875 -1610 0
-876 -1611 0
-879 -1615 0
-874 -1623 0
-876 -1625 0
-877 -1626 0
-878 -1627 0
-879 -1629 0
-874 -1643 0
-877 -1644 0
-878 -1645 0
-879 -1647 0
-875 -1649 0
-877 -1651 0
-878 -1652 0
-879 -1653 0
-875 -1660 0
-876 -1662 0
-877 -1663 0
-878 -1664 0
-879 -1668 0
-875 -1675 0
-876 -1676 0
-877 -1677 0
-878 -1678 0
-879 -1681 0
-876 -1690 0
-877 -1691 0
-878 -1692 0
-879 -1694 0
-877 -1711 0
-878 -1712 0
-879 -1716 0
-876 -1732 0
-877 -1733 0
-879 -1735 0
-876 -1749 0
-877 -1750 0
-878 -1751 0
-879 -1753 0
-876 -1769 0
-877 -1770 0
-879 -1773 0
-876 -1775 0
-877 -1776 0
-878 -1777 0
-879 -1780 0
-876 -1782 0
-877 -1783 0
-878 -1784 0
-879 -1787 0
-874 -1788 0
-876 -1789 0
-878 -1790 0
-879 -1793 0
-876 -1809 0
-879 -1812 0
-878 -1821 0
-879 -1825 0
-878 -1881 0
-879 -1884 0
-876 -1893 0
-878 -1894 0
-879 -1898 0
-876 -1901 0
-879 -1904 0
-877 -1933 0
-878 -1934 0
-879 -1937 0
-876 -1939 0
-877 -1940 0
-878 -1941 0
-879 -1944 0
-876 -1953 0
-878 -1954 0
-879 -1958 0
-880 -939 0
-882 -941 0
-883 -942 0
-885 -946 0
-880 -948 0
-884 -951 0
-885 -953 0
-884 -957 0
-885 -959 0
-882 -1101 0
-884 -1102 0
-885 -1105 0
-880 -1193 0
-882 -1195 0
-885 -1198 0
-882 -1201 0
-885 -1204 0
-883 -1207 0
-884 -1209 0
-885 -1211 0
-880 -1213 0
-882 -1214 0
-883 -1215 0
-884 -1216 0
-885 -1218 0
-882 -1261 0
-884 -1263 0
-885 -1265 0
-882 -1267 0
-883 -1268 0
-885 -1272 0
-883 -1308 0
-884 -1310 0
-885 -1313 0
-880 -1370 0
-883 -1372 0
-885 -1376 0
-883 -1379 0
-885 -1382 0
-882 -1385 0
-884 -1387 0
-885 -1389 0
-880 -1391 0
-883 -1392 0
-884 -1394 0
-885 -1396 0
-882 -1398 0
-883 -1399 0
-885 -1403 0
-882 -1435 0
-883 -1436 0
-884 -1438 0
-885 -1440 0
-883 -1458 0
-884 -1460 0
-885 -1463 0
-881 -1481 0
-882 -1482 0
-884 -1484 0
-885 -1486 0
-881 -1488 0
-883 -1489 0
-884 -1490 0
-885 -1492 0
-880 -1499 0
-882 -1502 0
-884 -1504 0
-885 -1507 0
-880 -1508 0
-883 -1511 0
-884 -1512 0
-885 -1514 0
-880 -1515 0
-882 -1517 0
-883 -1518 0
-885 -1521 0
-880 -1522 0
-884 -1524 0
-885 -1527 0
-880 -1529 0
-884 -1532 0
-885 -1534 0
-880 -1562 0
-881 -1563 0
-882 -1565 0
-884 -1566 0
-885 -1568 0
-880 -1569 0
-881 -1570 0
-882 -1571 0
-883 -1572 0
-884 -1573 0
-885 -1574 0
-880 -1576 0
-881 -1577 0
-882 -1578 0
-883 -1579 0
-884 -1581 0
-885 -1584 0
-880 -1586 0
-881 -1587 0
-884 -1588 0
-885 -1590 0
-882 -1592 0
-883 -1593 0
-884 -1594 0
-885 -1596 0
-881 -1610 0
-882 -1611 0
-884 -1612 0
-885 -1615 0
-881 -1616 0
-882 -1617 0
-883 -1618 0
-884 -1620 0
-885 -1622 0
-882 -1625 0
-883 -1626 0
-885 -1629 0
-883 -1632 0
-884 -1634 0
-885 -1635 0
-880 -1636 0
-882 -1638 0
-884 -1640 0
-885 -1641 0
-883 -1644 0
-885 -1647 0
-881 -1660 0
-882 -1662 0
-883 -1663 0
-884 -1665 0
-885 -1668 0
-881 -1670 0
-882 -1671 0
-885 -1674 0
-880 -1688 0
-882 -1690 0
-883 -1691 0
-884 -1693 0
-885 -1694 0
-880 -1695 0
-882 -1697 0
-885 -1700 0
-880 -1702 0
-882 -1704 0
-885 -1707 0
-880 -1709 0
-883 -1711 0
-884 -1713 0
-885 -1716 0
-882 -1749 0
-883 -1750 0
-885 -1753 0
-882 -1755 0
-883 -1756 0
-884 -1757 0
-885 -1760 0
-880 -1761 0
-882 -1762 0
-884 -1764 0
-885 -1767 0
-880 -1768 0
-882 -1769 0
-883 -1770 0
-885 -1773 0
-882 -1775 0
-883 -1776 0
-885 -1780 0
-882 -1789 0
-885 -1793 0
-881 -1794 0
-883 -1795 0
-885 -1799 0
-880 -1800 0
-883 -1802 0
-885 -1806 0
-880 -1807 0
-882 -1809 0
-884 -1810 0
-885 -1812 0
-884 -1841 0
-885 -1844 0
-880 -1892 0
-882 -1893 0
-884 -1895 0
-885 -1898 0
-880 -1900 0
-882 -1901 0
-884 -1902 0
-885 -1904 0
-880 -1906 0
-883 -1907 0
-884 -1909 0
-885 -1911 0
-882 -1939 0
-883 -1940 0
-885 -1944 0
-887 -916 0
-891 -918 0
-888 -923 0
-890 -924 0
-891 -925 0
-889 -930 0
-891 -931 0
-888 -1078 0
-889 -1080 0
-891 -1081 0
-887 -1085 0
-888 -1086 0
-891 -1088 0
-889 -1176 0
-890 -1177 0
-891 -1178 0
-888 -1182 0
-891 -1184 0
-887 -1189 0
-890 -1190 0
-891 -1191 0
-887 -1215 0
-889 -1217 0
-891 -1218 0
-890 -1245 0
-891 -1246 0
-887 -1249 0
-888 -1250 0
-890 -1252 0
-891 -1253 0
-887 -1255 0
-889 -1257 0
-890 -1258 0
-891 -1259 0
-887 -1289 0
-890 -1291 0
-891 -1292 0
-889 -1297 0
-890 -1298 0
-891 -1299 0
-887 -1350 0
-888 -1351 0
-891 -1353 0
-887 -1358 0
-889 -1360 0
-890 -1361 0
-891 -1362 0
-888 -1367 0
-889 -1368 0
-891 -1369 0
-887 -1392 0
-888 -1393 0
-890 -1395 0
-891 -1396 0
-887 -1399 0
-888 -1400 0
-889 -1401 0
-890 -1402 0
-891 -1403 0
-887 -1417 0
-888 -1418 0
-889 -1420 0
-891 -1421 0
-888 -1424 0
-889 -1426 0
-890 -1427 0
-891 -1428 0
-888 -1431 0
-889 -1433 0
-891 -1434 0
-888 -1452 0
-890 -1454 0
-891 -1455 0
-887 -1458 0
-888 -1459 0
-889 -1461 0
-890 -1462 0
-891 -1463 0
-886 -1466 0
-888 -1467 0
-889 -1468 0
-890 -1469 0
-891 -1470 0
-886 -1473 0
-887 -1475 0
-888 -1476 0
-889 -1478 0
-891 -1479 0
-888 -1503 0
-889 -1505 0
-890 -1506 0
-891 -1507 0
-887 -1511 0
-889 -1513 0
-891 -1514 0
-886 -1536 0
-888 -1538 0
-889 -1540 0
-891 -1541 0
-887 -1545 0
-890 -1547 0
-891 -1548 0
-888 -1552 0
-891 -1554 0
-889 -1559 0
-890 -1560 0
-891 -1561 0
-886 -1570 0
-887 -1572 0
-891 -1574 0
-886 -1577 0
-887 -1579 0
-888 -1580 0
-889 -1582 0
-890 -1583 0
-891 -1584 0
-886 -1587 0
-889 -1589 0
-891 -1590 0
-887 -1593 0
-889 -1595 0
-891 -1596 0
-886 -1598 0
-888 -1600 0
-889 -1601 0
-891 -1602 0
-886 -1604 0
-887 -1605 0
-889 -1607 0
-890 -1608 0
-891 -1609 0
-887 -1626 0
-888 -1627 0
-890 -1628 0
-891 -1629 0
-887 -1632 0
-888 -1633 0
-891 -1635 0
-886 -1649 0
-887 -1651 0
-888 -1652 0
-891 -1653 0
-888 -1656 0
-889 -1657 0
-890 -1658 0
-891 -1659 0
-886 -1670 0
-888 -1672 0
-890 -1673 0
-891 -1674 0
-886 -1675 0
-887 -1677 0
-888 -1678 0
-889 -1680 0
-891 -1681 0
-886 -1682 0
-887 -1683 0
-888 -1684 0
-889 -1685 0
-890 -1686 0
-891 -1687 0
-887 -1691 0
-888 -1692 0
-891 -1694 0
-889 -1721 0
-891 -1722 0
-888 -1726 0
-890 -1728 0
-891 -1729 0
-887 -1733 0
-891 -1735 0
-887 -1750 0
-888 -1751 0
-889 -1752 0
-891 -1753 0
-887 -1756 0
-889 -1758 0
-890 -1759 0
-891 -1760 0
-887 -1783 0
-888 -1784 0
-890 -1786 0
-891 -1787 0
-886 -1794 0
-887 -1795 0
-888 -1796 0
-889 -1797 0
-890 -1798 0
-891 -1799 0
-887 -1815 0
-889 -1817 0
-890 -1818 0
-891 -1819 0
-888 -1821 0
-889 -1823 0
-890 -1824 0
-891 -1825 0
-888 -1881 0
-889 -1882 0
-890 -1883 0
-891 -1884 0
-887 -1888 0
-889 -1890 0
-891 -1891 0
-887 -1933 0
-888 -1934 0
-890 -1936 0
-891 -1937 0
-888 -1954 0
-889 -1956 0
-890 -1957 0
-891 -1958 0
-893 -1083 0
-895 -1086 0
-897 -1088 0
-895 -1115 0
-896 -1117 0
-897 -1119 0
-895 -1149 0
-897 -1151 0
-897 -1158 0
-896 -1257 0
-897 -1259 0
-893 -1294 0
-896 -1297 0
-897 -1299 0
-897 -1327 0
-896 -1331 0
-897 -1333 0
-895 -1337 0
-896 -1339 0
-897 -1340 0
-895 -1400 0
-896 -1401 0
-897 -1403 0
-895 -1431 0
-896 -1433 0
-897 -1434 0
-894 -1450 0
-895 -1452 0
-897 -1455 0
-893 -1457 0
-895 -1459 0
-896 -1461 0
-897 -1463 0
-892 -1464 0
-893 -1465 0
-895 -1467 0
-896 -1468 0
-897 -1470 0
-892 -1471 0
-893 -1472 0
-895 -1476 0
-896 -1478 0
-897 -1479 0
-893 -1480 0
-895 -1483 0
-897 -1486 0
-893 -1487 0
-897 -1492 0
-892 -1493 0
-895 -1495 0
-897 -1498 0
-892 -1529 0
-893 -1530 0
-895 -1531 0
-896 -1533 0
-897 -1534 0
-893 -1556 0
-896 -1559 0
-897 -1561 0
-892 -1576 0
-895 -1580 0
-896 -1582 0
-897 -1584 0
-892 -1586 0
-896 -1589 0
-897 -1590 0
-893 -1591 0
-896 -1595 0
-897 -1596 0
-892 -1597 0
-895 -1600 0
-896 -1601 0
-897 -1602 0
-892 -1603 0
-896 -1607 0
-897 -1609 0
-896 -1613 0
-897 -1615 0
-895 -1619 0
-896 -1621 0
-897 -1622 0
-893 -1623 0
-894 -1624 0
-895 -1627 0
-897 -1629 0
-893 -1630 0
-894 -1631 0
-895 -1633 0
-897 -1635 0
-892 -1636 0
-893 -1637 0
-895 -1639 0
-897 -1641 0
-892 -1648 0
-894 -1650 0
-895 -1652 0
-897 -1653 0
-893 -1654 0
-895 -1656 0
-896 -1657 0
-897 -1659 0
-894 -1661 0
-895 -1664 0
-896 -1666 0
-897 -1668 0
-892 -1702 0
-894 -1703 0
-895 -1705 0
-896 -1706 0
-897 -1707 0
-892 -1709 0
-894 -1710 0
-895 -1712 0
-896 -1714 0
-897 -1716 0
-894 -1724 0
-895 -1726 0
-897 -1729 0
-894 -1731 0
-897 -1735 0
-892 -1737 0
-895 -1740 0
-897 -1741 0
-894 -1748 0
-895 -1751 0
-896 -1752 0
-897 -1753 0
-894 -1754 0
-896 -1758 0
-897 -1760 0
-892 -1761 0
-895 -1763 0
-896 -1765 0
-897 -1767 0
-892 -1768 0
-896 -1771 0
-897 -1773 0
-895 -1784 0
-897 -1787 0
-892 -1800 0
-894 -1801 0
-895 -1803 0
-896 -1804 0
-897 -1806 0
-892 -1807 0
-894 -1808 0
-896 -1811 0
-897 -1812 0
-894 -1813 0
-896 -1817 0
-897 -1819 0
-894 -1820 0
-895 -1821 0
-896 -1823 0
-897 -1825 0
-892 -1826 0
-896 -1829 0
-897 -1831 0
-892 -1932 0
-895 -1934 0
-897 -1937 0
-895 -1941 0
-896 -1942 0
-897 -1944 0
-895 -1947 0
-897 -1950 0
-892 -1952 0
-895 -1954 0
-896 -1956 0
-897 -1958 0
-900 -1126 0
-902 -1131 0
-903 -1132 0
-899 -1139 0
-902 -1144 0
-903 -1145 0
-898 -1152 0
-902 -1157 0
-903 -1158 0
-903 -1165 0
-898 -1247 0
-899 -1248 0
-902 -1252 0
-903 -1253 0
-898 -1266 0
-902 -1271 0
-903 -1272 0
-903 -1340 0
-899 -1422 0
-902 -1427 0
-903 -1428 0
-899 -1471 0
-900 -1472 0
-903 -1479 0
-900 -1487 0
-902 -1491 0
-903 -1492 0
-899 -1493 0
-902 -1497 0
-903 -1498 0
-899 -1522 0
-900 -1523 0
-902 -1526 0
-903 -1527 0
-899 -1549 0
-900 -1550 0
-903 -1554 0
-899 -1569 0
-903 -1574 0
-898 -1585 0
-899 -1586 0
-903 -1590 0
-899 -1603 0
-902 -1608 0
-903 -1609 0
-903 -1622 0
-900 -1630 0
-901 -1631 0
-903 -1635 0
-899 -1636 0
-900 -1637 0
-903 -1641 0
-898 -1642 0
-900 -1643 0
-903 -1647 0
-899 -1648 0
-901 -1650 0
-903 -1653 0
-900 -1654 0
-902 -1658 0
-903 -1659 0
-901 -1661 0
-902 -1667 0
-903 -1668 0
-898 -1669 0
-902 -1673 0
-903 -1674 0
-903 -1681 0
-899 -1695 0
-901 -1696 0
-902 -1699 0
-903 -1700 0
-898 -1708 0
-899 -1709 0
-901 -1710 0
-902 -1715 0
-903 -1716 0
-899 -1717 0
-901 -1718 0
-903 -1722 0
-898 -1730 0
-901 -1731 0
-903 -1735 0
-898 -1736 0
-899 -1737 0
-903 -1741 0
-898 -1742 0
-903 -1747 0
-901 -1754 0
-902 -1759 0
-903 -1760 0
-899 -1761 0
-902 -1766 0
-903 -1767 0
-898 -1774 0
-902 -1779 0
-903 -1780 0
-900 -1788 0
-902 -1792 0
-903 -1793 0
-902 -1798 0
-903 -1799 0
-899 -1807 0
-901 -1808 0
-903 -1812 0
-901 -1820 0
-902 -1824 0
-903 -1825 0
-899 -1826 0
-902 -1830 0
-903 -1831 0
-898 -1832 0
-902 -1836 0
-903 -1837 0
-901 -1839 0
-902 -1843 0
-903 -1844 0
-904 -1075 0
-905 -1076 0
-906 -1077 0
-910 -1078 0
-911 -1079 0
-912 -1081 0
-904 -1099 0
-906 -1100 0
-908 -1101 0
-911 -1102 0
-912 -1105 0
-904 -1113 0
-910 -1115 0
-911 -1116 0
-912 -1119 0
-906 -1120 0
-908 -1121 0
-909 -1122 0
-911 -1123 0
-912 -1125 0
-905 -1139 0
-909 -1141 0
-911 -1142 0
-912 -1145 0
-904 -1146 0
-909 -1148 0
-910 -1149 0
-911 -1150 0
-912 -1151 0
-908 -1160 0
-909 -1161 0
-910 -1162 0
-911 -1163 0
-912 -1165 0
-904 -1212 0
-905 -1213 0
-908 -1214 0
-909 -1215 0
-911 -1216 0
-912 -1218 0
-904 -1241 0
-905 -1242 0
-908 -1243 0
-911 -1244 0
-912 -1246 0
-904 -1260 0
-908 -1261 0
-910 -1262 0
-911 -1263 0
-912 -1265 0
-905 -1286 0
-906 -1287 0
-908 -1288 0
-909 -1289 0
-911 -1290 0
-912 -1292 0
-906 -1307 0
-909 -1308 0
-910 -1309 0
-911 -1310 0
-912 -1313 0
-904 -1321 0
-908 -1323 0
-909 -1324 0
-911 -1325 0
-912 -1327 0
-908 -1329 0
-911 -1330 0
-912 -1333 0
-904 -1390 0
-905 -1391 0
-909 -1392 0
-910 -1393 0
-911 -1394 0
-912 -1396 0
-905 -1416 0
-909 -1417 0
-910 -1418 0
-911 -1419 0
-912 -1421 0
-908 -1435 0
-909 -1436 0
-910 -1437 0
-911 -1438 0
-912 -1440 0
-904 -1449 0
-907 -1450 0
-908 -1451 0
-910 -1452 0
-911 -1453 0
-912 -1455 0
-905 -1464 0
-906 -1465 0
-910 -1467 0
-912 -1470 0
-906 -1480 0
-908 -1482 0
-910 -1483 0
-911 -1484 0
-912 -1486 0
-905 -1493 0
-910 -1495 0
-911 -1496 0
-912 -1498 0
-905 -1515 0
-906 -1516 0
-908 -1517 0
-909 -1518 0
-910 -1519 0
-912 -1521 0
-905 -1542 0
-906 -1543 0
-908 -1544 0
-909 -1545 0
-911 -1546 0
-912 -1548 0
-905 -1569 0
-908 -1571 0
-909 -1572 0
-911 -1573 0
-912 -1574 0
-904 -1575 0
-905 -1576 0
-908 -1578 0
-909 -1579 0
-910 -1580 0
-911 -1581 0
-912 -1584 0
-905 -1597 0
-908 -1599 0
-910 -1600 0
-912 -1602 0
-908 -1611 0
-911 -1612 0
-912 -1615 0
-906 -1623 0
-907 -1624 0
-908 -1625 0
-909 -1626 0
-910 -1627 0
-912 -1629 0
-904 -1642 0
-906 -1643 0
-909 -1644 0
-910 -1645 0
-912 -1647 0
-905 -1648 0
-907 -1650 0
-909 -1651 0
-910 -1652 0
-912 -1653 0
-907 -1661 0
-908 -1662 0
-909 -1663 0
-910 -1664 0
-911 -1665 0
-912 -1668 0
-909 -1683 0
-910 -1684 0
-912 -1687 0
-905 -1695 0
-907 -1696 0
-908 -1697 0
-910 -1698 0
-912 -1700 0
-904 -1701 0
-905 -1702 0
-907 -1703 0
-908 -1704 0
-910 -1705 0
-912 -1707 0
-905 -1717 0
-907 -1718 0
-908 -1719 0
-911 -1720 0
-912 -1722 0
-904 -1723 0
-907 -1724 0
-908 -1725 0
-910 -1726 0
-911 -1727 0
-912 -1729 0
-904 -1742 0
-908 -1743 0
-910 -1744 0
-911 -1745 0
-912 -1747 0
-907 -1748 0
-908 -1749 0
-909 -1750 0
-910 -1751 0
-912 -1753 0
-905 -1768 0
-908 -1769 0
-909 -1770 0
-912 -1773 0
-904 -1774 0
-908 -1775 0
-909 -1776 0
-910 -1777 0
-912 -1780 0
-908 -1782 0
-909 -1783 0
-910 -1784 0
-911 -1785 0
-912 -1787 0
-906 -1788 0
-908 -1789 0
-910 -1790 0
-912 -1793 0
-905 -1800 0
-907 -1801 0
-909 -1802 0
-910 -1803 0
-912 -1806 0
-907 -1813 0
-908 -1814 0
-909 -1815 0
-911 -1816 0
-912 -1819 0
-904 -1832 0
-909 -1833 0
-911 -1834 0
-912 -1837 0
-904 -1931 0
-905 -1932 0
-909 -1933 0
-910 -1934 0
-911 -1935 0
-912 -1937 0
-904 -1938 0
-908 -1939 0
-909 -1940 0
-910 -1941 0
-912 -1944 0
-908 -1945 0
-909 -1946 0
-910 -1947 0
-911 -1948 0
-912 -1950 0
-905 -1952 0
-908 -1953 0
-910 -1954 0
-911 -1955 0
-912 -1958 0
-913 -1046 0
-916 -1048 0
-917 -1050 0
-918 -1051 0
-913 -1068 0
-915 -1069 0
-916 -1072 0
-918 -1074 0
-913 -1106 0
-916 -1109 0
-918 -1112 0
-915 -1126 0
-916 -1127 0
-917 -1129 0
-918 -1132 0
-916 -1135 0
-917 -1136 0
-918 -1138 0
-913 -1152 0
-916 -1155 0
-917 -1156 0
-918 -1158 0
-916 -1161 0
-917 -1163 0
-918 -1165 0
-913 -1205 0
-916 -1207 0
-917 -1209 0
-918 -1211 0
-913 -1235 0
-916 -1237 0
-918 -1240 0
-913 -1266 0
-916 -1268 0
-918 -1272 0
-915 -1279 0
-916 -1282 0
-918 -1285 0
-918 -1320 0
-916 -1336 0
-917 -1338 0
-918 -1340 0
-913 -1383 0
-917 -1387 0
-918 -1389 0
-916 -1412 0
-918 -1415 0
-916 -1444 0
-917 -1445 0
-918 -1448 0
-915 -1457 0
-916 -1458 0
-917 -1460 0
-918 -1463 0
-914 -1471 0
-915 -1472 0
-916 -1475 0
-917 -1477 0
-918 -1479 0
-915 -1480 0
-917 -1484 0
-918 -1486 0
-914 -1493 0
-917 -1496 0
-918 -1498 0
-914 -1508 0
-915 -1509 0
-916 -1511 0
-917 -1512 0
-918 -1514 0
-914 -1549 0
-915 -1550 0
-917 -1553 0
-918 -1554 0
-913 -1555 0
-915 -1556 0
-917 -1558 0
-918 -1561 0
-914 -1562 0
-917 -1566 0
-918 -1568 0
-913 -1585 0
-914 -1586 0
-917 -1588 0
-918 -1590 0
-915 -1591 0
-916 -1593 0
-917 -1594 0
-918 -1596 0
-914 -1603 0
-916 -1605 0
-917 -1606 0
-918 -1609 0
-917 -1612 0
-918 -1615 0
-915 -1623 0
-916 -1626 0
-918 -1629 0
-913 -1642 0
-915 -1643 0
-916 -1644 0
-918 -1647 0
-914 -1648 0
-916 -1651 0
-918 -1653 0
-915 -1654 0
-918 -1659 0
-913 -1669 0
-918 -1674 0
-916 -1677 0
-917 -1679 0
-918 -1681 0
-914 -1688 0
-916 -1691 0
-917 -1693 0
-918 -1694 0
-913 -1708 0
-914 -1709 0
-916 -1711 0
-917 -1713 0
-918 -1716 0
-914 -1717 0
-917 -1720 0
-918 -1722 0
-913 -1723 0
-917 -1727 0
-918 -1729 0
-913 -1742 0
-917 -1745 0
-918 -1747 0
-916 -1750 0
-918 -1753 0
-914 -1768 0
-916 -1770 0
-918 -1773 0
-913 -1774 0
-916 -1776 0
-918 -1780 0
-915 -1788 0
-918 -1793 0
-916 -1795 0
-918 -1799 0
-914 -1807 0
-917 -1810 0
-918 -1812 0
-916 -1815 0
-917 -1816 0
-918 -1819 0
-913 -1832 0
-916 -1833 0
-917 -1834 0
-918 -1837 0
-917 -1841 0
-918 -1844 0
-914 -1851 0
-915 -1852 0
-916 -1854 0
-917 -1855 0
-918 -1857 0
-914 -1865 0
-916 -1867 0
-917 -1868 0
-918 -1871 0
-913 -1905 0
-914 -1906 0
-916 -1907 0
-917 -1909 0
-918 -1911 0
-914 -1918 0
-916 -1919 0
-917 -1921 0
-918 -1923 0
-914 -1924 0
-916 -1926 0
-918 -1930 0
-913 -1938 0
-916 -1940 0
-918 -1944 0
-916 -1946 0
-917 -1948 0
-918 -1950 0
-919 -1040 0
-922 -1042 0
-923 -1043 0
-924 -1044 0
-925 -1045 0
-919 -1059 0
-921 -1060 0
-923 -1063 0
-924 -1066 0
-925 -1067 0
-919 -1099 0
-921 -1100 0
-922 -1101 0
-924 -1104 0
-925 -1105 0
-919 -1106 0
-924 -1111 0
-925 -1112 0
-919 -1113 0
-923 -1115 0
-924 -1118 0
-925 -1119 0
-921 -1120 0
-922 -1121 0
-925 -1125 0
-925 -1138 0
-919 -1146 0
-923 -1149 0
-925 -1151 0
-922 -1160 0
-923 -1162 0
-925 -1165 0
-919 -1199 0
-922 -1201 0
-924 -1203 0
-925 -1204 0
-919 -1229 0
-922 -1231 0
-925 -1234 0
-919 -1260 0
-922 -1261 0
-923 -1262 0
-925 -1265 0
-921 -1273 0
-922 -1275 0
-924 -1277 0
-925 -1278 0
-921 -1307 0
-923 -1309 0
-924 -1312 0
-925 -1313 0
-922 -1316 0
-923 -1317 0
-924 -1319 0
-925 -1320 0
-919 -1321 0
-922 -1323 0
-924 -1326 0
-925 -1327 0
-922 -1329 0
-924 -1332 0
-925 -1333 0
-919 -1377 0
-923 -1380 0
-924 -1381 0
-925 -1382 0
-923 -1405 0
-924 -1408 0
-925 -1409 0
-922 -1435 0
-923 -1437 0
-924 -1439 0
-925 -1440 0
-922 -1443 0
-924 -1447 0
-925 -1448 0
-919 -1449 0
-922 -1451 0
-923 -1452 0
-924 -1454 0
-925 -1455 0
-921 -1457 0
-923 -1459 0
-924 -1462 0
-925 -1463 0
-920 -1464 0
-921 -1465 0
-923 -1467 0
-924 -1469 0
-925 -1470 0
-921 -1487 0
-924 -1491 0
-925 -1492 0
-920 -1493 0
-923 -1495 0
-924 -1497 0
-925 -1498 0
-920 -1499 0
-921 -1500 0
-922 -1502 0
-923 -1503 0
-924 -1506 0
-925 -1507 0
-920 -1542 0
-921 -1543 0
-922 -1544 0
-924 -1547 0
-925 -1548 0
-919 -1555 0
-921 -1556 0
-922 -1557 0
-924 -1560 0
-925 -1561 0
-920 -1562 0
-922 -1565 0
-924 -1567 0
-925 -1568 0
-919 -1575 0
-920 -1576 0
-922 -1578 0
-923 -1580 0
-924 -1583 0
-925 -1584 0
-921 -1591 0
-922 -1592 0
-925 -1596 0
-920 -1597 0
-922 -1599 0
-923 -1600 0
-925 -1602 0
-922 -1617 0
-923 -1619 0
-925 -1622 0
-921 -1630 0
-923 -1633 0
-925 -1635 0
-920 -1636 0
-921 -1637 0
-922 -1638 0
-923 -1639 0
-925 -1641 0
-919 -1642 0
-921 -1643 0
-923 -1645 0
-925 -1647 0
-920 -1648 0
-923 -1652 0
-925 -1653 0
-923 -1684 0
-924 -1686 0
-925 -1687 0
-920 -1688 0
-922 -1690 0
-923 -1692 0
-925 -1694 0
-919 -1701 0
-920 -1702 0
-922 -1704 0
-923 -1705 0
-925 -1707 0
-920 -1717 0
-922 -1719 0
-925 -1722 0
-919 -1730 0
-922 -1732 0
-925 -1735 0
-919 -1736 0
-920 -1737 0
-922 -1738 0
-923 -1740 0
-925 -1741 0
-919 -1742 0
-922 -1743 0
-923 -1744 0
-925 -1747 0
-922 -1755 0
-924 -1759 0
-925 -1760 0
-920 -1761 0
-922 -1762 0
-923 -1763 0
-924 -1766 0
-925 -1767 0
-919 -1774 0
-922 -1775 0
-923 -1777 0
-924 -1779 0
-925 -1780 0
-922 -1782 0
-923 -1784 0
-924 -1786 0
-925 -1787 0
-921 -1788 0
-922 -1789 0
-923 -1790 0
-924 -1792 0
-925 -1793 0
-920 -1800 0
-923 -1803 0
-924 -1805 0
-925 -1806 0
-923 -1821 0
-924 -1824 0
-925 -1825 0
-920 -1826 0
-922 -1827 0
-924 -1830 0
-925 -1831 0
-919 -1832 0
-924 -1836 0
-925 -1837 0
-920 -1845 0
-921 -1846 0
-923 -1848 0
-924 -1849 0
-925 -1850 0
-920 -1865 0
-924 -1870 0
-925 -1871 0
-919 -1899 0
-920 -1900 0
-922 -1901 0
-924 -1903 0
-925 -1904 0
-920 -1912 0
-922 -1913 0
-924 -1916 0
-925 -1917 0
-920 -1924 0
-923 -1927 0
-924 -1929 0
-925 -1930 0
-919 -1931 0
-920 -1932 0
-923 -1934 0
-924 -1936 0
-925 -1937 0
-920 -1952 0
-922 -1953 0
-923 -1954 0
-924 -1957 0
-925 -1958 0
-927 -1034 0
-929 -1036 0
-930 -1038 0
-931 -1039 0
-927 -1052 0
-928 -1053 0
-930 -1057 0
-931 -1058 0
-926 -1099 0
-928 -1100 0
-929 -1101 0
-930 -1103 0
-931 -1105 0
-926 -1106 0
-930 -1110 0
-931 -1112 0
-928 -1120 0
-929 -1121 0
-930 -1124 0
-931 -1125 0
-928 -1126 0
-930 -1130 0
-931 -1132 0
-930 -1137 0
-931 -1138 0
-927 -1139 0
-930 -1143 0
-931 -1145 0
-926 -1192 0
-927 -1193 0
-929 -1195 0
-930 -1197 0
-931 -1198 0
-927 -1220 0
-929 -1222 0
-930 -1226 0
-931 -1228 0
-926 -1260 0
-929 -1261 0
-930 -1264 0
-931 -1265 0
-926 -1266 0
-929 -1267 0
-930 -1270 0
-931 -1272 0
-928 -1307 0
-930 -1311 0
-931 -1313 0
-929 -1316 0
-930 -1318 0
-931 -1320 0
-927 -1370 0
-930 -1374 0
-931 -1376 0
-929 -1435 0
-931 -1440 0
-929 -1443 0
-930 -1446 0
-931 -1448 0
-928 -1480 0
-929 -1482 0
-931 -1486 0
-928 -1487 0
-931 -1492 0
-927 -1493 0
-931 -1498 0
-927 -1542 0
-928 -1543 0
-929 -1544 0
-931 -1548 0
-927 -1549 0
-928 -1550 0
-929 -1551 0
-931 -1554 0
-927 -1562 0
-929 -1565 0
-931 -1568 0
-927 -1569 0
-929 -1571 0
-931 -1574 0
-929 -1611 0
-930 -1613 0
-931 -1615 0
-929 -1617 0
-930 -1621 0
-931 -1622 0
-928 -1623 0
-929 -1625 0
-931 -1629 0
-928 -1630 0
-931 -1635 0
-927 -1636 0
-928 -1637 0
-929 -1638 0
-931 -1641 0
-927 -1648 0
-931 -1653 0
-926 -1669 0
-929 -1671 0
-931 -1674 0
-929 -1676 0
-930 -1680 0
-931 -1681 0
-930 -1685 0
-931 -1687 0
-927 -1688 0
-929 -1690 0
-931 -1694 0
-927 -1695 0
-929 -1697 0
-931 -1700 0
-926 -1723 0
-929 -1725 0
-931 -1729 0
-926 -1730 0
-929 -1732 0
-931 -1735 0
-926 -1736 0
-927 -1737 0
-929 -1738 0
-931 -1741 0
-929 -1749 0
-930 -1752 0
-931 -1753 0
-929 -1755 0
-930 -1758 0
-931 -1760 0
-927 -1761 0
-929 -1762 0
-930 -1765 0
-931 -1767 0
-927 -1768 0
-929 -1769 0
-930 -1771 0
-931 -1773 0
-930 -1797 0
-931 -1799 0
-929 -1814 0
-930 -1817 0
-931 -1819 0
-930 -1823 0
-931 -1825 0
-927 -1826 0
-929 -1827 0
-930 -1829 0
-931 -1831 0
-930 -1842 0
-931 -1844 0
-927 -1865 0
-930 -1869 0
-931 -1871 0
-927 -1892 0
-929 -1893 0
-930 -1896 0
-931 -1898 0
-927 -1924 0
-930 -1928 0
-931 -1930 0
-926 -1938 0
-929 -1939 0
-930 -1942 0
-931 -1944 0
-929 -1945 0
-931 -1950 0
-932 -1099 0
-936 -1101 0
-937 -1105 0
-936 -1121 0
-937 -1125 0
-937 -1132 0
-934 -1159 0
-936 -1160 0
-937 -1165 0
-932 -1260 0
-936 -1261 0
-937 -1265 0
-932 -1266 0
-936 -1267 0
-937 -1272 0
-937 -1313 0
-936 -1435 0
-937 -1440 0
-937 -1463 0
-934 -1481 0
-936 -1482 0
-937 -1486 0
-934 -1488 0
-937 -1492 0
-933 -1542 0
-936 -1544 0
-937 -1548 0
-933 -1549 0
-936 -1551 0
-937 -1554 0
-932 -1555 0
-936 -1557 0
-937 -1561 0
-936 -1592 0
-937 -1596 0
-934 -1610 0
-936 -1611 0
-937 -1615 0
-934 -1616 0
-936 -1617 0
-937 -1622 0
-935 -1624 0
-936 -1625 0
-937 -1629 0
-935 -1631 0
-937 -1635 0
-933 -1636 0
-936 -1638 0
-937 -1641 0
-932 -1642 0
-937 -1647 0
-934 -1660 0
-935 -1661 0
-936 -1662 0
-937 -1668 0
-932 -1669 0
-934 -1670 0
-936 -1671 0
-937 -1674 0
-934 -1675 0
-936 -1676 0
-937 -1681 0
-934 -1682 0
-937 -1687 0
-933 -1717 0
-935 -1718 0
-936 -1719 0
-937 -1722 0
-932 -1723 0
-935 -1724 0
-936 -1725 0
-937 -1729 0
-932 -1730 0
-935 -1731 0
-936 -1732 0
-937 -1735 0
-932 -1736 0
-933 -1737 0
-936 -1738 0
-937 -1741 0
-932 -1742 0
-936 -1743 0
-937 -1747 0
-935 -1748 0
-936 -1749 0
-937 -1753 0
-935 -1754 0
-936 -1755 0
-937 -1760 0
-933 -1761 0
-936 -1762 0
-937 -1767 0
-933 -1768 0
-936 -1769 0
-937 -1773 0
-932 -1774 0
-936 -1775 0
-937 -1780 0
-936 -1789 0
-937 -1793 0
-934 -1794 0
-937 -1799 0
-935 -1813 0
-936 -1814 0
-937 -1819 0
-935 -1820 0
-937 -1825 0
-933 -1826 0
-936 -1827 0
-937 -1831 0
-932 -1832 0
-937 -1837 0
-935 -1839 0
-937 -1844 0
-932 -1938 0
-936 -1939 0
-937 -1944 0
-936 -1945 0
-937 -1950 0
-938 -1025 0
-939 -1026 0
-941 -1028 0
-942 -1029 0
-943 -1030 0
-944 -1031 0
-945 -1032 0
-946 -1033 0
-938 -1068 0
-940 -1069 0
-941 -1071 0
-942 -1072 0
-944 -1073 0
-946 -1074 0
-938 -1082 0
-940 -1083 0
-941 -1084 0
-942 -1085 0
-943 -1086 0
-946 -1088 0
-938 -1089 0
-939 -1090 0
-941 -1093 0
-942 -1094 0
-943 -1095 0
-944 -1097 0
-946 -1098 0
-940 -1126 0
-942 -1127 0
-943 -1128 0
-944 -1130 0
-945 -1131 0
-946 -1132 0
-942 -1135 0
-944 -1137 0
-946 -1138 0
-939 -1139 0
-942 -1141 0
-944 -1143 0
-945 -1144 0
-946 -1145 0
-938 -1146 0
-942 -1148 0
-943 -1149 0
-946 -1151 0
-938 -1185 0
-939 -1186 0
-941 -1188 0
-942 -1189 0
-945 -1190 0
-946 -1191 0
-938 -1235 0
-942 -1237 0
-943 -1238 0
-945 -1239 0
-946 -1240 0
-938 -1247 0
-939 -1248 0
-942 -1249 0
-943 -1250 0
-945 -1252 0
-946 -1253 0
-938 -1254 0
-942 -1255 0
-944 -1257 0
-945 -1258 0
-946 -1259 0
-940 -1279 0
-941 -1281 0
-942 -1282 0
-943 -1283 0
-945 -1284 0
-946 -1285 0
-938 -1293 0
-940 -1294 0
-941 -1295 0
-944 -1297 0
-945 -1298 0
-946 -1299 0
-939 -1300 0
-941 -1303 0
-945 -1305 0
-946 -1306 0
-941 -1329 0
-944 -1331 0
-945 -1332 0
-946 -1333 0
-938 -1363 0
-939 -1364 0
-941 -1366 0
-943 -1367 0
-944 -1368 0
-946 -1369 0
-941 -1411 0
-942 -1412 0
-943 -1413 0
-944 -1414 0
-946 -1415 0
-939 -1422 0
-941 -1423 0
-943 -1424 0
-944 -1426 0
-945 -1427 0
-946 -1428 0
-938 -1429 0
-941 -1430 0
-943 -1431 0
-944 -1433 0
-946 -1434 0
-941 -1443 0
-942 -1444 0
-944 -1446 0
-945 -1447 0
-946 -1448 0
-938 -1449 0
-941 -1451 0
-943 -1452 0
-945 -1454 0
-946 -1455 0
-940 -1457 0
-942 -1458 0
-943 -1459 0
-944 -1461 0
-945 -1462 0
-946 -1463 0
-939 -1464 0
-940 -1465 0
-943 -1467 0
-944 -1468 0
-945 -1469 0
-946 -1470 0
-940 -1487 0
-942 -1489 0
-945 -1491 0
-946 -1492 0
-939 -1493 0
-943 -1495 0
-945 -1497 0
-946 -1498 0
-939 -1508 0
-940 -1509 0
-942 -1511 0
-944 -1513 0
-946 -1514 0
-939 -1522 0
-940 -1523 0
-944 -1525 0
-945 -1526 0
-946 -1527 0
-938 -1528 0
-939 -1529 0
-940 -1530 0
-943 -1531 0
-944 -1533 0
-946 -1534 0
-939 -1535 0
-943 -1538 0
-944 -1540 0
-946 -1541 0
-938 -1585 0
-939 -1586 0
-944 -1589 0
-946 -1590 0
-940 -1591 0
-941 -1592 0
-942 -1593 0
-944 -1595 0
-946 -1596 0
-939 -1597 0
-941 -1599 0
-943 -1600 0
-944 -1601 0
-946 -1602 0
-941 -1617 0
-942 -1618 0
-943 -1619 0
-944 -1621 0
-946 -1622 0
-940 -1623 0
-941 -1625 0
-942 -1626 0
-943 -1627 0
-945 -1628 0
-946 -1629 0
-939 -1636 0
-940 -1637 0
-941 -1638 0
-943 -1639 0
-946 -1641 0
-941 -1662 0
-942 -1663 0
-943 -1664 0
-944 -1666 0
-945 -1667 0
-946 -1668 0
-938 -1669 0
-941 -1671 0
-943 -1672 0
-945 -1673 0
-946 -1674 0
-939 -1688 0
-941 -1690 0
-942 -1691 0
-943 -1692 0
-946 -1694 0
-939 -1695 0
-941 -1697 0
-943 -1698 0
-945 -1699 0
-946 -1700 0
-938 -1701 0
-939 -1702 0
-941 -1704 0
-943 -1705 0
-944 -1706 0
-946 -1707 0
-938 -1730 0
-941 -1732 0
-942 -1733 0
-946 -1735 0
-938 -1742 0
-941 -1743 0
-943 -1744 0
-944 -1746 0
-946 -1747 0
-941 -1749 0
-942 -1750 0
-943 -1751 0
-944 -1752 0
-946 -1753 0
-939 -1761 0
-941 -1762 0
-943 -1763 0
-944 -1765 0
-945 -1766 0
-946 -1767 0
-941 -1782 0
-942 -1783 0
-943 -1784 0
-945 -1786 0
-946 -1787 0
-942 -1795 0
-943 -1796 0
-944 -1797 0
-945 -1798 0
-946 -1799 0
-939 -1800 0
-942 -1802 0
-943 -1803 0
-944 -1804 0
-945 -1805 0
-946 -1806 0
-943 -1821 0
-944 -1823 0
-945 -1824 0
-946 -1825 0
-938 -1832 0
-942 -1833 0
-944 -1835 0
-945 -1836 0
-946 -1837 0
-939 -1851 0
-940 -1852 0
-941 -1853 0
-942 -1854 0
-945 -1856 0
-946 -1857 0
-939 -1858 0
-941 -1860 0
-942 -1861 0
-943 -1862 0
-945 -1863 0
-946 -1864 0
-938 -1885 0
-939 -1886 0
-941 -1887 0
-942 -1888 0
-944 -1890 0
-946 -1891 0
-939 -1918 0
-942 -1919 0
-943 -1920 0
-944 -1922 0
-946 -1923 0
-939 -1924 0
-942 -1926 0
-943 -1927 0
-944 -1928 0
-945 -1929 0
-946 -1930 0
-938 -1931 0
-939 -1932 0
-942 -1933 0
-943 -1934 0
-945 -1936 0
-946 -1937 0
-941 -1945 0
-942 -1946 0
-943 -1947 0
-945 -1949 0
-946 -1950 0
-939 -1952 0
-941 -1953 0
-943 -1954 0
-944 -1956 0
-945 -1957 0
-946 -1958 0
-947 -1019 0
-948 -1020 0
-951 -1022 0
-952 -1023 0
-953 -1024 0
-947 -1059 0
-949 -1060 0
-950 -1063 0
-951 -1064 0
-952 -1065 0
-953 -1067 0
-947 -1075 0
-948 -1076 0
-949 -1077 0
-950 -1078 0
-951 -1079 0
-952 -1080 0
-953 -1081 0
-947 -1082 0
-949 -1083 0
-950 -1086 0
-951 -1087 0
-953 -1088 0
-947 -1089 0
-948 -1090 0
-950 -1095 0
-951 -1096 0
-952 -1097 0
-953 -1098 0
-947 -1113 0
-950 -1115 0
-951 -1116 0
-952 -1117 0
-953 -1119 0
-949 -1120 0
-951 -1123 0
-952 -1124 0
-953 -1125 0
-951 -1136 0
-952 -1137 0
-953 -1138 0
-948 -1139 0
-951 -1142 0
-952 -1143 0
-953 -1145 0
-947 -1152 0
-951 -1156 0
-953 -1158 0
-947 -1179 0
-948 -1180 0
-950 -1182 0
-951 -1183 0
-953 -1184 0
-947 -1229 0
-951 -1233 0
-953 -1234 0
-947 -1241 0
-948 -1242 0
-951 -1244 0
-953 -1246 0
-947 -1254 0
-951 -1256 0
-952 -1257 0
-953 -1259 0
-949 -1273 0
-951 -1276 0
-953 -1278 0
-948 -1286 0
-949 -1287 0
-951 -1290 0
-953 -1292 0
-947 -1293 0
-949 -1294 0
-951 -1296 0
-952 -1297 0
-953 -1299 0
-948 -1300 0
-951 -1304 0
-953 -1306 0
-947 -1321 0
-951 -1325 0
-953 -1327 0
-950 -1337 0
-951 -1338 0
-952 -1339 0
-953 -1340 0
-947 -1354 0
-948 -1355 0
-951 -1359 0
-952 -1360 0
-953 -1362 0
-950 -1405 0
-951 -1406 0
-952 -1407 0
-953 -1409 0
-948 -1416 0
-950 -1418 0
-951 -1419 0
-952 -1420 0
-953 -1421 0
-947 -1429 0
-950 -1431 0
-951 -1432 0
-952 -1433 0
-953 -1434 0
-951 -1445 0
-952 -1446 0
-953 -1448 0
-949 -1457 0
-950 -1459 0
-951 -1460 0
-952 -1461 0
-953 -1463 0
-948 -1471 0
-949 -1472 0
-950 -1476 0
-951 -1477 0
-952 -1478 0
-953 -1479 0
-949 -1480 0
-950 -1483 0
-951 -1484 0
-953 -1486 0
-948 -1493 0
-950 -1495 0
-951 -1496 0
-953 -1498 0
-948 -1499 0
-949 -1500 0
-950 -1503 0
-951 -1504 0
-952 -1505 0
-953 -1507 0
-948 -1515 0
-949 -1516 0
-950 -1519 0
-952 -1520 0
-953 -1521 0
-947 -1528 0
-948 -1529 0
-949 -1530 0
-950 -1531 0
-951 -1532 0
-952 -1533 0
-953 -1534 0
-948 -1535 0
-950 -1538 0
-951 -1539 0
-952 -1540 0
-953 -1541 0
-947 -1575 0
-948 -1576 0
-950 -1580 0
-951 -1581 0
-952 -1582 0
-953 -1584 0
-949 -1591 0
-951 -1594 0
-952 -1595 0
-953 -1596 0
-948 -1603 0
-951 -1606 0
-952 -1607 0
-953 -1609 0
-951 -1612 0
-952 -1613 0
-953 -1615 0
-949 -1630 0
-950 -1633 0
-951 -1634 0
-953 -1635 0
-949 -1654 0
-950 -1656 0
-952 -1657 0
-953 -1659 0
-950 -1664 0
-951 -1665 0
-952 -1666 0
-953 -1668 0
-948 -1688 0
-950 -1692 0
-951 -1693 0
-953 -1694 0
-948 -1695 0
-950 -1698 0
-953 -1700 0
-947 -1708 0
-948 -1709 0
-950 -1712 0
-951 -1713 0
-952 -1714 0
-953 -1716 0
-947 -1723 0
-950 -1726 0
-951 -1727 0
-953 -1729 0
-947 -1736 0
-948 -1737 0
-950 -1740 0
-953 -1741 0
-947 -1742 0
-950 -1744 0
-951 -1745 0
-952 -1746 0
-953 -1747 0
-951 -1757 0
-952 -1758 0
-953 -1760 0
-948 -1768 0
-952 -1771 0
-953 -1773 0
-948 -1807 0
-951 -1810 0
-952 -1811 0
-953 -1812 0
-951 -1816 0
-952 -1817 0
-953 -1819 0
-948 -1826 0
-952 -1829 0
-953 -1831 0
-947 -1832 0
-951 -1834 0
-952 -1835 0
-953 -1837 0
-948 -1845 0
-949 -1846 0
-950 -1848 0
-953 -1850 0
-948 -1858 0
-950 -1862 0
-953 -1864 0
-947 -1879 0
-948 -1880 0
-950 -1881 0
-952 -1882 0
-953 -1884 0
-948 -1912 0
-952 -1915 0
-953 -1917 0
-948 -1924 0
-950 -1927 0
-952 -1928 0
-953 -1930 0
-947 -1938 0
-950 -1941 0
-952 -1942 0
-953 -1944 0
-956 -1015 0
-957 -1016 0
-958 -1017 0
-959 -1018 0
-955 -1053 0
-957 -1056 0
-959 -1058 0
-954 -1075 0
-955 -1077 0
-956 -1078 0
-957 -1079 0
-959 -1081 0
-954 -1089 0
-956 -1095 0
-957 -1096 0
-959 -1098 0
-955 -1120 0
-957 -1123 0
-959 -1125 0
-955 -1126 0
-956 -1128 0
-957 -1129 0
-958 -1131 0
-959 -1132 0
-957 -1136 0
-959 -1138 0
-954 -1146 0
-956 -1149 0
-957 -1150 0
-959 -1151 0
-954 -1152 0
-957 -1156 0
-958 -1157 0
-959 -1158 0
-956 -1162 0
-957 -1163 0
-959 -1165 0
-954 -1172 0
-957 -1175 0
-958 -1177 0
-959 -1178 0
-956 -1224 0
-957 -1225 0
-958 -1227 0
-959 -1228 0
-954 -1241 0
-957 -1244 0
-958 -1245 0
-959 -1246 0
-954 -1247 0
-956 -1250 0
-957 -1251 0
-958 -1252 0
-959 -1253 0
-955 -1287 0
-957 -1290 0
-958 -1291 0
-959 -1292 0
-957 -1304 0
-958 -1305 0
-959 -1306 0
-957 -1330 0
-958 -1332 0
-959 -1333 0
-956 -1337 0
-957 -1338 0
-959 -1340 0
-956 -1351 0
-957 -1352 0
-959 -1353 0
-956 -1418 0
-957 -1419 0
-959 -1421 0
-956 -1424 0
-957 -1425 0
-958 -1427 0
-959 -1428 0
-957 -1445 0
-958 -1447 0
-959 -1448 0
-954 -1449 0
-956 -1452 0
-957 -1453 0
-958 -1454 0
-959 -1455 0
-955 -1465 0
-956 -1467 0
-958 -1469 0
-959 -1470 0
-955 -1472 0
-956 -1476 0
-957 -1477 0
-959 -1479 0
-956 -1495 0
-957 -1496 0
-958 -1497 0
-959 -1498 0
-955 -1516 0
-956 -1519 0
-959 -1521 0
-955 -1523 0
-957 -1524 0
-958 -1526 0
-959 -1527 0
-956 -1538 0
-957 -1539 0
-959 -1541 0
-957 -1573 0
-959 -1574 0
-956 -1600 0
-959 -1602 0
-957 -1606 0
-958 -1608 0
-959 -1609 0
-955 -1623 0
-956 -1627 0
-958 -1628 0
-959 -1629 0
-955 -1630 0
-956 -1633 0
-957 -1634 0
-959 -1635 0
-954 -1642 0
-955 -1643 0
-956 -1645 0
-959 -1647 0
-955 -1654 0
-956 -1656 0
-958 -1658 0
-959 -1659 0
-956 -1664 0
-957 -1665 0
-958 -1667 0
-959 -1668 0
-954 -1669 0
-956 -1672 0
-958 -1673 0
-959 -1674 0
-956 -1692 0
-957 -1693 0
-959 -1694 0
-954 -1701 0
-956 -1705 0
-959 -1707 0
-954 -1708 0
-956 -1712 0
-957 -1713 0
-958 -1715 0
-959 -1716 0
-957 -1720 0
-959 -1722 0
-954 -1736 0
-956 -1740 0
-959 -1741 0
-956 -1751 0
-959 -1753 0
-957 -1757 0
-958 -1759 0
-959 -1760 0
-954 -1774 0
-956 -1777 0
-958 -1779 0
-959 -1780 0
-956 -1784 0
-957 -1785 0
-958 -1786 0
-959 -1787 0
-955 -1788 0
-956 -1790 0
-958 -1792 0
-959 -1793 0
-956 -1796 0
-958 -1798 0
-959 -1799 0
-956 -1803 0
-958 -1805 0
-959 -1806 0
-957 -1810 0
-959 -1812 0
-958 -1830 0
-959 -1831 0
-956 -1862 0
-958 -1863 0
-959 -1864 0
-956 -1927 0
-958 -1929 0
-959 -1930 0
-954 -1931 0
-956 -1934 0
-957 -1935 0
-958 -1936 0
-959 -1937 0
-956 -1947 0
-957 -1948 0
-958 -1949 0
-959 -1950 0
-956 -1954 0
-957 -1955 0
-958 -1957 0
-959 -1958 0
-960 -1075 0
-961 -1076 0
-964 -1078 0
-965 -1079 0
-966 -1080 0
-968 -1081 0
-960 -1082 0
-964 -1086 0
-965 -1087 0
-968 -1088 0
-965 -1123 0
-966 -1124 0
-968 -1125 0
-964 -1128 0
-965 -1129 0
-966 -1130 0
-967 -1131 0
-968 -1132 0
-961 -1139 0
-962 -1140 0
-965 -1142 0
-966 -1143 0
-967 -1144 0
-968 -1145 0
-960 -1146 0
-962 -1147 0
-964 -1149 0
-965 -1150 0
-968 -1151 0
-960 -1152 0
-962 -1153 0
-965 -1156 0
-967 -1157 0
-968 -1158 0
-960 -1241 0
-961 -1242 0
-965 -1244 0
-967 -1245 0
-968 -1246 0
-960 -1247 0
-961 -1248 0
-964 -1250 0
-965 -1251 0
-967 -1252 0
-968 -1253 0
-960 -1254 0
-965 -1256 0
-966 -1257 0
-967 -1258 0
-968 -1259 0
-961 -1286 0
-965 -1290 0
-967 -1291 0
-968 -1292 0
-960 -1293 0
-965 -1296 0
-966 -1297 0
-967 -1298 0
-968 -1299 0
-962 -1328 0
-965 -1330 0
-966 -1331 0
-967 -1332 0
-968 -1333 0
-962 -1334 0
-964 -1337 0
-965 -1338 0
-966 -1339 0
-968 -1340 0
-961 -1416 0
-964 -1418 0
-965 -1419 0
-966 -1420 0
-968 -1421 0
-961 -1422 0
-964 -1424 0
-965 -1425 0
-966 -1426 0
-967 -1427 0
-968 -1428 0
-960 -1429 0
-964 -1431 0
-965 -1432 0
-966 -1433 0
-968 -1434 0
-960 -1449 0
-963 -1450 0
-964 -1452 0
-965 -1453 0
-967 -1454 0
-968 -1455 0
-964 -1459 0
-965 -1460 0
-966 -1461 0
-967 -1462 0
-968 -1463 0
-961 -1464 0
-962 -1466 0
-964 -1467 0
-966 -1468 0
-967 -1469 0
-968 -1470 0
-961 -1471 0
-962 -1473 0
-964 -1476 0
-965 -1477 0
-966 -1478 0
-968 -1479 0
-961 -1515 0
-964 -1519 0
-966 -1520 0
-968 -1521 0
-961 -1522 0
-965 -1524 0
-966 -1525 0
-967 -1526 0
-968 -1527 0
-960 -1528 0
-961 -1529 0
-964 -1531 0
-965 -1532 0
-966 -1533 0
-968 -1534 0
-965 -1594 0
-966 -1595 0
-968 -1596 0
-961 -1597 0
-962 -1598 0
-964 -1600 0
-966 -1601 0
-968 -1602 0
-961 -1603 0
-962 -1604 0
-965 -1606 0
-966 -1607 0
-967 -1608 0
-968 -1609 0
-963 -1624 0
-964 -1627 0
-967 -1628 0
-968 -1629 0
-963 -1631 0
-964 -1633 0
-965 -1634 0
-968 -1635 0
-961 -1648 0
-962 -1649 0
-963 -1650 0
-964 -1652 0
-968 -1653 0
-964 -1656 0
-966 -1657 0
-967 -1658 0
-968 -1659 0
-960 -1669 0
-962 -1670 0
-964 -1672 0
-967 -1673 0
-968 -1674 0
-961 -1695 0
-963 -1696 0
-964 -1698 0
-967 -1699 0
-968 -1700 0
-960 -1701 0
-961 -1702 0
-963 -1703 0
-964 -1705 0
-966 -1706 0
-968 -1707 0
-960 -1708 0
-961 -1709 0
-963 -1710 0
-964 -1712 0
-965 -1713 0
-966 -1714 0
-967 -1715 0
-968 -1716 0
-960 -1736 0
-961 -1737 0
-964 -1740 0
-968 -1741 0
-960 -1742 0
-964 -1744 0
-965 -1745 0
-966 -1746 0
-968 -1747 0
-963 -1748 0
-964 -1751 0
-966 -1752 0
-968 -1753 0
-963 -1754 0
-965 -1757 0
-966 -1758 0
-967 -1759 0
-968 -1760 0
-964 -1784 0
-965 -1785 0
-967 -1786 0
-968 -1787 0
-962 -1794 0
-964 -1796 0
-966 -1797 0
-967 -1798 0
-968 -1799 0
-961 -1800 0
-963 -1801 0
-964 -1803 0
-966 -1804 0
-967 -1805 0
-968 -1806 0
-961 -1807 0
-963 -1808 0
-965 -1810 0
-966 -1811 0
-968 -1812 0
-961 -1826 0
-966 -1829 0
-967 -1830 0
-968 -1831 0
-960 -1832 0
-965 -1834 0
-966 -1835 0
-967 -1836 0
-968 -1837 0
-960 -1931 0
-961 -1932 0
-964 -1934 0
-965 -1935 0
-967 -1936 0
-968 -1937 0
-964 -1947 0
-965 -1948 0
-967 -1949 0
-968 -1950 0
-961 -1952 0
-964 -1954 0
-965 -1955 0
-966 -1956 0
-967 -1957 0
-968 -1958 0
-969 -1001 0
-972 -1003 0
-973 -1004 0
-974 -1005 0
-975 -1006 0
-969 -1059 0
-972 -1062 0
-973 -1063 0
-974 -1065 0
-975 -1067 0
-969 -1068 0
-972 -1072 0
-974 -1073 0
-975 -1074 0
-969 -1082 0
-972 -1085 0
-973 -1086 0
-975 -1088 0
-972 -1122 0
-974 -1124 0
-975 -1125 0
-972 -1127 0
-973 -1128 0
-974 -1130 0
-975 -1132 0
-971 -1133 0
-972 -1135 0
-974 -1137 0
-975 -1138 0
-969 -1146 0
-971 -1147 0
-972 -1148 0
-973 -1149 0
-975 -1151 0
-969 -1152 0
-971 -1153 0
-972 -1155 0
-975 -1158 0
-969 -1229 0
-972 -1232 0
-975 -1234 0
-969 -1235 0
-972 -1237 0
-973 -1238 0
-975 -1240 0
-969 -1254 0
-972 -1255 0
-974 -1257 0
-975 -1259 0
-975 -1278 0
-972 -1282 0
-973 -1283 0
-975 -1285 0
-969 -1293 0
-974 -1297 0
-975 -1299 0
-971 -1328 0
-974 -1331 0
-975 -1333 0
-971 -1334 0
-972 -1336 0
-973 -1337 0
-974 -1339 0
-975 -1340 0
-973 -1405 0
-974 -1407 0
-975 -1409 0
-972 -1412 0
-973 -1413 0
-974 -1414 0
-975 -1415 0
-969 -1429 0
-973 -1431 0
-974 -1433 0
-975 -1434 0
-972 -1444 0
-974 -1446 0
-975 -1448 0
-969 -1449 0
-973 -1452 0
-975 -1455 0
-970 -1464 0
-971 -1466 0
-973 -1467 0
-974 -1468 0
-975 -1470 0
-970 -1471 0
-971 -1473 0
-972 -1475 0
-973 -1476 0
-974 -1478 0
-975 -1479 0
-971 -1481 0
-973 -1483 0
-975 -1486 0
-971 -1488 0
-972 -1489 0
-975 -1492 0
-970 -1499 0
-973 -1503 0
-974 -1505 0
-975 -1507 0
-970 -1508 0
-972 -1511 0
-974 -1513 0
-975 -1514 0
-969 -1528 0
-970 -1529 0
-973 -1531 0
-974 -1533 0
-975 -1534 0
-969 -1555 0
-974 -1559 0
-975 -1561 0
-970 -1597 0
-971 -1598 0
-973 -1600 0
-974 -1601 0
-975 -1602 0
-970 -1603 0
-971 -1604 0
-972 -1605 0
-974 -1607 0
-975 -1609 0
-971 -1610 0
-974 -1613 0
-975 -1615 0
-971 -1616 0
-972 -1618 0
-973 -1619 0
-974 -1621 0
-975 -1622 0
-970 -1636 0
-973 -1639 0
-975 -1641 0
-970 -1648 0
-971 -1649 0
-972 -1651 0
-973 -1652 0
-975 -1653 0
-973 -1656 0
-974 -1657 0
-975 -1659 0
-971 -1660 0
-972 -1663 0
-973 -1664 0
-974 -1666 0
-975 -1668 0
-969 -1669 0
-971 -1670 0
-973 -1672 0
-975 -1674 0
-970 -1688 0
-972 -1691 0
-973 -1692 0
-975 -1694 0
-969 -1701 0
-970 -1702 0
-973 -1705 0
-974 -1706 0
-975 -1707 0
-969 -1708 0
-970 -1709 0
-972 -1711 0
-973 -1712 0
-974 -1714 0
-975 -1716 0
-969 -1723 0
-973 -1726 0
-975 -1729 0
-969 -1730 0
-972 -1733 0
-975 -1735 0
-969 -1742 0
-973 -1744 0
-974 -1746 0
-975 -1747 0
-970 -1761 0
-973 -1763 0
-974 -1765 0
-975 -1767 0
-970 -1768 0
-972 -1770 0
-974 -1771 0
-975 -1773 0
-972 -1783 0
-973 -1784 0
-975 -1787 0
-971 -1794 0
-972 -1795 0
-973 -1796 0
-974 -1797 0
-975 -1799 0
-970 -1800 0
-972 -1802 0
-973 -1803 0
-974 -1804 0
-975 -1806 0
-970 -1807 0
-974 -1811 0
-975 -1812 0
-972 -1815 0
-974 -1817 0
-975 -1819 0
-973 -1821 0
-974 -1823 0
-975 -1825 0
-969 -1832 0
-972 -1833 0
-974 -1835 0
-975 -1837 0
-970 -1845 0
-972 -1847 0
-973 -1848 0
-975 -1850 0
-970 -1851 0
-972 -1854 0
-975 -1857 0
-970 -1912 0
-972 -1914 0
-974 -1915 0
-975 -1917 0
-970 -1918 0
-972 -1919 0
-973 -1920 0
-974 -1922 0
-975 -1923 0
-970 -1924 0
-972 -1926 0
-973 -1927 0
-974 -1928 0
-975 -1930 0
-969 -1931 0
-970 -1932 0
-972 -1933 0
-973 -1934 0
-975 -1937 0
-969 -1938 0
-972 -1940 0
-973 -1941 0
-974 -1942 0
-975 -1944 0
-970 -1952 0
-973 -1954 0
-974 -1956 0
-975 -1958 0
-977 -995 0
-979 -997 0
-980 -999 0
-981 -1000 0
-977 -1052 0
-979 -1055 0
-981 -1058 0
-976 -1068 0
-979 -1072 0
-981 -1074 0
-979 -1122 0
-981 -1125 0
-978 -1133 0
-979 -1135 0
-981 -1138 0
-977 -1139 0
-978 -1140 0
-979 -1141 0
-980 -1144 0
-981 -1145 0
-976 -1152 0
-978 -1153 0
-979 -1155 0
-980 -1157 0
-981 -1158 0
-978 -1159 0
-979 -1161 0
-981 -1165 0
-977 -1220 0
-979 -1223 0
-980 -1227 0
-981 -1228 0
-976 -1235 0
-979 -1237 0
-980 -1239 0
-981 -1240 0
-976 -1247 0
-977 -1248 0
-979 -1249 0
-980 -1252 0
-981 -1253 0
-976 -1266 0
-979 -1268 0
-980 -1271 0
-981 -1272 0
-979 -1282 0
-980 -1284 0
-981 -1285 0
-978 -1334 0
-979 -1336 0
-981 -1340 0
-979 -1412 0
-981 -1415 0
-977 -1422 0
-980 -1427 0
-981 -1428 0
-979 -1444 0
-980 -1447 0
-981 -1448 0
-979 -1458 0
-980 -1462 0
-981 -1463 0
-977 -1471 0
-978 -1473 0
-979 -1475 0
-981 -1479 0
-978 -1488 0
-979 -1489 0
-980 -1491 0
-981 -1492 0
-977 -1508 0
-979 -1511 0
-981 -1514 0
-977 -1522 0
-980 -1526 0
-981 -1527 0
-977 -1549 0
-981 -1554 0
-979 -1593 0
-981 -1596 0
-977 -1603 0
-978 -1604 0
-979 -1605 0
-980 -1608 0
-981 -1609 0
-978 -1616 0
-979 -1618 0
-981 -1622 0
-979 -1626 0
-980 -1628 0
-981 -1629 0
-977 -1636 0
-981 -1641 0
-976 -1642 0
-979 -1644 0
-981 -1647 0
-977 -1648 0
-978 -1649 0
-979 -1651 0
-981 -1653 0
-980 -1658 0
-981 -1659 0
-978 -1660 0
-979 -1663 0
-980 -1667 0
-981 -1668 0
-978 -1675 0
-979 -1677 0
-981 -1681 0
-977 -1688 0
-979 -1691 0
-981 -1694 0
-977 -1695 0
-980 -1699 0
-981 -1700 0
-976 -1708 0
-977 -1709 0
-979 -1711 0
-980 -1715 0
-981 -1716 0
-977 -1717 0
-981 -1722 0
-976 -1730 0
-979 -1733 0
-981 -1735 0
-979 -1750 0
-981 -1753 0
-977 -1761 0
-980 -1766 0
-981 -1767 0
-976 -1774 0
-979 -1776 0
-980 -1779 0
-981 -1780 0
-980 -1792 0
-981 -1793 0
-977 -1807 0
-981 -1812 0
-980 -1824 0
-981 -1825 0
-980 -1843 0
-981 -1844 0
-977 -1851 0
-979 -1854 0
-980 -1856 0
-981 -1857 0
-977 -1918 0
-979 -1919 0
-981 -1923 0
-977 -1924 0
-979 -1926 0
-980 -1929 0
-981 -1930 0
-979 -1946 0
-980 -1949 0
-981 -1950 0
-983 -989 0
-985 -991 0
-986 -992 0
-987 -993 0
-988 -994 0
-983 -1052 0
-987 -1056 0
-988 -1058 0
-982 -1059 0
-986 -1063 0
-987 -1064 0
-988 -1067 0
-982 -1075 0
-983 -1076 0
-986 -1078 0
-987 -1079 0
-988 -1081 0
-982 -1099 0
-985 -1101 0
-987 -1102 0
-988 -1105 0
-986 -1128 0
-987 -1129 0
-988 -1132 0
-984 -1133 0
-987 -1136 0
-988 -1138 0
-983 -1139 0
-984 -1140 0
-987 -1142 0
-988 -1145 0
-982 -1146 0
-984 -1147 0
-986 -1149 0
-987 -1150 0
-988 -1151 0
-984 -1159 0
-985 -1160 0
-986 -1162 0
-987 -1163 0
-988 -1165 0
-983 -1220 0
-985 -1222 0
-986 -1224 0
-987 -1225 0
-988 -1228 0
-982 -1229 0
-985 -1231 0
-987 -1233 0
-988 -1234 0
-982 -1241 0
-983 -1242 0
-985 -1243 0
-987 -1244 0
-988 -1246 0
-982 -1260 0
-985 -1261 0
-986 -1262 0
-987 -1263 0
-988 -1265 0
-985 -1275 0
-987 -1276 0
-988 -1278 0
-983 -1286 0
-985 -1288 0
-987 -1290 0
-988 -1292 0
-986 -1309 0
-987 -1310 0
-988 -1313 0
-984 -1328 0
-985 -1329 0
-987 -1330 0
-988 -1333 0
-986 -1405 0
-987 -1406 0
-988 -1409 0
-983 -1416 0
-986 -1418 0
-987 -1419 0
-988 -1421 0
-985 -1435 0
-986 -1437 0
-987 -1438 0
-988 -1440 0
-985 -1443 0
-987 -1445 0
-988 -1448 0
-982 -1449 0
-985 -1451 0
-986 -1452 0
-987 -1453 0
-988 -1455 0
-986 -1459 0
-987 -1460 0
-988 -1463 0
-983 -1464 0
-984 -1466 0
-986 -1467 0
-988 -1470 0
-984 -1481 0
-985 -1482 0
-986 -1483 0
-987 -1484 0
-988 -1486 0
-983 -1499 0
-985 -1502 0
-986 -1503 0
-987 -1504 0
-988 -1507 0
-983 -1515 0
-985 -1517 0
-986 -1519 0
-988 -1521 0
-983 -1542 0
-985 -1544 0
-987 -1546 0
-988 -1548 0
-985 -1592 0
-987 -1594 0
-988 -1596 0
-983 -1597 0
-984 -1598 0
-985 -1599 0
-986 -1600 0
-988 -1602 0
-984 -1610 0
-985 -1611 0
-987 -1612 0
-988 -1615 0
-986 -1633 0
-987 -1634 0
-988 -1635 0
-982 -1642 0
-986 -1645 0
-988 -1647 0
-983 -1648 0
-984 -1649 0
-986 -1652 0
-988 -1653 0
-984 -1660 0
-985 -1662 0
-986 -1664 0
-987 -1665 0
-988 -1668 0
-982 -1669 0
-984 -1670 0
-985 -1671 0
-986 -1672 0
-988 -1674 0
-984 -1682 0
-986 -1684 0
-988 -1687 0
-983 -1688 0
-985 -1690 0
-986 -1692 0
-987 -1693 0
-988 -1694 0
-983 -1695 0
-985 -1697 0
-986 -1698 0
-988 -1700 0
-982 -1701 0
-983 -1702 0
-985 -1704 0
-986 -1705 0
-988 -1707 0
-983 -1717 0
-985 -1719 0
-987 -1720 0
-988 -1722 0
-982 -1723 0
-985 -1725 0
-986 -1726 0
-987 -1727 0
-988 -1729 0
-982 -1736 0
-983 -1737 0
-985 -1738 0
-986 -1740 0
-988 -1741 0
-985 -1755 0
-987 -1757 0
-988 -1760 0
-983 -1768 0
-985 -1769 0
-988 -1773 0
-982 -1774 0
-985 -1775 0
-986 -1777 0
-988 -1780 0
-985 -1782 0
-986 -1784 0
-987 -1785 0
-988 -1787 0
-985 -1789 0
-986 -1790 0
-988 -1793 0
-984 -1794 0
-986 -1796 0
-988 -1799 0
-983 -1800 0
-986 -1803 0
-988 -1806 0
-985 -1814 0
-987 -1816 0
-988 -1819 0
-983 -1826 0
-985 -1827 0
-988 -1831 0
-983 -1845 0
-986 -1848 0
-988 -1850 0
-983 -1912 0
-985 -1913 0
-988 -1917 0
-983 -1924 0
-986 -1927 0
-988 -1930 0
-982 -1931 0
-983 -1932 0
-986 -1934 0
-987 -1935 0
-988 -1937 0
-982 -1938 0
-985 -1939 0
-986 -1941 0
-988 -1944 0
-983 -1952 0
-985 -1953 0
-986 -1954 0
-987 -1955 0
-988 -1958 0
-990 -1069 0
-991 -1071 0
-994 -1074 0
-990 -1083 0
-991 -1084 0
-992 -1086 0
-993 -1087 0
-994 -1088 0
-989 -1090 0
-991 -1093 0
-992 -1095 0
-993 -1096 0
-994 -1098 0
-994 -1112 0
-992 -1115 0
-993 -1116 0
-994 -1119 0
-991 -1154 0
-993 -1156 0
-994 -1158 0
-989 -1186 0
-991 -1188 0
-994 -1191 0
-992 -1208 0
-993 -1209 0
-994 -1211 0
-990 -1279 0
-991 -1281 0
-992 -1283 0
-994 -1285 0
-990 -1294 0
-991 -1295 0
-993 -1296 0
-994 -1299 0
-989 -1300 0
-991 -1303 0
-993 -1304 0
-994 -1306 0
-991 -1316 0
-992 -1317 0
-994 -1320 0
-991 -1323 0
-993 -1325 0
-994 -1327 0
-991 -1335 0
-992 -1337 0
-993 -1338 0
-994 -1340 0
-989 -1364 0
-991 -1366 0
-992 -1367 0
-994 -1369 0
-991 -1385 0
-992 -1386 0
-993 -1387 0
-994 -1389 0
-991 -1398 0
-992 -1400 0
-994 -1403 0
-991 -1443 0
-993 -1445 0
-994 -1448 0
-991 -1451 0
-992 -1452 0
-993 -1453 0
-994 -1455 0
-990 -1457 0
-992 -1459 0
-993 -1460 0
-994 -1463 0
-989 -1464 0
-990 -1465 0
-992 -1467 0
-994 -1470 0
-990 -1480 0
-991 -1482 0
-992 -1483 0
-993 -1484 0
-994 -1486 0
-989 -1508 0
-990 -1509 0
-993 -1512 0
-994 -1514 0
-989 -1522 0
-990 -1523 0
-993 -1524 0
-994 -1527 0
-989 -1529 0
-990 -1530 0
-992 -1531 0
-993 -1532 0
-994 -1534 0
-989 -1535 0
-992 -1538 0
-993 -1539 0
-994 -1541 0
-989 -1549 0
-990 -1550 0
-991 -1551 0
-992 -1552 0
-993 -1553 0
-994 -1554 0
-990 -1556 0
-991 -1557 0
-993 -1558 0
-994 -1561 0
-989 -1562 0
-991 -1565 0
-993 -1566 0
-994 -1568 0
-989 -1569 0
-991 -1571 0
-993 -1573 0
-994 -1574 0
-989 -1576 0
-991 -1578 0
-992 -1580 0
-993 -1581 0
-994 -1584 0
-989 -1603 0
-993 -1606 0
-994 -1609 0
-991 -1617 0
-992 -1619 0
-993 -1620 0
-994 -1622 0
-990 -1623 0
-991 -1625 0
-992 -1627 0
-994 -1629 0
-989 -1636 0
-990 -1637 0
-991 -1638 0
-992 -1639 0
-993 -1640 0
-994 -1641 0
-990 -1654 0
-991 -1655 0
-992 -1656 0
-994 -1659 0
-991 -1676 0
-992 -1678 0
-993 -1679 0
-994 -1681 0
-989 -1688 0
-991 -1690 0
-992 -1692 0
-993 -1693 0
-994 -1694 0
-989 -1695 0
-991 -1697 0
-992 -1698 0
-994 -1700 0
-989 -1702 0
-991 -1704 0
-992 -1705 0
-994 -1707 0
-989 -1717 0
-991 -1719 0
-993 -1720 0
-994 -1722 0
-991 -1725 0
-992 -1726 0
-993 -1727 0
-994 -1729 0
-989 -1737 0
-991 -1738 0
-992 -1740 0
-994 -1741 0
-991 -1755 0
-993 -1757 0
-994 -1760 0
-989 -1768 0
-991 -1769 0
-994 -1773 0
-991 -1775 0
-992 -1777 0
-994 -1780 0
-991 -1782 0
-992 -1784 0
-993 -1785 0
-994 -1787 0
-989 -1800 0
-992 -1803 0
-994 -1806 0
-991 -1814 0
-993 -1816 0
-994 -1819 0
-989 -1826 0
-991 -1827 0
-994 -1831 0
-989 -1851 0
-990 -1852 0
-991 -1853 0
-993 -1855 0
-994 -1857 0
-989 -1858 0
-991 -1860 0
-992 -1862 0
-994 -1864 0
-989 -1865 0
-993 -1868 0
-994 -1871 0
-989 -1886 0
-991 -1887 0
-993 -1889 0
-994 -1891 0
-989 -1906 0
-992 -1908 0
-993 -1909 0
-994 -1911 0
-989 -1924 0
-992 -1927 0
-994 -1930 0
-989 -1932 0
-992 -1934 0
-993 -1935 0
-994 -1937 0
-991 -1939 0
-992 -1941 0
-994 -1944 0
-989 -1952 0
-991 -1953 0
-992 -1954 0
-993 -1955 0
-994 -1958 0
-996 -1060 0
-997 -1062 0
-998 -1063 0
-999 -1066 0
-1000 -1067 0
-995 -1076 0
-996 -1077 0
-998 -1078 0
-1000 -1081 0
-996 -1083 0
-997 -1085 0
-998 -1086 0
-1000 -1088 0
-995 -1090 0
-997 -1094 0
-998 -1095 0
-1000 -1098 0
-996 -1100 0
-999 -1104 0
-1000 -1105 0
-997 -1109 0
-999 -1111 0
-1000 -1112 0
-997 -1148 0
-998 -1149 0
-1000 -1151 0
-995 -1180 0
-998 -1182 0
-1000 -1184 0
-999 -1203 0
-1000 -1204 0
-995 -1213 0
-997 -1215 0
-1000 -1218 0
-996 -1273 0
-999 -1277 0
-1000 -1278 0
-995 -1286 0
-996 -1287 0
-997 -1289 0
-999 -1291 0
-1000 -1292 0
-996 -1294 0
-999 -1298 0
-1000 -1299 0
-995 -1300 0
-999 -1305 0
-1000 -1306 0
-996 -1307 0
-997 -1308 0
-998 -1309 0
-999 -1312 0
-1000 -1313 0
-998 -1317 0
-999 -1319 0
-1000 -1320 0
-999 -1332 0
-1000 -1333 0
-995 -1355 0
-997 -1358 0
-999 -1361 0
-1000 -1362 0
-997 -1379 0
-998 -1380 0
-999 -1381 0
-1000 -1382 0
-995 -1391 0
-997 -1392 0
-998 -1393 0
-999 -1395 0
-1000 -1396 0
-997 -1399 0
-998 -1400 0
-999 -1402 0
-1000 -1403 0
-997 -1444 0
-999 -1447 0
-1000 -1448 0
-996 -1457 0
-997 -1458 0
-998 -1459 0
-999 -1462 0
-1000 -1463 0
-995 -1471 0
-996 -1472 0
-997 -1475 0
-998 -1476 0
-1000 -1479 0
-996 -1487 0
-997 -1489 0
-999 -1491 0
-1000 -1492 0
-995 -1499 0
-996 -1500 0
-998 -1503 0
-999 -1506 0
-1000 -1507 0
-995 -1515 0
-996 -1516 0
-997 -1518 0
-998 -1519 0
-1000 -1521 0
-995 -1529 0
-996 -1530 0
-998 -1531 0
-1000 -1534 0
-995 -1535 0
-998 -1538 0
-1000 -1541 0
-995 -1542 0
-996 -1543 0
-997 -1545 0
-999 -1547 0
-1000 -1548 0
-996 -1556 0
-999 -1560 0
-1000 -1561 0
-995 -1562 0
-999 -1567 0
-1000 -1568 0
-995 -1569 0
-997 -1572 0
-1000 -1574 0
-995 -1586 0
-1000 -1590 0
-995 -1597 0
-998 -1600 0
-1000 -1602 0
-999 -1614 0
-1000 -1615 0
-996 -1630 0
-997 -1632 0
-998 -1633 0
-1000 -1635 0
-997 -1683 0
-998 -1684 0
-999 -1686 0
-1000 -1687 0
-995 -1688 0
-997 -1691 0
-998 -1692 0
-1000 -1694 0
-995 -1695 0
-998 -1698 0
-999 -1699 0
-1000 -1700 0
-995 -1709 0
-997 -1711 0
-998 -1712 0
-999 -1715 0
-1000 -1716 0
-995 -1717 0
-1000 -1722 0
-997 -1733 0
-1000 -1735 0
-997 -1750 0
-998 -1751 0
-1000 -1753 0
-995 -1761 0
-998 -1763 0
-999 -1766 0
-1000 -1767 0
-997 -1776 0
-998 -1777 0
-999 -1779 0
-1000 -1780 0
-995 -1807 0
-1000 -1812 0
-998 -1821 0
-999 -1824 0
-1000 -1825 0
-995 -1845 0
-996 -1846 0
-997 -1847 0
-998 -1848 0
-999 -1849 0
-1000 -1850 0
-995 -1858 0
-997 -1861 0
-998 -1862 0
-999 -1863 0
-1000 -1864 0
-995 -1865 0
-997 -1867 0
-999 -1870 0
-1000 -1871 0
-995 -1880 0
-998 -1881 0
-999 -1883 0
-1000 -1884 0
-995 -1900 0
-999 -1903 0
-1000 -1904 0
-995 -1924 0
-997 -1926 0
-998 -1927 0
-999 -1929 0
-1000 -1930 0
-997 -1946 0
-998 -1947 0
-999 -1949 0
-1000 -1950 0
-1002 -1053 0
-1003 -1055 0
-1005 -1057 0
-1006 -1058 0
-1001 -1075 0
-1002 -1077 0
-1004 -1078 0
-1005 -1080 0
-1006 -1081 0
-1001 -1089 0
-1003 -1094 0
-1004 -1095 0
-1005 -1097 0
-1006 -1098 0
-1001 -1099 0
-1002 -1100 0
-1005 -1103 0
-1006 -1105 0
-1001 -1106 0
-1003 -1109 0
-1005 -1110 0
-1006 -1112 0
-1001 -1113 0
-1004 -1115 0
-1005 -1117 0
-1006 -1119 0
-1003 -1141 0
-1005 -1143 0
-1006 -1145 0
-1003 -1161 0
-1004 -1162 0
-1005 -1164 0
-1006 -1165 0
-1001 -1172 0
-1005 -1176 0
-1006 -1178 0
-1001 -1192 0
-1004 -1196 0
-1005 -1197 0
-1006 -1198 0
-1001 -1212 0
-1003 -1215 0
-1005 -1217 0
-1006 -1218 0
-1002 -1287 0
-1003 -1289 0
-1006 -1292 0
-1006 -1306 0
-1002 -1307 0
-1003 -1308 0
-1004 -1309 0
-1005 -1311 0
-1006 -1313 0
-1004 -1317 0
-1005 -1318 0
-1006 -1320 0
-1001 -1321 0
-1003 -1324 0
-1006 -1327 0
-1003 -1350 0
-1004 -1351 0
-1006 -1353 0
-1003 -1372 0
-1004 -1373 0
-1005 -1374 0
-1006 -1376 0
-1001 -1390 0
-1003 -1392 0
-1004 -1393 0
-1006 -1396 0
-1003 -1444 0
-1005 -1446 0
-1006 -1448 0
-1001 -1449 0
-1004 -1452 0
-1006 -1455 0
-1002 -1465 0
-1004 -1467 0
-1005 -1468 0
-1006 -1470 0
-1002 -1472 0
-1003 -1475 0
-1004 -1476 0
-1005 -1478 0
-1006 -1479 0
-1002 -1480 0
-1004 -1483 0
-1006 -1486 0
-1002 -1487 0
-1003 -1489 0
-1006 -1492 0
-1002 -1516 0
-1003 -1518 0
-1004 -1519 0
-1005 -1520 0
-1006 -1521 0
-1002 -1523 0
-1005 -1525 0
-1006 -1527 0
-1004 -1538 0
-1005 -1540 0
-1006 -1541 0
-1002 -1543 0
-1003 -1545 0
-1006 -1548 0
-1002 -1550 0
-1004 -1552 0
-1006 -1554 0
-1006 -1568 0
-1001 -1575 0
-1003 -1579 0
-1004 -1580 0
-1005 -1582 0
-1006 -1584 0
-1001 -1585 0
-1005 -1589 0
-1006 -1590 0
-1002 -1623 0
-1003 -1626 0
-1004 -1627 0
-1006 -1629 0
-1002 -1630 0
-1003 -1632 0
-1004 -1633 0
-1006 -1635 0
-1001 -1642 0
-1002 -1643 0
-1003 -1644 0
-1004 -1645 0
-1005 -1646 0
-1006 -1647 0
-1003 -1677 0
-1004 -1678 0
-1005 -1680 0
-1006 -1681 0
-1003 -1683 0
-1004 -1684 0
-1005 -1685 0
-1006 -1687 0
-1003 -1691 0
-1004 -1692 0
-1006 -1694 0
-1001 -1701 0
-1004 -1705 0
-1005 -1706 0
-1006 -1707 0
-1001 -1708 0
-1003 -1711 0
-1004 -1712 0
-1005 -1714 0
-1006 -1716 0
-1001 -1723 0
-1004 -1726 0
-1006 -1729 0
-1001 -1730 0
-1003 -1733 0
-1006 -1735 0
-1001 -1742 0
-1004 -1744 0
-1005 -1746 0
-1006 -1747 0
-1004 -1763 0
-1005 -1765 0
-1006 -1767 0
-1003 -1770 0
-1005 -1771 0
-1006 -1773 0
-1003 -1783 0
-1004 -1784 0
-1006 -1787 0
-1002 -1788 0
-1004 -1790 0
-1005 -1791 0
-1006 -1793 0
-1003 -1802 0
-1004 -1803 0
-1005 -1804 0
-1006 -1806 0
-1005 -1811 0
-1006 -1812 0
-1003 -1815 0
-1005 -1817 0
-1006 -1819 0
-1004 -1821 0
-1005 -1823 0
-1006 -1825 0
-1001 -1832 0
-1003 -1833 0
-1005 -1835 0
-1006 -1837 0
-1003 -1861 0
-1004 -1862 0
-1006 -1864 0
-1003 -1867 0
-1005 -1869 0
-1006 -1871 0
-1004 -1894 0
-1005 -1896 0
-1006 -1898 0
-1003 -1926 0
-1004 -1927 0
-1005 -1928 0
-1006 -1930 0
-1001 -1931 0
-1003 -1933 0
-1004 -1934 0
-1006 -1937 0
-1001 -1938 0
-1003 -1940 0
-1004 -1941 0
-1005 -1942 0
-1006 -1944 0
-1004 -1954 0
-1005 -1956 0
-1006 -1958 0
-1007 -1076 0
-1011 -1078 0
-1012 -1081 0
-1010 -1085 0
-1011 -1086 0
-1012 -1088 0
-1012 -1105 0
-1008 -1114 0
-1011 -1115 0
-1012 -1119 0
-1007 -1213 0
-1010 -1215 0
-1012 -1218 0
-1007 -1286 0
-1010 -1289 0
-1012 -1292 0
-1012 -1299 0
-1010 -1308 0
-1011 -1309 0
-1012 -1313 0
-1008 -1322 0
-1010 -1324 0
-1012 -1327 0
-1007 -1391 0
-1010 -1392 0
-1011 -1393 0
-1012 -1396 0
-1010 -1399 0
-1011 -1400 0
-1012 -1403 0
-1009 -1450 0
-1011 -1452 0
-1012 -1455 0
-1010 -1458 0
-1011 -1459 0
-1012 -1463 0
-1007 -1464 0
-1008 -1466 0
-1011 -1467 0
-1012 -1470 0
-1007 -1471 0
-1008 -1473 0
-1010 -1475 0
-1011 -1476 0
-1012 -1479 0
-1008 -1481 0
-1011 -1483 0
-1012 -1486 0
-1008 -1488 0
-1010 -1489 0
-1012 -1492 0
-1007 -1493 0
-1008 -1494 0
-1011 -1495 0
-1012 -1498 0
-1007 -1515 0
-1010 -1518 0
-1011 -1519 0
-1012 -1521 0
-1007 -1522 0
-1012 -1527 0
-1007 -1529 0
-1011 -1531 0
-1012 -1534 0
-1007 -1542 0
-1010 -1545 0
-1012 -1548 0
-1007 -1549 0
-1011 -1552 0
-1012 -1554 0
-1012 -1561 0
-1007 -1569 0
-1008 -1570 0
-1010 -1572 0
-1012 -1574 0
-1007 -1576 0
-1008 -1577 0
-1010 -1579 0
-1011 -1580 0
-1012 -1584 0
-1007 -1586 0
-1008 -1587 0
-1012 -1590 0
-1009 -1624 0
-1010 -1626 0
-1011 -1627 0
-1012 -1629 0
-1009 -1631 0
-1010 -1632 0
-1011 -1633 0
-1012 -1635 0
-1007 -1648 0
-1008 -1649 0
-1009 -1650 0
-1010 -1651 0
-1011 -1652 0
-1012 -1653 0
-1008 -1660 0
-1009 -1661 0
-1010 -1663 0
-1011 -1664 0
-1012 -1668 0
-1008 -1675 0
-1010 -1677 0
-1011 -1678 0
-1012 -1681 0
-1008 -1682 0
-1010 -1683 0
-1011 -1684 0
-1012 -1687 0
-1007 -1695 0
-1009 -1696 0
-1011 -1698 0
-1012 -1700 0
-1007 -1702 0
-1009 -1703 0
-1011 -1705 0
-1012 -1707 0
-1007 -1709 0
-1009 -1710 0
-1010 -1711 0
-1011 -1712 0
-1012 -1716 0
-1007 -1717 0
-1009 -1718 0
-1012 -1722 0
-1009 -1724 0
-1011 -1726 0
-1012 -1729 0
-1009 -1731 0
-1010 -1733 0
-1012 -1735 0
-1007 -1761 0
-1011 -1763 0
-1012 -1767 0
-1007 -1768 0
-1010 -1770 0
-1012 -1773 0
-1010 -1776 0
-1011 -1777 0
-1012 -1780 0
-1010 -1783 0
-1011 -1784 0
-1012 -1787 0
-1007 -1800 0
-1009 -1801 0
-1010 -1802 0
-1011 -1803 0
-1012 -1806 0
-1007 -1807 0
-1009 -1808 0
-1012 -1812 0
-1009 -1813 0
-1010 -1815 0
-1012 -1819 0
-1009 -1820 0
-1011 -1821 0
-1012 -1825 0
-1007 -1932 0
-1010 -1933 0
-1011 -1934 0
-1012 -1937 0
-1010 -1940 0
-1011 -1941 0
-1012 -1944 0
-1007 -1952 0
-1011 -1954 0
-1012 -1958 0
-1015 -1063 0
-1016 -1064 0
-1017 -1066 0
-1018 -1067 0
-1018 -1074 0
-1015 -1086 0
-1016 -1087 0
-1018 -1088 0
-1016 -1102 0
-1017 -1104 0
-1018 -1105 0
-1014 -1107 0
-1017 -1111 0
-1018 -1112 0
-1014 -1114 0
-1015 -1115 0
-1016 -1116 0
-1017 -1118 0
-1018 -1119 0
-1017 -1203 0
-1018 -1204 0
-1015 -1208 0
-1016 -1209 0
-1018 -1211 0
-1016 -1276 0
-1017 -1277 0
-1018 -1278 0
-1015 -1283 0
-1017 -1284 0
-1018 -1285 0
-1016 -1296 0
-1017 -1298 0
-1018 -1299 0
-1015 -1309 0
-1016 -1310 0
-1017 -1312 0
-1018 -1313 0
-1014 -1314 0
-1015 -1317 0
-1017 -1319 0
-1018 -1320 0
-1014 -1322 0
-1016 -1325 0
-1017 -1326 0
-1018 -1327 0
-1015 -1380 0
-1017 -1381 0
-1018 -1382 0
-1015 -1386 0
-1016 -1387 0
-1017 -1388 0
-1018 -1389 0
-1015 -1400 0
-1017 -1402 0
-1018 -1403 0
-1016 -1445 0
-1017 -1447 0
-1018 -1448 0
-1015 -1452 0
-1016 -1453 0
-1017 -1454 0
-1018 -1455 0
-1013 -1464 0
-1014 -1466 0
-1015 -1467 0
-1017 -1469 0
-1018 -1470 0
-1013 -1471 0
-1014 -1473 0
-1015 -1476 0
-1016 -1477 0
-1018 -1479 0
-1013 -1493 0
-1014 -1494 0
-1015 -1495 0
-1016 -1496 0
-1017 -1497 0
-1018 -1498 0
-1013 -1499 0
-1015 -1503 0
-1016 -1504 0
-1017 -1506 0
-1018 -1507 0
-1013 -1508 0
-1016 -1512 0
-1018 -1514 0
-1013 -1529 0
-1015 -1531 0
-1016 -1532 0
-1018 -1534 0
-1013 -1542 0
-1016 -1546 0
-1017 -1547 0
-1018 -1548 0
-1013 -1549 0
-1015 -1552 0
-1016 -1553 0
-1018 -1554 0
-1013 -1562 0
-1014 -1563 0
-1016 -1566 0
-1017 -1567 0
-1018 -1568 0
-1013 -1576 0
-1014 -1577 0
-1015 -1580 0
-1016 -1581 0
-1017 -1583 0
-1018 -1584 0
-1013 -1586 0
-1014 -1587 0
-1016 -1588 0
-1018 -1590 0
-1016 -1594 0
-1018 -1596 0
-1014 -1610 0
-1016 -1612 0
-1017 -1614 0
-1018 -1615 0
-1014 -1616 0
-1015 -1619 0
-1016 -1620 0
-1018 -1622 0
-1013 -1636 0
-1015 -1639 0
-1016 -1640 0
-1018 -1641 0
-1013 -1648 0
-1014 -1649 0
-1015 -1652 0
-1018 -1653 0
-1014 -1675 0
-1015 -1678 0
-1016 -1679 0
-1018 -1681 0
-1014 -1682 0
-1015 -1684 0
-1017 -1686 0
-1018 -1687 0
-1013 -1688 0
-1015 -1692 0
-1016 -1693 0
-1018 -1694 0
-1013 -1702 0
-1015 -1705 0
-1018 -1707 0
-1013 -1709 0
-1015 -1712 0
-1016 -1713 0
-1017 -1715 0
-1018 -1716 0
-1013 -1717 0
-1016 -1720 0
-1018 -1722 0
-1013 -1737 0
-1015 -1740 0
-1018 -1741 0
-1015 -1751 0
-1018 -1753 0
-1016 -1757 0
-1017 -1759 0
-1018 -1760 0
-1015 -1777 0
-1017 -1779 0
-1018 -1780 0
-1015 -1784 0
-1016 -1785 0
-1017 -1786 0
-1018 -1787 0
-1013 -1800 0
-1015 -1803 0
-1017 -1805 0
-1018 -1806 0
-1013 -1807 0
-1016 -1810 0
-1018 -1812 0
-1013 -1826 0
-1017 -1830 0
-1018 -1831 0
-1013 -1845 0
-1015 -1848 0
-1017 -1849 0
-1018 -1850 0
-1013 -1851 0
-1016 -1855 0
-1017 -1856 0
-1018 -1857 0
-1013 -1865 0
-1014 -1866 0
-1016 -1868 0
-1017 -1870 0
-1018 -1871 0
-1013 -1900 0
-1016 -1902 0
-1017 -1903 0
-1018 -1904 0
-1013 -1906 0
-1015 -1908 0
-1016 -1909 0
-1017 -1910 0
-1018 -1911 0
-1013 -1924 0
-1015 -1927 0
-1017 -1929 0
-1018 -1930 0
-1013 -1932 0
-1015 -1934 0
-1016 -1935 0
-1017 -1936 0
-1018 -1937 0
-1015 -1947 0
-1016 -1948 0
-1017 -1949 0
-1018 -1950 0
-1013 -1952 0
-1015 -1954 0
-1016 -1955 0
-1017 -1957 0
-1018 -1958 0
-1020 -1052 0
-1022 -1056 0
-1023 -1057 0
-1024 -1058 0
-1019 -1068 0
-1023 -1073 0
-1024 -1074 0
-1019 -1099 0
-1022 -1102 0
-1023 -1103 0
-1024 -1105 0
-1019 -1106 0
-1021 -1107 0
-1023 -1110 0
-1024 -1112 0
-1022 -1129 0
-1023 -1130 0
-1024 -1132 0
-1021 -1159 0
-1022 -1163 0
-1023 -1164 0
-1024 -1165 0
-1019 -1192 0
-1020 -1193 0
-1023 -1197 0
-1024 -1198 0
-1019 -1205 0
-1022 -1209 0
-1023 -1210 0
-1024 -1211 0
-1019 -1266 0
-1023 -1270 0
-1024 -1272 0
-1024 -1285 0
-1022 -1310 0
-1023 -1311 0
-1024 -1313 0
-1021 -1314 0
-1023 -1318 0
-1024 -1320 0
-1020 -1370 0
-1023 -1374 0
-1024 -1376 0
-1019 -1383 0
-1022 -1387 0
-1024 -1389 0
-1022 -1445 0
-1023 -1446 0
-1024 -1448 0
-1022 -1460 0
-1023 -1461 0
-1024 -1463 0
-1020 -1471 0
-1021 -1473 0
-1022 -1477 0
-1023 -1478 0
-1024 -1479 0
-1021 -1481 0
-1022 -1484 0
-1024 -1486 0
-1020 -1493 0
-1021 -1494 0
-1022 -1496 0
-1024 -1498 0
-1020 -1508 0
-1022 -1512 0
-1023 -1513 0
-1024 -1514 0
-1020 -1522 0
-1022 -1524 0
-1023 -1525 0
-1024 -1527 0
-1020 -1542 0
-1022 -1546 0
-1024 -1548 0
-1019 -1555 0
-1022 -1558 0
-1023 -1559 0
-1024 -1561 0
-1020 -1562 0
-1021 -1563 0
-1022 -1566 0
-1024 -1568 0
-1020 -1569 0
-1021 -1570 0
-1022 -1573 0
-1024 -1574 0
-1019 -1585 0
-1020 -1586 0
-1021 -1587 0
-1022 -1588 0
-1023 -1589 0
-1024 -1590 0
-1021 -1616 0
-1022 -1620 0
-1023 -1621 0
-1024 -1622 0
-1024 -1629 0
-1020 -1636 0
-1022 -1640 0
-1024 -1641 0
-1019 -1642 0
-1023 -1646 0
-1024 -1647 0
-1020 -1648 0
-1021 -1649 0
-1024 -1653 0
-1019 -1669 0
-1021 -1670 0
-1024 -1674 0
-1021 -1682 0
-1023 -1685 0
-1024 -1687 0
-1020 -1688 0
-1022 -1693 0
-1024 -1694 0
-1020 -1695 0
-1024 -1700 0
-1019 -1708 0
-1020 -1709 0
-1022 -1713 0
-1023 -1714 0
-1024 -1716 0
-1019 -1723 0
-1022 -1727 0
-1024 -1729 0
-1019 -1736 0
-1020 -1737 0
-1024 -1741 0
-1019 -1742 0
-1022 -1745 0
-1023 -1746 0
-1024 -1747 0
-1022 -1757 0
-1023 -1758 0
-1024 -1760 0
-1020 -1768 0
-1023 -1771 0
-1024 -1773 0
-1023 -1791 0
-1024 -1793 0
-1021 -1794 0
-1023 -1797 0
-1024 -1799 0
-1020 -1807 0
-1022 -1810 0
-1023 -1811 0
-1024 -1812 0
-1022 -1816 0
-1023 -1817 0
-1024 -1819 0
-1020 -1826 0
-1023 -1829 0
-1024 -1831 0
-1019 -1832 0
-1022 -1834 0
-1023 -1835 0
-1024 -1837 0
-1022 -1841 0
-1023 -1842 0
-1024 -1844 0
-1020 -1851 0
-1022 -1855 0
-1024 -1857 0
-1020 -1865 0
-1021 -1866 0
-1022 -1868 0
-1023 -1869 0
-1024 -1871 0
-1020 -1892 0
-1022 -1895 0
-1023 -1896 0
-1024 -1898 0
-1019 -1905 0
-1020 -1906 0
-1022 -1909 0
-1024 -1911 0
-1020 -1924 0
-1023 -1928 0
-1024 -1930 0
-1019 -1938 0
-1023 -1942 0
-1024 -1944 0
-1026 -1052 0
-1029 -1055 0
-1031 -1057 0
-1033 -1058 0
-1025 -1059 0
-1029 -1062 0
-1030 -1063 0
-1031 -1065 0
-1032 -1066 0
-1033 -1067 0
-1025 -1075 0
-1026 -1076 0
-1030 -1078 0
-1031 -1080 0
-1033 -1081 0
-1025 -1106 0
-1027 -1107 0
-1029 -1109 0
-1031 -1110 0
-1032 -1111 0
-1033 -1112 0
-1025 -1113 0
-1027 -1114 0
-1030 -1115 0
-1031 -1117 0
-1032 -1118 0
-1033 -1119 0
-1028 -1121 0
-1029 -1122 0
-1031 -1124 0
-1033 -1125 0
-1027 -1159 0
-1028 -1160 0
-1029 -1161 0
-1030 -1162 0
-1031 -1164 0
-1033 -1165 0
-1025 -1192 0
-1026 -1193 0
-1028 -1195 0
-1030 -1196 0
-1031 -1197 0
-1033 -1198 0
-1025 -1199 0
-1028 -1201 0
-1031 -1202 0
-1032 -1203 0
-1033 -1204 0
-1025 -1212 0
-1026 -1213 0
-1028 -1214 0
-1029 -1215 0
-1031 -1217 0
-1033 -1218 0
-1025 -1260 0
-1028 -1261 0
-1030 -1262 0
-1031 -1264 0
-1033 -1265 0
-1028 -1275 0
-1032 -1277 0
-1033 -1278 0
-1026 -1286 0
-1028 -1288 0
-1029 -1289 0
-1032 -1291 0
-1033 -1292 0
-1027 -1314 0
-1028 -1316 0
-1030 -1317 0
-1031 -1318 0
-1032 -1319 0
-1033 -1320 0
-1025 -1321 0
-1027 -1322 0
-1028 -1323 0
-1029 -1324 0
-1032 -1326 0
-1033 -1327 0
-1026 -1370 0
-1029 -1372 0
-1030 -1373 0
-1031 -1374 0
-1032 -1375 0
-1033 -1376 0
-1025 -1377 0
-1029 -1379 0
-1030 -1380 0
-1032 -1381 0
-1033 -1382 0
-1025 -1390 0
-1026 -1391 0
-1029 -1392 0
-1030 -1393 0
-1032 -1395 0
-1033 -1396 0
-1028 -1435 0
-1029 -1436 0
-1030 -1437 0
-1032 -1439 0
-1033 -1440 0
-1028 -1443 0
-1029 -1444 0
-1031 -1446 0
-1032 -1447 0
-1033 -1448 0
-1025 -1449 0
-1028 -1451 0
-1030 -1452 0
-1032 -1454 0
-1033 -1455 0
-1029 -1458 0
-1030 -1459 0
-1031 -1461 0
-1032 -1462 0
-1033 -1463 0
-1026 -1464 0
-1027 -1466 0
-1030 -1467 0
-1031 -1468 0
-1032 -1469 0
-1033 -1470 0
-1027 -1488 0
-1029 -1489 0
-1032 -1491 0
-1033 -1492 0
-1026 -1493 0
-1027 -1494 0
-1030 -1495 0
-1032 -1497 0
-1033 -1498 0
-1026 -1499 0
-1028 -1502 0
-1030 -1503 0
-1031 -1505 0
-1032 -1506 0
-1033 -1507 0
-1026 -1515 0
-1028 -1517 0
-1029 -1518 0
-1030 -1519 0
-1031 -1520 0
-1033 -1521 0
-1026 -1549 0
-1028 -1551 0
-1030 -1552 0
-1033 -1554 0
-1025 -1555 0
-1028 -1557 0
-1031 -1559 0
-1032 -1560 0
-1033 -1561 0
-1026 -1562 0
-1027 -1563 0
-1028 -1565 0
-1032 -1567 0
-1033 -1568 0
-1026 -1569 0
-1027 -1570 0
-1028 -1571 0
-1029 -1572 0
-1033 -1574 0
-1025 -1575 0
-1026 -1576 0
-1027 -1577 0
-1028 -1578 0
-1029 -1579 0
-1030 -1580 0
-1031 -1582 0
-1032 -1583 0
-1033 -1584 0
-1027 -1610 0
-1028 -1611 0
-1031 -1613 0
-1032 -1614 0
-1033 -1615 0
-1029 -1632 0
-1030 -1633 0
-1033 -1635 0
-1025 -1642 0
-1029 -1644 0
-1030 -1645 0
-1031 -1646 0
-1033 -1647 0
-1026 -1648 0
-1027 -1649 0
-1029 -1651 0
-1030 -1652 0
-1033 -1653 0
-1027 -1675 0
-1028 -1676 0
-1029 -1677 0
-1030 -1678 0
-1031 -1680 0
-1033 -1681 0
-1026 -1688 0
-1028 -1690 0
-1029 -1691 0
-1030 -1692 0
-1033 -1694 0
-1026 -1695 0
-1028 -1697 0
-1030 -1698 0
-1032 -1699 0
-1033 -1700 0
-1025 -1701 0
-1026 -1702 0
-1028 -1704 0
-1030 -1705 0
-1031 -1706 0
-1033 -1707 0
-1025 -1730 0
-1028 -1732 0
-1029 -1733 0
-1033 -1735 0
-1025 -1742 0
-1028 -1743 0
-1030 -1744 0
-1031 -1746 0
-1033 -1747 0
-1028 -1749 0
-1029 -1750 0
-1030 -1751 0
-1031 -1752 0
-1033 -1753 0
-1026 -1761 0
-1028 -1762 0
-1030 -1763 0
-1031 -1765 0
-1032 -1766 0
-1033 -1767 0
-1028 -1782 0
-1029 -1783 0
-1030 -1784 0
-1032 -1786 0
-1033 -1787 0
-1028 -1789 0
-1030 -1790 0
-1031 -1791 0
-1032 -1792 0
-1033 -1793 0
-1026 -1800 0
-1029 -1802 0
-1030 -1803 0
-1031 -1804 0
-1032 -1805 0
-1033 -1806 0
-1030 -1821 0
-1031 -1823 0
-1032 -1824 0
-1033 -1825 0
-1025 -1832 0
-1029 -1833 0
-1031 -1835 0
-1032 -1836 0
-1033 -1837 0
-1026 -1845 0
-1029 -1847 0
-1030 -1848 0
-1032 -1849 0
-1033 -1850 0
-1026 -1865 0
-1027 -1866 0
-1029 -1867 0
-1031 -1869 0
-1032 -1870 0
-1033 -1871 0
-1026 -1892 0
-1028 -1893 0
-1030 -1894 0
-1031 -1896 0
-1032 -1897 0
-1033 -1898 0
-1025 -1899 0
-1026 -1900 0
-1028 -1901 0
-1032 -1903 0
-1033 -1904 0
-1026 -1924 0
-1029 -1926 0
-1030 -1927 0
-1031 -1928 0
-1032 -1929 0
-1033 -1930 0
-1025 -1931 0
-1026 -1932 0
-1029 -1933 0
-1030 -1934 0
-1032 -1936 0
-1033 -1937 0
-1028 -1945 0
-1029 -1946 0
-1030 -1947 0
-1032 -1949 0
-1033 -1950 0
-1026 -1952 0
-1028 -1953 0
-1030 -1954 0
-1031 -1956 0
-1032 -1957 0
-1033 -1958 0
-1037 -1063 0
-1038 -1065 0
-1039 -1067 0
-1036 -1071 0
-1038 -1073 0
-1039 -1074 0
-1034 -1076 0
-1037 -1078 0
-1038 -1080 0
-1039 -1081 0
-1034 -1090 0
-1035 -1091 0
-1036 -1093 0
-1037 -1095 0
-1038 -1097 0
-1039 -1098 0
-1035 -1114 0
-1037 -1115 0
-1038 -1117 0
-1039 -1119 0
-1035 -1147 0
-1037 -1149 0
-1039 -1151 0
-1035 -1153 0
-1036 -1154 0
-1039 -1158 0
-1034 -1180 0
-1037 -1182 0
-1039 -1184 0
-1034 -1186 0
-1036 -1188 0
-1039 -1191 0
-1038 -1257 0
-1039 -1259 0
-1036 -1275 0
-1039 -1278 0
-1036 -1281 0
-1037 -1283 0
-1039 -1285 0
-1034 -1286 0
-1036 -1288 0
-1039 -1292 0
-1034 -1300 0
-1035 -1301 0
-1036 -1303 0
-1039 -1306 0
-1035 -1322 0
-1036 -1323 0
-1039 -1327 0
-1035 -1328 0
-1036 -1329 0
-1038 -1331 0
-1039 -1333 0
-1035 -1334 0
-1036 -1335 0
-1037 -1337 0
-1038 -1339 0
-1039 -1340 0
-1034 -1355 0
-1036 -1357 0
-1038 -1360 0
-1039 -1362 0
-1034 -1364 0
-1036 -1366 0
-1037 -1367 0
-1038 -1368 0
-1039 -1369 0
-1036 -1398 0
-1037 -1400 0
-1038 -1401 0
-1039 -1403 0
-1036 -1430 0
-1037 -1431 0
-1038 -1433 0
-1039 -1434 0
-1036 -1443 0
-1038 -1446 0
-1039 -1448 0
-1035 -1481 0
-1036 -1482 0
-1037 -1483 0
-1039 -1486 0
-1035 -1488 0
-1039 -1492 0
-1034 -1493 0
-1035 -1494 0
-1037 -1495 0
-1039 -1498 0
-1034 -1499 0
-1036 -1502 0
-1037 -1503 0
-1038 -1505 0
-1039 -1507 0
-1034 -1508 0
-1038 -1513 0
-1039 -1514 0
-1034 -1515 0
-1036 -1517 0
-1037 -1519 0
-1038 -1520 0
-1039 -1521 0
-1034 -1522 0
-1038 -1525 0
-1039 -1527 0
-1034 -1535 0
-1035 -1536 0
-1037 -1538 0
-1038 -1540 0
-1039 -1541 0
-1036 -1557 0
-1038 -1559 0
-1039 -1561 0
-1034 -1576 0
-1035 -1577 0
-1036 -1578 0
-1037 -1580 0
-1038 -1582 0
-1039 -1584 0
-1034 -1586 0
-1035 -1587 0
-1038 -1589 0
-1039 -1590 0
-1036 -1592 0
-1038 -1595 0
-1039 -1596 0
-1034 -1597 0
-1035 -1598 0
-1036 -1599 0
-1037 -1600 0
-1038 -1601 0
-1039 -1602 0
-1034 -1603 0
-1035 -1604 0
-1038 -1607 0
-1039 -1609 0
-1036 -1655 0
-1037 -1656 0
-1038 -1657 0
-1039 -1659 0
-1035 -1660 0
-1036 -1662 0
-1037 -1664 0
-1038 -1666 0
-1039 -1668 0
-1034 -1688 0
-1036 -1690 0
-1037 -1692 0
-1039 -1694 0
-1034 -1695 0
-1036 -1697 0
-1037 -1698 0
-1039 -1700 0
-1036 -1725 0
-1037 -1726 0
-1039 -1729 0
-1036 -1732 0
-1039 -1735 0
-1034 -1737 0
-1036 -1738 0
-1037 -1740 0
-1039 -1741 0
-1036 -1749 0
-1037 -1751 0
-1038 -1752 0
-1039 -1753 0
-1036 -1755 0
-1038 -1758 0
-1039 -1760 0
-1034 -1761 0
-1036 -1762 0
-1037 -1763 0
-1038 -1765 0
-1039 -1767 0
-1034 -1768 0
-1036 -1769 0
-1038 -1771 0
-1039 -1773 0
-1036 -1814 0
-1038 -1817 0
-1039 -1819 0
-1037 -1821 0
-1038 -1823 0
-1039 -1825 0
-1034 -1826 0
-1036 -1827 0
-1038 -1829 0
-1039 -1831 0
-1034 -1845 0
-1037 -1848 0
-1039 -1850 0
-1034 -1851 0
-1036 -1853 0
-1039 -1857 0
-1034 -1858 0
-1035 -1859 0
-1036 -1860 0
-1037 -1862 0
-1039 -1864 0
-1034 -1880 0
-1037 -1881 0
-1038 -1882 0
-1039 -1884 0
-1034 -1886 0
-1036 -1887 0
-1038 -1890 0
-1039 -1891 0
-1034 -1924 0
-1037 -1927 0
-1038 -1928 0
-1039 -1930 0
-1036 -1939 0
-1037 -1941 0
-1038 -1942 0
-1039 -1944 0
-1036 -1945 0
-1037 -1947 0
-1039 -1950 0
-1045 -1058 0
-1040 -1068 0
-1042 -1071 0
-1045 -1074 0
-1040 -1075 0
-1043 -1078 0
-1045 -1081 0
-1040 -1082 0
-1042 -1084 0
-1043 -1086 0
-1045 -1088 0
-1040 -1089 0
-1041 -1091 0
-1042 -1093 0
-1043 -1095 0
-1045 -1098 0
-1043 -1128 0
-1044 -1131 0
-1045 -1132 0
-1041 -1140 0
-1044 -1144 0
-1045 -1145 0
-1040 -1152 0
-1041 -1153 0
-1042 -1154 0
-1044 -1157 0
-1045 -1158 0
-1040 -1172 0
-1044 -1177 0
-1045 -1178 0
-1040 -1185 0
-1042 -1188 0
-1044 -1190 0
-1045 -1191 0
-1040 -1247 0
-1043 -1250 0
-1044 -1252 0
-1045 -1253 0
-1042 -1281 0
-1043 -1283 0
-1044 -1284 0
-1045 -1285 0
-1042 -1288 0
-1044 -1291 0
-1045 -1292 0
-1040 -1293 0
-1042 -1295 0
-1044 -1298 0
-1045 -1299 0
-1041 -1301 0
-1042 -1303 0
-1044 -1305 0
-1045 -1306 0
-1041 -1334 0
-1042 -1335 0
-1043 -1337 0
-1045 -1340 0
-1042 -1349 0
-1043 -1351 0
-1045 -1353 0
-1040 -1363 0
-1042 -1366 0
-1043 -1367 0
-1045 -1369 0
-1042 -1423 0
-1043 -1424 0
-1044 -1427 0
-1045 -1428 0
-1042 -1443 0
-1044 -1447 0
-1045 -1448 0
-1040 -1449 0
-1042 -1451 0
-1043 -1452 0
-1044 -1454 0
-1045 -1455 0
-1043 -1459 0
-1044 -1462 0
-1045 -1463 0
-1041 -1466 0
-1043 -1467 0
-1044 -1469 0
-1045 -1470 0
-1041 -1488 0
-1044 -1491 0
-1045 -1492 0
-1041 -1494 0
-1043 -1495 0
-1044 -1497 0
-1045 -1498 0
-1045 -1514 0
-1042 -1517 0
-1043 -1519 0
-1045 -1521 0
-1040 -1528 0
-1043 -1531 0
-1045 -1534 0
-1041 -1536 0
-1043 -1538 0
-1045 -1541 0
-1042 -1551 0
-1043 -1552 0
-1045 -1554 0
-1041 -1570 0
-1042 -1571 0
-1045 -1574 0
-1040 -1585 0
-1041 -1587 0
-1045 -1590 0
-1041 -1604 0
-1044 -1608 0
-1045 -1609 0
-1042 -1625 0
-1043 -1627 0
-1044 -1628 0
-1045 -1629 0
-1042 -1655 0
-1043 -1656 0
-1044 -1658 0
-1045 -1659 0
-1041 -1660 0
-1042 -1662 0
-1043 -1664 0
-1044 -1667 0
-1045 -1668 0
-1040 -1669 0
-1041 -1670 0
-1042 -1671 0
-1043 -1672 0
-1044 -1673 0
-1045 -1674 0
-1041 -1675 0
-1042 -1676 0
-1043 -1678 0
-1045 -1681 0
-1042 -1690 0
-1043 -1692 0
-1045 -1694 0
-1040 -1701 0
-1042 -1704 0
-1043 -1705 0
-1045 -1707 0
-1042 -1719 0
-1045 -1722 0
-1040 -1730 0
-1042 -1732 0
-1045 -1735 0
-1040 -1736 0
-1042 -1738 0
-1043 -1740 0
-1045 -1741 0
-1040 -1742 0
-1042 -1743 0
-1043 -1744 0
-1045 -1747 0
-1042 -1755 0
-1044 -1759 0
-1045 -1760 0
-1042 -1762 0
-1043 -1763 0
-1044 -1766 0
-1045 -1767 0
-1040 -1774 0
-1042 -1775 0
-1043 -1777 0
-1044 -1779 0
-1045 -1780 0
-1042 -1782 0
-1043 -1784 0
-1044 -1786 0
-1045 -1787 0
-1041 -1794 0
-1043 -1796 0
-1044 -1798 0
-1045 -1799 0
-1043 -1803 0
-1044 -1805 0
-1045 -1806 0
-1043 -1821 0
-1044 -1824 0
-1045 -1825 0
-1042 -1827 0
-1044 -1830 0
-1045 -1831 0
-1040 -1832 0
-1044 -1836 0
-1045 -1837 0
-1042 -1853 0
-1044 -1856 0
-1045 -1857 0
-1041 -1859 0
-1042 -1860 0
-1043 -1862 0
-1044 -1863 0
-1045 -1864 0
-1040 -1885 0
-1042 -1887 0
-1045 -1891 0
-1043 -1927 0
-1044 -1929 0
-1045 -1930 0
-1040 -1931 0
-1043 -1934 0
-1044 -1936 0
-1045 -1937 0
-1042 -1953 0
-1043 -1954 0
-1044 -1957 0
-1045 -1958 0
-1048 -1055 0
-1050 -1056 0
-1051 -1058 0
-1046 -1059 0
-1048 -1062 0
-1049 -1063 0
-1050 -1064 0
-1051 -1067 0
-1046 -1082 0
-1048 -1085 0
-1049 -1086 0
-1050 -1087 0
-1051 -1088 0
-1046 -1089 0
-1047 -1091 0
-1048 -1094 0
-1049 -1095 0
-1050 -1096 0
-1051 -1098 0
-1046 -1099 0
-1050 -1102 0
-1051 -1105 0
-1046 -1113 0
-1047 -1114 0
-1049 -1115 0
-1050 -1116 0
-1051 -1119 0
-1048 -1122 0
-1050 -1123 0
-1051 -1125 0
-1047 -1140 0
-1048 -1141 0
-1050 -1142 0
-1051 -1145 0
-1046 -1146 0
-1047 -1147 0
-1048 -1148 0
-1049 -1149 0
-1050 -1150 0
-1051 -1151 0
-1046 -1172 0
-1050 -1175 0
-1051 -1178 0
-1046 -1179 0
-1049 -1182 0
-1050 -1183 0
-1051 -1184 0
-1046 -1212 0
-1048 -1215 0
-1050 -1216 0
-1051 -1218 0
-1046 -1241 0
-1050 -1244 0
-1051 -1246 0
-1050 -1276 0
-1051 -1278 0
-1046 -1293 0
-1050 -1296 0
-1051 -1299 0
-1047 -1301 0
-1050 -1304 0
-1051 -1306 0
-1048 -1308 0
-1049 -1309 0
-1050 -1310 0
-1051 -1313 0
-1046 -1321 0
-1047 -1322 0
-1048 -1324 0
-1050 -1325 0
-1051 -1327 0
-1047 -1328 0
-1050 -1330 0
-1051 -1333 0
-1048 -1350 0
-1049 -1351 0
-1050 -1352 0
-1051 -1353 0
-1046 -1354 0
-1048 -1358 0
-1050 -1359 0
-1051 -1362 0
-1046 -1390 0
-1048 -1392 0
-1049 -1393 0
-1050 -1394 0
-1051 -1396 0
-1048 -1417 0
-1049 -1418 0
-1050 -1419 0
-1051 -1421 0
-1048 -1444 0
-1050 -1445 0
-1051 -1448 0
-1048 -1458 0
-1049 -1459 0
-1050 -1460 0
-1051 -1463 0
-1047 -1473 0
-1048 -1475 0
-1049 -1476 0
-1050 -1477 0
-1051 -1479 0
-1047 -1481 0
-1049 -1483 0
-1050 -1484 0
-1051 -1486 0
-1047 -1494 0
-1049 -1495 0
-1050 -1496 0
-1051 -1498 0
-1049 -1503 0
-1050 -1504 0
-1051 -1507 0
-1050 -1524 0
-1051 -1527 0
-1046 -1528 0
-1049 -1531 0
-1050 -1532 0
-1051 -1534 0
-1047 -1536 0
-1049 -1538 0
-1050 -1539 0
-1051 -1541 0
-1048 -1545 0
-1050 -1546 0
-1051 -1548 0
-1047 -1570 0
-1048 -1572 0
-1050 -1573 0
-1051 -1574 0
-1046 -1575 0
-1047 -1577 0
-1048 -1579 0
-1049 -1580 0
-1050 -1581 0
-1051 -1584 0
-1047 -1598 0
-1049 -1600 0
-1051 -1602 0
-1048 -1632 0
-1049 -1633 0
-1050 -1634 0
-1051 -1635 0
-1047 -1660 0
-1048 -1663 0
-1049 -1664 0
-1050 -1665 0
-1051 -1668 0
-1047 -1682 0
-1048 -1683 0
-1049 -1684 0
-1051 -1687 0
-1048 -1691 0
-1049 -1692 0
-1050 -1693 0
-1051 -1694 0
-1046 -1708 0
-1048 -1711 0
-1049 -1712 0
-1050 -1713 0
-1051 -1716 0
-1050 -1720 0
-1051 -1722 0
-1046 -1723 0
-1049 -1726 0
-1050 -1727 0
-1051 -1729 0
-1046 -1742 0
-1049 -1744 0
-1050 -1745 0
-1051 -1747 0
-1048 -1750 0
-1049 -1751 0
-1051 -1753 0
-1048 -1770 0
-1051 -1773 0
-1046 -1774 0
-1048 -1776 0
-1049 -1777 0
-1051 -1780 0
-1050 -1810 0
-1051 -1812 0
-1048 -1815 0
-1050 -1816 0
-1051 -1819 0
-1046 -1832 0
-1048 -1833 0
-1050 -1834 0
-1051 -1837 0
-1048 -1847 0
-1049 -1848 0
-1051 -1850 0
-1047 -1859 0
-1048 -1861 0
-1049 -1862 0
-1051 -1864 0
-1046 -1879 0
-1049 -1881 0
-1051 -1884 0
-1048 -1926 0
-1049 -1927 0
-1051 -1930 0
-1046 -1938 0
-1048 -1940 0
-1049 -1941 0
-1051 -1944 0
-1048 -1946 0
-1049 -1947 0
-1050 -1948 0
-1051 -1950 0
-1055 -1255 0
-1056 -1256 0
-1057 -1257 0
-1058 -1259 0
-1053 -1294 0
-1056 -1296 0
-1057 -1297 0
-1058 -1299 0
-1055 -1324 0
-1056 -1325 0
-1058 -1327 0
-1056 -1330 0
-1057 -1331 0
-1058 -1333 0
-1055 -1336 0
-1056 -1338 0
-1057 -1339 0
-1058 -1340 0
-1052 -1355 0
-1054 -1356 0
-1055 -1358 0
-1056 -1359 0
-1057 -1360 0
-1058 -1362 0
-1052 -1364 0
-1054 -1365 0
-1057 -1368 0
-1058 -1369 0
-1054 -1378 0
-1055 -1379 0
-1058 -1382 0
-1054 -1384 0
-1056 -1387 0
-1058 -1389 0
-1052 -1391 0
-1055 -1392 0
-1056 -1394 0
-1058 -1396 0
-1054 -1404 0
-1056 -1406 0
-1057 -1407 0
-1058 -1409 0
-1054 -1410 0
-1055 -1412 0
-1057 -1414 0
-1058 -1415 0
-1052 -1416 0
-1055 -1417 0
-1056 -1419 0
-1057 -1420 0
-1058 -1421 0
-1052 -1422 0
-1056 -1425 0
-1057 -1426 0
-1058 -1428 0
-1055 -1436 0
-1056 -1438 0
-1058 -1440 0
-1053 -1457 0
-1055 -1458 0
-1056 -1460 0
-1057 -1461 0
-1058 -1463 0
-1052 -1464 0
-1053 -1465 0
-1057 -1468 0
-1058 -1470 0
-1052 -1471 0
-1053 -1472 0
-1055 -1475 0
-1056 -1477 0
-1057 -1478 0
-1058 -1479 0
-1053 -1480 0
-1056 -1484 0
-1058 -1486 0
-1053 -1487 0
-1055 -1489 0
-1056 -1490 0
-1058 -1492 0
-1052 -1493 0
-1056 -1496 0
-1058 -1498 0
-1052 -1499 0
-1053 -1500 0
-1054 -1501 0
-1056 -1504 0
-1057 -1505 0
-1058 -1507 0
-1052 -1508 0
-1053 -1509 0
-1054 -1510 0
-1055 -1511 0
-1056 -1512 0
-1057 -1513 0
-1058 -1514 0
-1052 -1515 0
-1053 -1516 0
-1055 -1518 0
-1057 -1520 0
-1058 -1521 0
-1052 -1522 0
-1053 -1523 0
-1056 -1524 0
-1057 -1525 0
-1058 -1527 0
-1052 -1535 0
-1054 -1537 0
-1056 -1539 0
-1057 -1540 0
-1058 -1541 0
-1052 -1542 0
-1053 -1543 0
-1055 -1545 0
-1056 -1546 0
-1058 -1548 0
-1052 -1549 0
-1053 -1550 0
-1056 -1553 0
-1058 -1554 0
-1052 -1562 0
-1054 -1564 0
-1056 -1566 0
-1058 -1568 0
-1052 -1569 0
-1055 -1572 0
-1056 -1573 0
-1058 -1574 0
-1053 -1643 0
-1055 -1644 0
-1057 -1646 0
-1058 -1647 0
-1058 -1674 0
-1055 -1677 0
-1056 -1679 0
-1057 -1680 0
-1058 -1681 0
-1055 -1683 0
-1057 -1685 0
-1058 -1687 0
-1052 -1702 0
-1054 -1703 0
-1057 -1706 0
-1058 -1707 0
-1052 -1709 0
-1054 -1710 0
-1055 -1711 0
-1056 -1713 0
-1057 -1714 0
-1058 -1716 0
-1054 -1724 0
-1056 -1727 0
-1058 -1729 0
-1054 -1731 0
-1055 -1733 0
-1056 -1734 0
-1058 -1735 0
-1052 -1737 0
-1055 -1739 0
-1058 -1741 0
-1054 -1748 0
-1055 -1750 0
-1057 -1752 0
-1058 -1753 0
-1054 -1754 0
-1055 -1756 0
-1056 -1757 0
-1057 -1758 0
-1058 -1760 0
-1052 -1761 0
-1056 -1764 0
-1057 -1765 0
-1058 -1767 0
-1052 -1768 0
-1055 -1770 0
-1057 -1771 0
-1058 -1773 0
-1055 -1783 0
-1056 -1785 0
-1058 -1787 0
-1054 -1839 0
-1056 -1841 0
-1057 -1842 0
-1058 -1844 0
-1052 -1880 0
-1057 -1882 0
-1058 -1884 0
-1052 -1886 0
-1055 -1888 0
-1056 -1889 0
-1057 -1890 0
-1058 -1891 0
-1052 -1900 0
-1056 -1902 0
-1058 -1904 0
-1052 -1906 0
-1055 -1907 0
-1056 -1909 0
-1058 -1911 0
-1052 -1912 0
-1055 -1914 0
-1057 -1915 0
-1058 -1917 0
-1052 -1918 0
-1055 -1919 0
-1056 -1921 0
-1057 -1922 0
-1058 -1923 0
-1052 -1952 0
-1056 -1955 0
-1057 -1956 0
-1058 -1958 0
-1059 -1247 0
-1062 -1249 0
-1063 -1250 0
-1064 -1251 0
-1066 -1252 0
-1067 -1253 0
-1059 -1266 0
-1062 -1268 0
-1063 -1269 0
-1065 -1270 0
-1066 -1271 0
-1067 -1272 0
-1062 -1336 0
-1063 -1337 0
-1064 -1338 0
-1065 -1339 0
-1067 -1340 0
-1061 -1348 0
-1062 -1350 0
-1063 -1351 0
-1064 -1352 0
-1067 -1353 0
-1059 -1363 0
-1061 -1365 0
-1063 -1367 0
-1065 -1368 0
-1067 -1369 0
-1061 -1371 0
-1062 -1372 0
-1063 -1373 0
-1065 -1374 0
-1066 -1375 0
-1067 -1376 0
-1059 -1383 0
-1061 -1384 0
-1063 -1386 0
-1064 -1387 0
-1066 -1388 0
-1067 -1389 0
-1059 -1390 0
-1062 -1392 0
-1063 -1393 0
-1064 -1394 0
-1066 -1395 0
-1067 -1396 0
-1059 -1397 0
-1062 -1399 0
-1063 -1400 0
-1065 -1401 0
-1066 -1402 0
-1067 -1403 0
-1061 -1410 0
-1062 -1412 0
-1063 -1413 0
-1065 -1414 0
-1067 -1415 0
-1062 -1417 0
-1063 -1418 0
-1064 -1419 0
-1065 -1420 0
-1067 -1421 0
-1059 -1429 0
-1063 -1431 0
-1064 -1432 0
-1065 -1433 0
-1067 -1434 0
-1062 -1436 0
-1063 -1437 0
-1064 -1438 0
-1066 -1439 0
-1067 -1440 0
-1060 -1472 0
-1062 -1475 0
-1063 -1476 0
-1064 -1477 0
-1065 -1478 0
-1067 -1479 0
-1060 -1487 0
-1062 -1489 0
-1064 -1490 0
-1066 -1491 0
-1067 -1492 0
-1063 -1495 0
-1064 -1496 0
-1066 -1497 0
-1067 -1498 0
-1060 -1509 0
-1061 -1510 0
-1062 -1511 0
-1064 -1512 0
-1065 -1513 0
-1067 -1514 0
-1060 -1516 0
-1062 -1518 0
-1063 -1519 0
-1065 -1520 0
-1067 -1521 0
-1059 -1528 0
-1060 -1530 0
-1063 -1531 0
-1064 -1532 0
-1065 -1533 0
-1067 -1534 0
-1061 -1537 0
-1063 -1538 0
-1064 -1539 0
-1065 -1540 0
-1067 -1541 0
-1060 -1543 0
-1062 -1545 0
-1064 -1546 0
-1066 -1547 0
-1067 -1548 0
-1059 -1555 0
-1060 -1556 0
-1064 -1558 0
-1065 -1559 0
-1066 -1560 0
-1067 -1561 0
-1061 -1564 0
-1064 -1566 0
-1066 -1567 0
-1067 -1568 0
-1059 -1575 0
-1062 -1579 0
-1063 -1580 0
-1064 -1581 0
-1065 -1582 0
-1066 -1583 0
-1067 -1584 0
-1060 -1591 0
-1062 -1593 0
-1064 -1594 0
-1065 -1595 0
-1067 -1596 0
-1063 -1600 0
-1065 -1601 0
-1067 -1602 0
-1064 -1612 0
-1065 -1613 0
-1066 -1614 0
-1067 -1615 0
-1062 -1683 0
-1063 -1684 0
-1065 -1685 0
-1066 -1686 0
-1067 -1687 0
-1061 -1696 0
-1063 -1698 0
-1066 -1699 0
-1067 -1700 0
-1059 -1708 0
-1061 -1710 0
-1062 -1711 0
-1063 -1712 0
-1064 -1713 0
-1065 -1714 0
-1066 -1715 0
-1067 -1716 0
-1061 -1718 0
-1064 -1720 0
-1065 -1721 0
-1067 -1722 0
-1059 -1730 0
-1061 -1731 0
-1062 -1733 0
-1064 -1734 0
-1067 -1735 0
-1059 -1736 0
-1062 -1739 0
-1063 -1740 0
-1067 -1741 0
-1059 -1742 0
-1063 -1744 0
-1064 -1745 0
-1065 -1746 0
-1067 -1747 0
-1061 -1754 0
-1062 -1756 0
-1064 -1757 0
-1065 -1758 0
-1066 -1759 0
-1067 -1760 0
-1063 -1763 0
-1064 -1764 0
-1065 -1765 0
-1066 -1766 0
-1067 -1767 0
-1059 -1774 0
-1062 -1776 0
-1063 -1777 0
-1065 -1778 0
-1066 -1779 0
-1067 -1780 0
-1060 -1788 0
-1063 -1790 0
-1065 -1791 0
-1066 -1792 0
-1067 -1793 0
-1062 -1795 0
-1063 -1796 0
-1065 -1797 0
-1066 -1798 0
-1067 -1799 0
-1061 -1801 0
-1062 -1802 0
-1063 -1803 0
-1065 -1804 0
-1066 -1805 0
-1067 -1806 0
-1061 -1813 0
-1062 -1815 0
-1064 -1816 0
-1065 -1817 0
-1066 -1818 0
-1067 -1819 0
-1059 -1885 0
-1062 -1888 0
-1064 -1889 0
-1065 -1890 0
-1067 -1891 0
-1063 -1894 0
-1064 -1895 0
-1065 -1896 0
-1066 -1897 0
-1067 -1898 0
-1059 -1905 0
-1062 -1907 0
-1063 -1908 0
-1064 -1909 0
-1066 -1910 0
-1067 -1911 0
-1062 -1919 0
-1063 -1920 0
-1064 -1921 0
-1065 -1922 0
-1067 -1923 0
-1068 -1212 0
-1071 -1214 0
-1072 -1215 0
-1073 -1217 0
-1074 -1218 0
-1068 -1241 0
-1071 -1243 0
-1074 -1246 0
-1068 -1260 0
-1071 -1261 0
-1073 -1264 0
-1074 -1265 0
-1069 -1287 0
-1071 -1288 0
-1072 -1289 0
-1074 -1292 0
-1069 -1307 0
-1072 -1308 0
-1073 -1311 0
-1074 -1313 0
-1068 -1321 0
-1071 -1323 0
-1072 -1324 0
-1074 -1327 0
-1071 -1329 0
-1073 -1331 0
-1074 -1333 0
-1070 -1348 0
-1071 -1349 0
-1072 -1350 0
-1074 -1353 0
-1068 -1354 0
-1070 -1356 0
-1071 -1357 0
-1072 -1358 0
-1073 -1360 0
-1074 -1362 0
-1070 -1371 0
-1072 -1372 0
-1073 -1374 0
-1074 -1376 0
-1068 -1377 0
-1070 -1378 0
-1072 -1379 0
-1074 -1382 0
-1068 -1397 0
-1071 -1398 0
-1072 -1399 0
-1073 -1401 0
-1074 -1403 0
-1070 -1404 0
-1073 -1407 0
-1074 -1409 0
-1071 -1423 0
-1073 -1426 0
-1074 -1428 0
-1068 -1429 0
-1071 -1430 0
-1073 -1433 0
-1074 -1434 0
-1069 -1465 0
-1073 -1468 0
-1074 -1470 0
-1069 -1480 0
-1071 -1482 0
-1074 -1486 0
-1074 -1498 0
-1069 -1500 0
-1070 -1501 0
-1071 -1502 0
-1073 -1505 0
-1074 -1507 0
-1069 -1523 0
-1073 -1525 0
-1074 -1527 0
-1068 -1528 0
-1069 -1530 0
-1073 -1533 0
-1074 -1534 0
-1070 -1537 0
-1073 -1540 0
-1074 -1541 0
-1069 -1550 0
-1071 -1551 0
-1074 -1554 0
-1068 -1555 0
-1069 -1556 0
-1071 -1557 0
-1073 -1559 0
-1074 -1561 0
-1070 -1564 0
-1071 -1565 0
-1074 -1568 0
-1068 -1585 0
-1073 -1589 0
-1074 -1590 0
-1069 -1591 0
-1071 -1592 0
-1072 -1593 0
-1073 -1595 0
-1074 -1596 0
-1072 -1605 0
-1073 -1607 0
-1074 -1609 0
-1071 -1617 0
-1072 -1618 0
-1073 -1621 0
-1074 -1622 0
-1069 -1637 0
-1071 -1638 0
-1074 -1641 0
-1069 -1654 0
-1071 -1655 0
-1073 -1657 0
-1074 -1659 0
-1068 -1669 0
-1071 -1671 0
-1074 -1674 0
-1071 -1676 0
-1072 -1677 0
-1073 -1680 0
-1074 -1681 0
-1070 -1696 0
-1071 -1697 0
-1074 -1700 0
-1068 -1701 0
-1070 -1703 0
-1071 -1704 0
-1073 -1706 0
-1074 -1707 0
-1070 -1718 0
-1071 -1719 0
-1073 -1721 0
-1074 -1722 0
-1068 -1723 0
-1070 -1724 0
-1071 -1725 0
-1074 -1729 0
-1068 -1742 0
-1071 -1743 0
-1073 -1746 0
-1074 -1747 0
-1070 -1748 0
-1071 -1749 0
-1072 -1750 0
-1073 -1752 0
-1074 -1753 0
-1071 -1769 0
-1072 -1770 0
-1073 -1771 0
-1074 -1773 0
-1068 -1774 0
-1071 -1775 0
-1072 -1776 0
-1073 -1778 0
-1074 -1780 0
-1071 -1782 0
-1072 -1783 0
-1074 -1787 0
-1069 -1788 0
-1071 -1789 0
-1073 -1791 0
-1074 -1793 0
-1070 -1808 0
-1071 -1809 0
-1073 -1811 0
-1074 -1812 0
-1070 -1820 0
-1073 -1823 0
-1074 -1825 0
-1070 -1839 0
-1073 -1842 0
-1074 -1844 0
-1068 -1879 0
-1073 -1882 0
-1074 -1884 0
-1071 -1893 0
-1073 -1896 0
-1074 -1898 0
-1068 -1899 0
-1071 -1901 0
-1074 -1904 0
-1071 -1913 0
-1072 -1914 0
-1073 -1915 0
-1074 -1917 0
-1071 -1953 0
-1073 -1956 0
-1074 -1958 0
-1075 -1205 0
-1078 -1208 0
-1079 -1209 0
-1080 -1210 0
-1081 -1211 0
-1075 -1235 0
-1078 -1238 0
-1081 -1240 0
-1075 -1266 0
-1078 -1269 0
-1080 -1270 0
-1081 -1272 0
-1077 -1279 0
-1078 -1283 0
-1081 -1285 0
-1078 -1317 0
-1080 -1318 0
-1081 -1320 0
-1078 -1337 0
-1079 -1338 0
-1080 -1339 0
-1081 -1340 0
-1076 -1341 0
-1078 -1344 0
-1081 -1346 0
-1075 -1363 0
-1076 -1364 0
-1078 -1367 0
-1080 -1368 0
-1081 -1369 0
-1076 -1370 0
-1078 -1373 0
-1080 -1374 0
-1081 -1376 0
-1075 -1377 0
-1078 -1380 0
-1081 -1382 0
-1075 -1397 0
-1078 -1400 0
-1080 -1401 0
-1081 -1403 0
-1078 -1405 0
-1079 -1406 0
-1080 -1407 0
-1081 -1409 0
-1076 -1422 0
-1078 -1424 0
-1079 -1425 0
-1080 -1426 0
-1081 -1428 0
-1075 -1429 0
-1078 -1431 0
-1079 -1432 0
-1080 -1433 0
-1081 -1434 0
-1078 -1437 0
-1079 -1438 0
-1081 -1440 0
-1077 -1457 0
-1078 -1459 0
-1079 -1460 0
-1080 -1461 0
-1081 -1463 0
-1076 -1471 0
-1077 -1472 0
-1078 -1476 0
-1079 -1477 0
-1080 -1478 0
-1081 -1479 0
-1077 -1480 0
-1078 -1483 0
-1079 -1484 0
-1081 -1486 0
-1076 -1493 0
-1078 -1495 0
-1079 -1496 0
-1081 -1498 0
-1076 -1499 0
-1077 -1500 0
-1078 -1503 0
-1079 -1504 0
-1080 -1505 0
-1081 -1507 0
-1076 -1522 0
-1077 -1523 0
-1079 -1524 0
-1080 -1525 0
-1081 -1527 0
-1075 -1528 0
-1076 -1529 0
-1077 -1530 0
-1078 -1531 0
-1079 -1532 0
-1080 -1533 0
-1081 -1534 0
-1076 -1535 0
-1078 -1538 0
-1079 -1539 0
-1080 -1540 0
-1081 -1541 0
-1076 -1542 0
-1077 -1543 0
-1079 -1546 0
-1081 -1548 0
-1076 -1569 0
-1079 -1573 0
-1081 -1574 0
-1075 -1575 0
-1076 -1576 0
-1078 -1580 0
-1079 -1581 0
-1080 -1582 0
-1081 -1584 0
-1076 -1597 0
-1078 -1600 0
-1080 -1601 0
-1081 -1602 0
-1077 -1630 0
-1078 -1633 0
-1079 -1634 0
-1081 -1635 0
-1078 -1664 0
-1079 -1665 0
-1080 -1666 0
-1081 -1668 0
-1078 -1684 0
-1080 -1685 0
-1081 -1687 0
-1076 -1688 0
-1078 -1692 0
-1079 -1693 0
-1081 -1694 0
-1075 -1708 0
-1076 -1709 0
-1078 -1712 0
-1079 -1713 0
-1080 -1714 0
-1081 -1716 0
-1076 -1717 0
-1079 -1720 0
-1080 -1721 0
-1081 -1722 0
-1075 -1723 0
-1078 -1726 0
-1079 -1727 0
-1081 -1729 0
-1075 -1742 0
-1078 -1744 0
-1079 -1745 0
-1080 -1746 0
-1081 -1747 0
-1078 -1751 0
-1080 -1752 0
-1081 -1753 0
-1076 -1768 0
-1080 -1771 0
-1081 -1773 0
-1075 -1774 0
-1078 -1777 0
-1080 -1778 0
-1081 -1780 0
-1077 -1788 0
-1078 -1790 0
-1080 -1791 0
-1081 -1793 0
-1078 -1796 0
-1080 -1797 0
-1081 -1799 0
-1076 -1800 0
-1078 -1803 0
-1080 -1804 0
-1081 -1806 0
-1076 -1826 0
-1080 -1829 0
-1081 -1831 0
-1076 -1851 0
-1077 -1852 0
-1079 -1855 0
-1081 -1857 0
-1076 -1865 0
-1079 -1868 0
-1080 -1869 0
-1081 -1871 0
-1076 -1872 0
-1079 -1875 0
-1081 -1877 0
-1075 -1885 0
-1076 -1886 0
-1079 -1889 0
-1080 -1890 0
-1081 -1891 0
-1076 -1892 0
-1078 -1894 0
-1079 -1895 0
-1080 -1896 0
-1081 -1898 0
-1075 -1899 0
-1076 -1900 0
-1079 -1902 0
-1081 -1904 0
-1076 -1912 0
-1080 -1915 0
-1081 -1917 0
-1084 -1160 0
-1085 -1161 0
-1086 -1162 0
-1087 -1163 0
-1088 -1165 0
-1082 -1192 0
-1084 -1195 0
-1086 -1196 0
-1088 -1198 0
-1084 -1222 0
-1085 -1223 0
-1086 -1224 0
-1087 -1225 0
-1088 -1228 0
-1082 -1260 0
-1084 -1261 0
-1086 -1262 0
-1087 -1263 0
-1088 -1265 0
-1082 -1266 0
-1084 -1267 0
-1085 -1268 0
-1086 -1269 0
-1088 -1272 0
-1083 -1307 0
-1085 -1308 0
-1086 -1309 0
-1087 -1310 0
-1088 -1313 0
-1084 -1316 0
-1086 -1317 0
-1088 -1320 0
-1084 -1343 0
-1086 -1344 0
-1088 -1346 0
-1084 -1349 0
-1085 -1350 0
-1086 -1351 0
-1087 -1352 0
-1088 -1353 0
-1082 -1377 0
-1085 -1379 0
-1086 -1380 0
-1088 -1382 0
-1082 -1383 0
-1084 -1385 0
-1086 -1386 0
-1087 -1387 0
-1088 -1389 0
-1082 -1390 0
-1085 -1392 0
-1086 -1393 0
-1087 -1394 0
-1088 -1396 0
-1086 -1405 0
-1087 -1406 0
-1088 -1409 0
-1084 -1411 0
-1085 -1412 0
-1086 -1413 0
-1088 -1415 0
-1085 -1417 0
-1086 -1418 0
-1087 -1419 0
-1088 -1421 0
-1084 -1423 0
-1086 -1424 0
-1087 -1425 0
-1088 -1428 0
-1083 -1480 0
-1084 -1482 0
-1086 -1483 0
-1087 -1484 0
-1088 -1486 0
-1083 -1487 0
-1085 -1489 0
-1087 -1490 0
-1088 -1492 0
-1086 -1495 0
-1087 -1496 0
-1088 -1498 0
-1083 -1500 0
-1084 -1502 0
-1086 -1503 0
-1087 -1504 0
-1088 -1507 0
-1083 -1509 0
-1085 -1511 0
-1087 -1512 0
-1088 -1514 0
-1083 -1516 0
-1084 -1517 0
-1085 -1518 0
-1086 -1519 0
-1088 -1521 0
-1083 -1523 0
-1087 -1524 0
-1088 -1527 0
-1086 -1538 0
-1087 -1539 0
-1088 -1541 0
-1082 -1555 0
-1083 -1556 0
-1084 -1557 0
-1087 -1558 0
-1088 -1561 0
-1082 -1575 0
-1084 -1578 0
-1085 -1579 0
-1086 -1580 0
-1087 -1581 0
-1088 -1584 0
-1082 -1585 0
-1087 -1588 0
-1088 -1590 0
-1083 -1591 0
-1084 -1592 0
-1085 -1593 0
-1087 -1594 0
-1088 -1596 0
-1084 -1599 0
-1086 -1600 0
-1088 -1602 0
-1085 -1605 0
-1087 -1606 0
-1088 -1609 0
-1083 -1654 0
-1084 -1655 0
-1086 -1656 0
-1088 -1659 0
-1084 -1662 0
-1085 -1663 0
-1086 -1664 0
-1087 -1665 0
-1088 -1668 0
-1084 -1690 0
-1085 -1691 0
-1086 -1692 0
-1087 -1693 0
-1088 -1694 0
-1084 -1697 0
-1086 -1698 0
-1088 -1700 0
-1082 -1723 0
-1084 -1725 0
-1086 -1726 0
-1087 -1727 0
-1088 -1729 0
-1082 -1730 0
-1084 -1732 0
-1085 -1733 0
-1087 -1734 0
-1088 -1735 0
-1082 -1736 0
-1084 -1738 0
-1085 -1739 0
-1086 -1740 0
-1088 -1741 0
-1084 -1749 0
-1085 -1750 0
-1086 -1751 0
-1088 -1753 0
-1084 -1755 0
-1085 -1756 0
-1087 -1757 0
-1088 -1760 0
-1084 -1762 0
-1086 -1763 0
-1087 -1764 0
-1088 -1767 0
-1084 -1769 0
-1085 -1770 0
-1088 -1773 0
-1085 -1795 0
-1086 -1796 0
-1088 -1799 0
-1085 -1802 0
-1086 -1803 0
-1088 -1806 0
-1084 -1809 0
-1087 -1810 0
-1088 -1812 0
-1082 -1832 0
-1085 -1833 0
-1087 -1834 0
-1088 -1837 0
-1085 -1867 0
-1087 -1868 0
-1088 -1871 0
-1085 -1874 0
-1087 -1875 0
-1088 -1877 0
-1082 -1899 0
-1084 -1901 0
-1087 -1902 0
-1088 -1904 0
-1082 -1905 0
-1085 -1907 0
-1086 -1908 0
-1087 -1909 0
-1088 -1911 0
-1084 -1913 0
-1085 -1914 0
-1088 -1917 0
-1085 -1919 0
-1086 -1920 0
-1087 -1921 0
-1088 -1923 0
-1089 -1260 0
-1093 -1261 0
-1095 -1262 0
-1096 -1263 0
-1097 -1264 0
-1098 -1265 0
-1089 -1266 0
-1093 -1267 0
-1094 -1268 0
-1095 -1269 0
-1097 -1270 0
-1098 -1272 0
-1094 -1308 0
-1095 -1309 0
-1096 -1310 0
-1097 -1311 0
-1098 -1313 0
-1090 -1370 0
-1092 -1371 0
-1094 -1372 0
-1095 -1373 0
-1097 -1374 0
-1098 -1376 0
-1089 -1377 0
-1092 -1378 0
-1094 -1379 0
-1095 -1380 0
-1098 -1382 0
-1089 -1383 0
-1092 -1384 0
-1093 -1385 0
-1095 -1386 0
-1096 -1387 0
-1098 -1389 0
-1089 -1390 0
-1090 -1391 0
-1094 -1392 0
-1095 -1393 0
-1096 -1394 0
-1098 -1396 0
-1089 -1397 0
-1093 -1398 0
-1094 -1399 0
-1095 -1400 0
-1097 -1401 0
-1098 -1403 0
-1092 -1404 0
-1095 -1405 0
-1096 -1406 0
-1097 -1407 0
-1098 -1409 0
-1092 -1410 0
-1093 -1411 0
-1094 -1412 0
-1095 -1413 0
-1097 -1414 0
-1098 -1415 0
-1090 -1416 0
-1094 -1417 0
-1095 -1418 0
-1096 -1419 0
-1097 -1420 0
-1098 -1421 0
-1090 -1422 0
-1093 -1423 0
-1095 -1424 0
-1096 -1425 0
-1097 -1426 0
-1098 -1428 0
-1089 -1429 0
-1093 -1430 0
-1095 -1431 0
-1096 -1432 0
-1097 -1433 0
-1098 -1434 0
-1094 -1458 0
-1095 -1459 0
-1096 -1460 0
-1097 -1461 0
-1098 -1463 0
-1091 -1481 0
-1093 -1482 0
-1095 -1483 0
-1096 -1484 0
-1098 -1486 0
-1091 -1488 0
-1094 -1489 0
-1096 -1490 0
-1098 -1492 0
-1090 -1499 0
-1092 -1501 0
-1093 -1502 0
-1095 -1503 0
-1096 -1504 0
-1097 -1505 0
-1098 -1507 0
-1090 -1508 0
-1092 -1510 0
-1094 -1511 0
-1096 -1512 0
-1097 -1513 0
-1098 -1514 0
-1090 -1515 0
-1093 -1517 0
-1094 -1518 0
-1095 -1519 0
-1097 -1520 0
-1098 -1521 0
-1090 -1522 0
-1096 -1524 0
-1097 -1525 0
-1098 -1527 0
-1089 -1528 0
-1090 -1529 0
-1095 -1531 0
-1096 -1532 0
-1097 -1533 0
-1098 -1534 0
-1090 -1562 0
-1091 -1563 0
-1092 -1564 0
-1093 -1565 0
-1096 -1566 0
-1098 -1568 0
-1090 -1569 0
-1091 -1570 0
-1093 -1571 0
-1094 -1572 0
-1096 -1573 0
-1098 -1574 0
-1089 -1575 0
-1090 -1576 0
-1091 -1577 0
-1093 -1578 0
-1094 -1579 0
-1095 -1580 0
-1096 -1581 0
-1097 -1582 0
-1098 -1584 0
-1089 -1585 0
-1090 -1586 0
-1091 -1587 0
-1096 -1588 0
-1097 -1589 0
-1098 -1590 0
-1090 -1597 0
-1091 -1598 0
-1093 -1599 0
-1095 -1600 0
-1097 -1601 0
-1098 -1602 0
-1090 -1603 0
-1091 -1604 0
-1094 -1605 0
-1096 -1606 0
-1097 -1607 0
-1098 -1609 0
-1093 -1655 0
-1095 -1656 0
-1097 -1657 0
-1098 -1659 0
-1090 -1717 0
-1092 -1718 0
-1093 -1719 0
-1096 -1720 0
-1097 -1721 0
-1098 -1722 0
-1089 -1723 0
-1092 -1724 0
-1093 -1725 0
-1095 -1726 0
-1096 -1727 0
-1098 -1729 0
-1089 -1730 0
-1092 -1731 0
-1093 -1732 0
-1094 -1733 0
-1096 -1734 0
-1098 -1735 0
-1089 -1736 0
-1090 -1737 0
-1093 -1738 0
-1094 -1739 0
-1095 -1740 0
-1098 -1741 0
-1089 -1742 0
-1093 -1743 0
-1095 -1744 0
-1096 -1745 0
-1097 -1746 0
-1098 -1747 0
-1092 -1748 0
-1093 -1749 0
-1094 -1750 0
-1095 -1751 0
-1097 -1752 0
-1098 -1753 0
-1092 -1754 0
-1093 -1755 0
-1094 -1756 0
-1096 -1757 0
-1097 -1758 0
-1098 -1760 0
-1090 -1761 0
-1093 -1762 0
-1095 -1763 0
-1096 -1764 0
-1097 -1765 0
-1098 -1767 0
-1090 -1768 0
-1093 -1769 0
-1094 -1770 0
-1097 -1771 0
-1098 -1773 0
-1089 -1774 0
-1093 -1775 0
-1094 -1776 0
-1095 -1777 0
-1097 -1778 0
-1098 -1780 0
-1093 -1789 0
-1095 -1790 0
-1097 -1791 0
-1098 -1793 0
-1091 -1794 0
-1094 -1795 0
-1095 -1796 0
-1097 -1797 0
-1098 -1799 0
-1090 -1800 0
-1092 -1801 0
-1094 -1802 0
-1095 -1803 0
-1097 -1804 0
-1098 -1806 0
-1090 -1807 0
-1092 -1808 0
-1093 -1809 0
-1096 -1810 0
-1097 -1811 0
-1098 -1812 0
-1090 -1892 0
-1093 -1893 0
-1095 -1894 0
-1096 -1895 0
-1097 -1896 0
-1098 -1898 0
-1089 -1899 0
-1090 -1900 0
-1093 -1901 0
-1096 -1902 0
-1098 -1904 0
-1089 -1905 0
-1090 -1906 0
-1094 -1907 0
-1095 -1908 0
-1096 -1909 0
-1098 -1911 0
-1090 -1912 0
-1093 -1913 0
-1094 -1914 0
-1097 -1915 0
-1098 -1917 0
-1090 -1918 0
-1094 -1919 0
-1095 -1920 0
-1096 -1921 0
-1097 -1922 0
-1098 -1923 0
-1099 -1152 0
-1101 -1154 0
-1102 -1156 0
-1104 -1157 0
-1105 -1158 0
-1099 -1185 0
-1101 -1188 0
-1104 -1190 0
-1105 -1191 0
-1099 -1235 0
-1104 -1239 0
-1105 -1240 0
-1099 -1247 0
-1102 -1251 0
-1104 -1252 0
-1105 -1253 0
-1099 -1254 0
-1102 -1256 0
-1103 -1257 0
-1104 -1258 0
-1105 -1259 0
-1100 -1279 0
-1101 -1281 0
-1104 -1284 0
-1105 -1285 0
-1099 -1293 0
-1100 -1294 0
-1101 -1295 0
-1102 -1296 0
-1103 -1297 0
-1104 -1298 0
-1105 -1299 0
-1101 -1303 0
-1102 -1304 0
-1104 -1305 0
-1105 -1306 0
-1101 -1329 0
-1102 -1330 0
-1103 -1331 0
-1104 -1332 0
-1105 -1333 0
-1101 -1343 0
-1104 -1345 0
-1105 -1346 0
-1101 -1349 0
-1102 -1352 0
-1105 -1353 0
-1099 -1354 0
-1101 -1357 0
-1102 -1359 0
-1103 -1360 0
-1104 -1361 0
-1105 -1362 0
-1099 -1383 0
-1101 -1385 0
-1102 -1387 0
-1104 -1388 0
-1105 -1389 0
-1099 -1397 0
-1101 -1398 0
-1103 -1401 0
-1104 -1402 0
-1105 -1403 0
-1102 -1406 0
-1103 -1407 0
-1104 -1408 0
-1105 -1409 0
-1102 -1419 0
-1103 -1420 0
-1105 -1421 0
-1100 -1457 0
-1102 -1460 0
-1103 -1461 0
-1104 -1462 0
-1105 -1463 0
-1100 -1465 0
-1103 -1468 0
-1104 -1469 0
-1105 -1470 0
-1100 -1487 0
-1102 -1490 0
-1104 -1491 0
-1105 -1492 0
-1102 -1496 0
-1104 -1497 0
-1105 -1498 0
-1100 -1500 0
-1101 -1502 0
-1102 -1504 0
-1103 -1505 0
-1104 -1506 0
-1105 -1507 0
-1100 -1516 0
-1101 -1517 0
-1103 -1520 0
-1105 -1521 0
-1100 -1550 0
-1101 -1551 0
-1102 -1553 0
-1105 -1554 0
-1099 -1555 0
-1100 -1556 0
-1101 -1557 0
-1102 -1558 0
-1103 -1559 0
-1104 -1560 0
-1105 -1561 0
-1101 -1565 0
-1102 -1566 0
-1104 -1567 0
-1105 -1568 0
-1101 -1571 0
-1102 -1573 0
-1105 -1574 0
-1099 -1575 0
-1101 -1578 0
-1102 -1581 0
-1103 -1582 0
-1104 -1583 0
-1105 -1584 0
-1101 -1611 0
-1102 -1612 0
-1103 -1613 0
-1104 -1614 0
-1105 -1615 0
-1100 -1630 0
-1102 -1634 0
-1105 -1635 0
-1099 -1642 0
-1100 -1643 0
-1103 -1646 0
-1105 -1647 0
-1105 -1653 0
-1101 -1676 0
-1102 -1679 0
-1103 -1680 0
-1105 -1681 0
-1101 -1690 0
-1102 -1693 0
-1105 -1694 0
-1101 -1697 0
-1104 -1699 0
-1105 -1700 0
-1099 -1701 0
-1101 -1704 0
-1103 -1706 0
-1105 -1707 0
-1099 -1730 0
-1101 -1732 0
-1102 -1734 0
-1105 -1735 0
-1099 -1742 0
-1101 -1743 0
-1102 -1745 0
-1103 -1746 0
-1105 -1747 0
-1101 -1749 0
-1103 -1752 0
-1105 -1753 0
-1101 -1762 0
-1102 -1764 0
-1103 -1765 0
-1104 -1766 0
-1105 -1767 0
-1101 -1782 0
-1102 -1785 0
-1104 -1786 0
-1105 -1787 0
-1103 -1797 0
-1104 -1798 0
-1105 -1799 0
-1101 -1814 0
-1102 -1816 0
-1103 -1817 0
-1104 -1818 0
-1105 -1819 0
-1101 -1827 0
-1103 -1829 0
-1104 -1830 0
-1105 -1831 0
-1102 -1841 0
-1103 -1842 0
-1104 -1843 0
-1105 -1844 0
-1100 -1852 0
-1101 -1853 0
-1102 -1855 0
-1104 -1856 0
-1105 -1857 0
-1101 -1860 0
-1104 -1863 0
-1105 -1864 0
-1102 -1875 0
-1104 -1876 0
-1105 -1877 0
-1099 -1879 0
-1103 -1882 0
-1104 -1883 0
-1105 -1884 0
-1099 -1905 0
-1102 -1909 0
-1104 -1910 0
-1105 -1911 0
-1101 -1913 0
-1103 -1915 0
-1104 -1916 0
-1105 -1917 0
-1101 -1953 0
-1102 -1955 0
-1103 -1956 0
-1104 -1957 0
-1105 -1958 0
-1106 -1241 0
-1111 -1245 0
-1112 -1246 0
-1106 -1247 0
-1109 -1249 0
-1111 -1252 0
-1112 -1253 0
-1106 -1254 0
-1109 -1255 0
-1110 -1257 0
-1111 -1258 0
-1112 -1259 0
-1109 -1289 0
-1111 -1291 0
-1112 -1292 0
-1106 -1293 0
-1110 -1297 0
-1111 -1298 0
-1112 -1299 0
-1107 -1328 0
-1110 -1331 0
-1111 -1332 0
-1112 -1333 0
-1107 -1334 0
-1109 -1336 0
-1110 -1339 0
-1112 -1340 0
-1108 -1348 0
-1109 -1350 0
-1112 -1353 0
-1106 -1354 0
-1108 -1356 0
-1109 -1358 0
-1110 -1360 0
-1111 -1361 0
-1112 -1362 0
-1106 -1363 0
-1108 -1365 0
-1110 -1368 0
-1112 -1369 0
-1106 -1390 0
-1109 -1392 0
-1111 -1395 0
-1112 -1396 0
-1106 -1397 0
-1109 -1399 0
-1110 -1401 0
-1111 -1402 0
-1112 -1403 0
-1108 -1404 0
-1110 -1407 0
-1111 -1408 0
-1112 -1409 0
-1108 -1410 0
-1109 -1412 0
-1110 -1414 0
-1112 -1415 0
-1109 -1436 0
-1111 -1439 0
-1112 -1440 0
-1109 -1458 0
-1110 -1461 0
-1111 -1462 0
-1112 -1463 0
-1107 -1466 0
-1110 -1468 0
-1111 -1469 0
-1112 -1470 0
-1107 -1473 0
-1109 -1475 0
-1110 -1478 0
-1112 -1479 0
-1108 -1501 0
-1110 -1505 0
-1111 -1506 0
-1112 -1507 0
-1108 -1510 0
-1109 -1511 0
-1110 -1513 0
-1112 -1514 0
-1107 -1536 0
-1108 -1537 0
-1110 -1540 0
-1112 -1541 0
-1109 -1545 0
-1111 -1547 0
-1112 -1548 0
-1112 -1554 0
-1106 -1555 0
-1110 -1559 0
-1111 -1560 0
-1112 -1561 0
-1107 -1570 0
-1109 -1572 0
-1112 -1574 0
-1106 -1575 0
-1107 -1577 0
-1109 -1579 0
-1110 -1582 0
-1111 -1583 0
-1112 -1584 0
-1106 -1585 0
-1107 -1587 0
-1110 -1589 0
-1112 -1590 0
-1107 -1610 0
-1110 -1613 0
-1111 -1614 0
-1112 -1615 0
-1107 -1616 0
-1109 -1618 0
-1110 -1621 0
-1112 -1622 0
-1112 -1641 0
-1106 -1642 0
-1109 -1644 0
-1110 -1646 0
-1112 -1647 0
-1107 -1675 0
-1109 -1677 0
-1110 -1680 0
-1112 -1681 0
-1107 -1682 0
-1109 -1683 0
-1110 -1685 0
-1111 -1686 0
-1112 -1687 0
-1108 -1696 0
-1111 -1699 0
-1112 -1700 0
-1106 -1701 0
-1108 -1703 0
-1110 -1706 0
-1112 -1707 0
-1106 -1708 0
-1108 -1710 0
-1109 -1711 0
-1110 -1714 0
-1111 -1715 0
-1112 -1716 0
-1106 -1736 0
-1109 -1739 0
-1112 -1741 0
-1106 -1742 0
-1110 -1746 0
-1112 -1747 0
-1108 -1748 0
-1109 -1750 0
-1110 -1752 0
-1112 -1753 0
-1108 -1754 0
-1109 -1756 0
-1110 -1758 0
-1111 -1759 0
-1112 -1760 0
-1109 -1783 0
-1111 -1786 0
-1112 -1787 0
-1107 -1794 0
-1109 -1795 0
-1110 -1797 0
-1111 -1798 0
-1112 -1799 0
-1108 -1813 0
-1109 -1815 0
-1110 -1817 0
-1111 -1818 0
-1112 -1819 0
-1108 -1820 0
-1110 -1823 0
-1111 -1824 0
-1112 -1825 0
-1108 -1839 0
-1110 -1842 0
-1111 -1843 0
-1112 -1844 0
-1106 -1879 0
-1110 -1882 0
-1111 -1883 0
-1112 -1884 0
-1106 -1885 0
-1109 -1888 0
-1110 -1890 0
-1112 -1891 0
-1109 -1914 0
-1110 -1915 0
-1111 -1916 0
-1112 -1917 0
-1109 -1919 0
-1110 -1922 0
-1112 -1923 0
-1110 -1956 0
-1111 -1957 0
-1112 -1958 0
-1115 -1128 0
-1116 -1129 0
-1117 -1130 0
-1118 -1131 0
-1119 -1132 0
-1115 -1224 0
-1116 -1225 0
-1117 -1226 0
-1118 -1227 0
-1119 -1228 0
-1113 -1235 0
-1115 -1238 0
-1118 -1239 0
-1119 -1240 0
-1113 -1247 0
-1115 -1250 0
-1116 -1251 0
-1118 -1252 0
-1119 -1253 0
-1113 -1266 0
-1115 -1269 0
-1117 -1270 0
-1118 -1271 0
-1119 -1272 0
-1115 -1283 0
-1118 -1284 0
-1119 -1285 0
-1114 -1334 0
-1115 -1337 0
-1116 -1338 0
-1117 -1339 0
-1119 -1340 0
-1115 -1344 0
-1118 -1345 0
-1119 -1346 0
-1115 -1351 0
-1116 -1352 0
-1119 -1353 0
-1113 -1363 0
-1115 -1367 0
-1117 -1368 0
-1119 -1369 0
-1115 -1373 0
-1117 -1374 0
-1118 -1375 0
-1119 -1376 0
-1113 -1383 0
-1115 -1386 0
-1116 -1387 0
-1118 -1388 0
-1119 -1389 0
-1115 -1405 0
-1116 -1406 0
-1117 -1407 0
-1118 -1408 0
-1119 -1409 0
-1115 -1418 0
-1116 -1419 0
-1117 -1420 0
-1119 -1421 0
-1113 -1429 0
-1115 -1431 0
-1116 -1432 0
-1117 -1433 0
-1119 -1434 0
-1115 -1437 0
-1116 -1438 0
-1118 -1439 0
-1119 -1440 0
-1115 -1459 0
-1116 -1460 0
-1117 -1461 0
-1118 -1462 0
-1119 -1463 0
-1114 -1473 0
-1115 -1476 0
-1116 -1477 0
-1117 -1478 0
-1119 -1479 0
-1114 -1488 0
-1116 -1490 0
-1118 -1491 0
-1119 -1492 0
-1115 -1503 0
-1116 -1504 0
-1117 -1505 0
-1118 -1506 0
-1119 -1507 0
-1115 -1519 0
-1117 -1520 0
-1119 -1521 0
-1113 -1528 0
-1115 -1531 0
-1116 -1532 0
-1117 -1533 0
-1119 -1534 0
-1114 -1536 0
-1115 -1538 0
-1116 -1539 0
-1117 -1540 0
-1119 -1541 0
-1116 -1546 0
-1118 -1547 0
-1119 -1548 0
-1113 -1555 0
-1116 -1558 0
-1117 -1559 0
-1118 -1560 0
-1119 -1561 0
-1114 -1563 0
-1116 -1566 0
-1118 -1567 0
-1119 -1568 0
-1114 -1570 0
-1116 -1573 0
-1119 -1574 0
-1113 -1585 0
-1114 -1587 0
-1116 -1588 0
-1117 -1589 0
-1119 -1590 0
-1114 -1598 0
-1115 -1600 0
-1117 -1601 0
-1119 -1602 0
-1114 -1610 0
-1116 -1612 0
-1117 -1613 0
-1118 -1614 0
-1119 -1615 0
-1115 -1633 0
-1116 -1634 0
-1119 -1635 0
-1114 -1682 0
-1115 -1684 0
-1117 -1685 0
-1118 -1686 0
-1119 -1687 0
-1115 -1692 0
-1116 -1693 0
-1119 -1694 0
-1115 -1698 0
-1118 -1699 0
-1119 -1700 0
-1113 -1708 0
-1115 -1712 0
-1116 -1713 0
-1117 -1714 0
-1118 -1715 0
-1119 -1716 0
-1116 -1720 0
-1117 -1721 0
-1119 -1722 0
-1113 -1730 0
-1116 -1734 0
-1119 -1735 0
-1115 -1751 0
-1117 -1752 0
-1119 -1753 0
-1115 -1763 0
-1116 -1764 0
-1117 -1765 0
-1118 -1766 0
-1119 -1767 0
-1113 -1774 0
-1115 -1777 0
-1117 -1778 0
-1118 -1779 0
-1119 -1780 0
-1115 -1790 0
-1117 -1791 0
-1118 -1792 0
-1119 -1793 0
-1115 -1803 0
-1117 -1804 0
-1118 -1805 0
-1119 -1806 0
-1116 -1816 0
-1117 -1817 0
-1118 -1818 0
-1119 -1819 0
-1117 -1829 0
-1118 -1830 0
-1119 -1831 0
-1113 -1832 0
-1116 -1834 0
-1117 -1835 0
-1118 -1836 0
-1119 -1837 0
-1116 -1855 0
-1118 -1856 0
-1119 -1857 0
-1116 -1875 0
-1118 -1876 0
-1119 -1877 0
-1113 -1885 0
-1116 -1889 0
-1117 -1890 0
-1119 -1891 0
-1115 -1894 0
-1116 -1895 0
-1117 -1896 0
-1118 -1897 0
-1119 -1898 0
-1113 -1905 0
-1115 -1908 0
-1116 -1909 0
-1118 -1910 0
-1119 -1911 0
-1117 -1915 0
-1118 -1916 0
-1119 -1917 0
-1121 -1188 0
-1122 -1189 0
-1125 -1191 0
-1122 -1207 0
-1123 -1209 0
-1124 -1210 0
-1125 -1211 0
-1120 -1279 0
-1121 -1281 0
-1122 -1282 0
-1125 -1285 0
-1120 -1294 0
-1121 -1295 0
-1123 -1296 0
-1124 -1297 0
-1125 -1299 0
-1121 -1303 0
-1123 -1304 0
-1125 -1306 0
-1121 -1316 0
-1124 -1318 0
-1125 -1320 0
-1121 -1323 0
-1122 -1324 0
-1123 -1325 0
-1125 -1327 0
-1121 -1335 0
-1122 -1336 0
-1123 -1338 0
-1124 -1339 0
-1125 -1340 0
-1121 -1343 0
-1125 -1346 0
-1121 -1349 0
-1122 -1350 0
-1123 -1352 0
-1125 -1353 0
-1121 -1357 0
-1122 -1358 0
-1123 -1359 0
-1124 -1360 0
-1125 -1362 0
-1122 -1372 0
-1124 -1374 0
-1125 -1376 0
-1122 -1379 0
-1125 -1382 0
-1122 -1392 0
-1123 -1394 0
-1125 -1396 0
-1121 -1411 0
-1122 -1412 0
-1124 -1414 0
-1125 -1415 0
-1121 -1423 0
-1123 -1425 0
-1124 -1426 0
-1125 -1428 0
-1121 -1430 0
-1123 -1432 0
-1124 -1433 0
-1125 -1434 0
-1120 -1457 0
-1122 -1458 0
-1123 -1460 0
-1124 -1461 0
-1125 -1463 0
-1120 -1465 0
-1124 -1468 0
-1125 -1470 0
-1120 -1480 0
-1121 -1482 0
-1123 -1484 0
-1125 -1486 0
-1120 -1500 0
-1121 -1502 0
-1123 -1504 0
-1124 -1505 0
-1125 -1507 0
-1120 -1516 0
-1121 -1517 0
-1122 -1518 0
-1124 -1520 0
-1125 -1521 0
-1120 -1543 0
-1121 -1544 0
-1122 -1545 0
-1123 -1546 0
-1125 -1548 0
-1120 -1591 0
-1121 -1592 0
-1122 -1593 0
-1123 -1594 0
-1124 -1595 0
-1125 -1596 0
-1121 -1599 0
-1124 -1601 0
-1125 -1602 0
-1121 -1611 0
-1123 -1612 0
-1124 -1613 0
-1125 -1615 0
-1120 -1630 0
-1122 -1632 0
-1123 -1634 0
-1125 -1635 0
-1120 -1643 0
-1122 -1644 0
-1124 -1646 0
-1125 -1647 0
-1122 -1651 0
-1125 -1653 0
-1121 -1662 0
-1122 -1663 0
-1123 -1665 0
-1124 -1666 0
-1125 -1668 0
-1121 -1671 0
-1125 -1674 0
-1122 -1683 0
-1124 -1685 0
-1125 -1687 0
-1121 -1690 0
-1122 -1691 0
-1123 -1693 0
-1125 -1694 0
-1121 -1697 0
-1125 -1700 0
-1121 -1704 0
-1124 -1706 0
-1125 -1707 0
-1121 -1719 0
-1123 -1720 0
-1124 -1721 0
-1125 -1722 0
-1121 -1725 0
-1123 -1727 0
-1125 -1729 0
-1121 -1738 0
-1122 -1739 0
-1125 -1741 0
-1121 -1755 0
-1122 -1756 0
-1123 -1757 0
-1124 -1758 0
-1125 -1760 0
-1121 -1769 0
-1122 -1770 0
-1124 -1771 0
-1125 -1773 0
-1121 -1775 0
-1122 -1776 0
-1124 -1778 0
-1125 -1780 0
-1121 -1782 0
-1122 -1783 0
-1123 -1785 0
-1125 -1787 0
-1123 -1841 0
-1124 -1842 0
-1125 -1844 0
-1120 -1852 0
-1121 -1853 0
-1122 -1854 0
-1123 -1855 0
-1125 -1857 0
-1121 -1860 0
-1122 -1861 0
-1125 -1864 0
-1122 -1867 0
-1123 -1868 0
-1124 -1869 0
-1125 -1871 0
-1122 -1874 0
-1123 -1875 0
-1125 -1877 0
-1124 -1882 0
-1125 -1884 0
-1121 -1893 0
-1123 -1895 0
-1124 -1896 0
-1125 -1898 0
-1121 -1901 0
-1123 -1902 0
-1125 -1904 0
-1122 -1919 0
-1123 -1921 0
-1124 -1922 0
-1125 -1923 0
-1121 -1953 0
-1123 -1955 0
-1124 -1956 0
-1125 -1958 0
-1128 -1182 0
-1129 -1183 0
-1132 -1184 0
-1130 -1202 0
-1131 -1203 0
-1132 -1204 0
-1127 -1215 0
-1129 -1216 0
-1130 -1217 0
-1132 -1218 0
-1126 -1273 0
-1129 -1276 0
-1131 -1277 0
-1132 -1278 0
-1126 -1287 0
-1127 -1289 0
-1129 -1290 0
-1131 -1291 0
-1132 -1292 0
-1126 -1294 0
-1129 -1296 0
-1130 -1297 0
-1131 -1298 0
-1132 -1299 0
-1129 -1304 0
-1131 -1305 0
-1132 -1306 0
-1126 -1307 0
-1127 -1308 0
-1128 -1309 0
-1129 -1310 0
-1130 -1311 0
-1131 -1312 0
-1132 -1313 0
-1128 -1317 0
-1130 -1318 0
-1131 -1319 0
-1132 -1320 0
-1129 -1330 0
-1130 -1331 0
-1131 -1332 0
-1132 -1333 0
-1128 -1344 0
-1131 -1345 0
-1132 -1346 0
-1127 -1350 0
-1128 -1351 0
-1129 -1352 0
-1132 -1353 0
-1128 -1367 0
-1130 -1368 0
-1132 -1369 0
-1127 -1372 0
-1128 -1373 0
-1130 -1374 0
-1131 -1375 0
-1132 -1376 0
-1128 -1386 0
-1129 -1387 0
-1131 -1388 0
-1132 -1389 0
-1128 -1405 0
-1129 -1406 0
-1130 -1407 0
-1131 -1408 0
-1132 -1409 0
-1127 -1417 0
-1128 -1418 0
-1129 -1419 0
-1130 -1420 0
-1132 -1421 0
-1128 -1431 0
-1129 -1432 0
-1130 -1433 0
-1132 -1434 0
-1127 -1436 0
-1128 -1437 0
-1129 -1438 0
-1131 -1439 0
-1132 -1440 0
-1128 -1452 0
-1129 -1453 0
-1131 -1454 0
-1132 -1455 0
-1126 -1457 0
-1127 -1458 0
-1128 -1459 0
-1129 -1460 0
-1130 -1461 0
-1131 -1462 0
-1132 -1463 0
-1126 -1472 0
-1127 -1475 0
-1128 -1476 0
-1129 -1477 0
-1130 -1478 0
-1132 -1479 0
-1126 -1487 0
-1127 -1489 0
-1129 -1490 0
-1131 -1491 0
-1132 -1492 0
-1126 -1509 0
-1127 -1511 0
-1129 -1512 0
-1130 -1513 0
-1132 -1514 0
-1126 -1523 0
-1129 -1524 0
-1130 -1525 0
-1131 -1526 0
-1132 -1527 0
-1126 -1550 0
-1128 -1552 0
-1129 -1553 0
-1132 -1554 0
-1126 -1591 0
-1127 -1593 0
-1129 -1594 0
-1130 -1595 0
-1132 -1596 0
-1127 -1605 0
-1129 -1606 0
-1130 -1607 0
-1131 -1608 0
-1132 -1609 0
-1127 -1618 0
-1128 -1619 0
-1129 -1620 0
-1130 -1621 0
-1132 -1622 0
-1126 -1623 0
-1127 -1626 0
-1128 -1627 0
-1131 -1628 0
-1132 -1629 0
-1126 -1637 0
-1128 -1639 0
-1129 -1640 0
-1132 -1641 0
-1126 -1643 0
-1127 -1644 0
-1128 -1645 0
-1130 -1646 0
-1132 -1647 0
-1127 -1651 0
-1128 -1652 0
-1132 -1653 0
-1126 -1654 0
-1128 -1656 0
-1130 -1657 0
-1131 -1658 0
-1132 -1659 0
-1127 -1663 0
-1128 -1664 0
-1129 -1665 0
-1130 -1666 0
-1131 -1667 0
-1132 -1668 0
-1127 -1677 0
-1128 -1678 0
-1129 -1679 0
-1130 -1680 0
-1132 -1681 0
-1127 -1691 0
-1128 -1692 0
-1129 -1693 0
-1132 -1694 0
-1128 -1698 0
-1131 -1699 0
-1132 -1700 0
-1127 -1711 0
-1128 -1712 0
-1129 -1713 0
-1130 -1714 0
-1131 -1715 0
-1132 -1716 0
-1129 -1720 0
-1130 -1721 0
-1132 -1722 0
-1127 -1733 0
-1129 -1734 0
-1132 -1735 0
-1127 -1750 0
-1128 -1751 0
-1130 -1752 0
-1132 -1753 0
-1128 -1763 0
-1129 -1764 0
-1130 -1765 0
-1131 -1766 0
-1132 -1767 0
-1127 -1776 0
-1128 -1777 0
-1130 -1778 0
-1131 -1779 0
-1132 -1780 0
-1126 -1846 0
-1127 -1847 0
-1128 -1848 0
-1131 -1849 0
-1132 -1850 0
-1127 -1861 0
-1128 -1862 0
-1131 -1863 0
-1132 -1864 0
-1127 -1867 0
-1129 -1868 0
-1130 -1869 0
-1131 -1870 0
-1132 -1871 0
-1127 -1874 0
-1129 -1875 0
-1131 -1876 0
-1132 -1877 0
-1127 -1888 0
-1129 -1889 0
-1130 -1890 0
-1132 -1891 0
-1128 -1894 0
-1129 -1895 0
-1130 -1896 0
-1131 -1897 0
-1132 -1898 0
-1127 -1907 0
-1128 -1908 0
-1129 -1909 0
-1131 -1910 0
-1132 -1911 0
-1127 -1914 0
-1130 -1915 0
-1131 -1916 0
-1132 -1917 0
-1127 -1933 0
-1128 -1934 0
-1129 -1935 0
-1131 -1936 0
-1132 -1937 0
-1127 -1940 0
-1128 -1941 0
-1130 -1942 0
-1131 -1943 0
-1132 -1944 0
-1135 -1215 0
-1136 -1216 0
-1137 -1217 0
-1138 -1218 0
-1135 -1289 0
-1136 -1290 0
-1138 -1292 0
-1136 -1296 0
-1137 -1297 0
-1138 -1299 0
-1135 -1308 0
-1136 -1310 0
-1137 -1311 0
-1138 -1313 0
-1133 -1322 0
-1135 -1324 0
-1136 -1325 0
-1138 -1327 0
-1134 -1348 0
-1135 -1350 0
-1136 -1352 0
-1138 -1353 0
-1134 -1356 0
-1135 -1358 0
-1136 -1359 0
-1137 -1360 0
-1138 -1362 0
-1134 -1365 0
-1137 -1368 0
-1138 -1369 0
-1134 -1371 0
-1135 -1372 0
-1137 -1374 0
-1138 -1376 0
-1134 -1378 0
-1135 -1379 0
-1138 -1382 0
-1134 -1384 0
-1136 -1387 0
-1138 -1389 0
-1135 -1417 0
-1136 -1419 0
-1137 -1420 0
-1138 -1421 0
-1136 -1425 0
-1137 -1426 0
-1138 -1428 0
-1136 -1432 0
-1137 -1433 0
-1138 -1434 0
-1135 -1436 0
-1136 -1438 0
-1138 -1440 0
-1135 -1458 0
-1136 -1460 0
-1137 -1461 0
-1138 -1463 0
-1133 -1466 0
-1137 -1468 0
-1138 -1470 0
-1133 -1473 0
-1135 -1475 0
-1136 -1477 0
-1137 -1478 0
-1138 -1479 0
-1133 -1481 0
-1136 -1484 0
-1138 -1486 0
-1133 -1488 0
-1135 -1489 0
-1136 -1490 0
-1138 -1492 0
-1133 -1494 0
-1136 -1496 0
-1138 -1498 0
-1134 -1501 0
-1136 -1504 0
-1137 -1505 0
-1138 -1507 0
-1134 -1510 0
-1135 -1511 0
-1136 -1512 0
-1137 -1513 0
-1138 -1514 0
-1133 -1536 0
-1134 -1537 0
-1136 -1539 0
-1137 -1540 0
-1138 -1541 0
-1133 -1563 0
-1134 -1564 0
-1136 -1566 0
-1138 -1568 0
-1135 -1593 0
-1136 -1594 0
-1137 -1595 0
-1138 -1596 0
-1133 -1598 0
-1137 -1601 0
-1138 -1602 0
-1133 -1604 0
-1135 -1605 0
-1136 -1606 0
-1137 -1607 0
-1138 -1609 0
-1133 -1610 0
-1136 -1612 0
-1137 -1613 0
-1138 -1615 0
-1133 -1616 0
-1135 -1618 0
-1136 -1620 0
-1137 -1621 0
-1138 -1622 0
-1136 -1640 0
-1138 -1641 0
-1135 -1644 0
-1137 -1646 0
-1138 -1647 0
-1137 -1657 0
-1138 -1659 0
-1133 -1670 0
-1138 -1674 0
-1134 -1696 0
-1138 -1700 0
-1134 -1703 0
-1137 -1706 0
-1138 -1707 0
-1134 -1710 0
-1135 -1711 0
-1136 -1713 0
-1137 -1714 0
-1138 -1716 0
-1134 -1718 0
-1136 -1720 0
-1137 -1721 0
-1138 -1722 0
-1134 -1724 0
-1136 -1727 0
-1138 -1729 0
-1134 -1731 0
-1135 -1733 0
-1136 -1734 0
-1138 -1735 0
-1136 -1764 0
-1137 -1765 0
-1138 -1767 0
-1135 -1770 0
-1137 -1771 0
-1138 -1773 0
-1135 -1776 0
-1137 -1778 0
-1138 -1780 0
-1135 -1783 0
-1136 -1785 0
-1138 -1787 0
-1134 -1839 0
-1136 -1841 0
-1137 -1842 0
-1138 -1844 0
-1137 -1882 0
-1138 -1884 0
-1135 -1888 0
-1136 -1889 0
-1137 -1890 0
-1138 -1891 0
-1136 -1895 0
-1137 -1896 0
-1138 -1898 0
-1136 -1902 0
-1138 -1904 0
-1135 -1907 0
-1136 -1909 0
-1138 -1911 0
-1136 -1955 0
-1137 -1956 0
-1138 -1958 0
-1143 -1202 0
-1144 -1203 0
-1145 -1204 0
-1141 -1207 0
-1142 -1209 0
-1143 -1210 0
-1145 -1211 0
-1142 -1276 0
-1144 -1277 0
-1145 -1278 0
-1141 -1282 0
-1144 -1284 0
-1145 -1285 0
-1142 -1296 0
-1143 -1297 0
-1144 -1298 0
-1145 -1299 0
-1141 -1308 0
-1142 -1310 0
-1143 -1311 0
-1144 -1312 0
-1145 -1313 0
-1140 -1314 0
-1143 -1318 0
-1144 -1319 0
-1145 -1320 0
-1140 -1322 0
-1141 -1324 0
-1142 -1325 0
-1144 -1326 0
-1145 -1327 0
-1139 -1341 0
-1144 -1345 0
-1145 -1346 0
-1139 -1355 0
-1141 -1358 0
-1142 -1359 0
-1143 -1360 0
-1144 -1361 0
-1145 -1362 0
-1139 -1364 0
-1143 -1368 0
-1145 -1369 0
-1139 -1370 0
-1141 -1372 0
-1143 -1374 0
-1144 -1375 0
-1145 -1376 0
-1139 -1391 0
-1141 -1392 0
-1142 -1394 0
-1144 -1395 0
-1145 -1396 0
-1142 -1406 0
-1143 -1407 0
-1144 -1408 0
-1145 -1409 0
-1141 -1412 0
-1143 -1414 0
-1145 -1415 0
-1142 -1432 0
-1143 -1433 0
-1145 -1434 0
-1141 -1436 0
-1142 -1438 0
-1144 -1439 0
-1145 -1440 0
-1139 -1464 0
-1140 -1466 0
-1143 -1468 0
-1144 -1469 0
-1145 -1470 0
-1139 -1471 0
-1140 -1473 0
-1141 -1475 0
-1142 -1477 0
-1143 -1478 0
-1145 -1479 0
-1139 -1493 0
-1140 -1494 0
-1142 -1496 0
-1144 -1497 0
-1145 -1498 0
-1139 -1515 0
-1141 -1518 0
-1143 -1520 0
-1145 -1521 0
-1139 -1522 0
-1142 -1524 0
-1143 -1525 0
-1144 -1526 0
-1145 -1527 0
-1139 -1535 0
-1140 -1536 0
-1142 -1539 0
-1143 -1540 0
-1145 -1541 0
-1139 -1569 0
-1140 -1570 0
-1141 -1572 0
-1142 -1573 0
-1145 -1574 0
-1139 -1597 0
-1140 -1598 0
-1143 -1601 0
-1145 -1602 0
-1139 -1603 0
-1140 -1604 0
-1141 -1605 0
-1142 -1606 0
-1143 -1607 0
-1144 -1608 0
-1145 -1609 0
-1141 -1626 0
-1144 -1628 0
-1145 -1629 0
-1141 -1632 0
-1142 -1634 0
-1145 -1635 0
-1141 -1644 0
-1143 -1646 0
-1145 -1647 0
-1143 -1657 0
-1144 -1658 0
-1145 -1659 0
-1140 -1660 0
-1141 -1663 0
-1142 -1665 0
-1143 -1666 0
-1144 -1667 0
-1145 -1668 0
-1140 -1670 0
-1144 -1673 0
-1145 -1674 0
-1139 -1688 0
-1141 -1691 0
-1142 -1693 0
-1145 -1694 0
-1139 -1702 0
-1143 -1706 0
-1145 -1707 0
-1139 -1709 0
-1141 -1711 0
-1142 -1713 0
-1143 -1714 0
-1144 -1715 0
-1145 -1716 0
-1139 -1717 0
-1142 -1720 0
-1143 -1721 0
-1145 -1722 0
-1139 -1737 0
-1141 -1739 0
-1145 -1741 0
-1141 -1750 0
-1143 -1752 0
-1145 -1753 0
-1141 -1756 0
-1142 -1757 0
-1143 -1758 0
-1144 -1759 0
-1145 -1760 0
-1141 -1776 0
-1143 -1778 0
-1144 -1779 0
-1145 -1780 0
-1141 -1783 0
-1142 -1785 0
-1144 -1786 0
-1145 -1787 0
-1142 -1841 0
-1143 -1842 0
-1144 -1843 0
-1145 -1844 0
-1139 -1845 0
-1141 -1847 0
-1144 -1849 0
-1145 -1850 0
-1139 -1851 0
-1141 -1854 0
-1142 -1855 0
-1144 -1856 0
-1145 -1857 0
-1139 -1865 0
-1140 -1866 0
-1141 -1867 0
-1142 -1868 0
-1143 -1869 0
-1144 -1870 0
-1145 -1871 0
-1139 -1872 0
-1141 -1874 0
-1142 -1875 0
-1144 -1876 0
-1145 -1877 0
-1139 -1880 0
-1143 -1882 0
-1144 -1883 0
-1145 -1884 0
-1139 -1886 0
-1141 -1888 0
-1142 -1889 0
-1143 -1890 0
-1145 -1891 0
-1139 -1892 0
-1142 -1895 0
-1143 -1896 0
-1144 -1897 0
-1145 -1898 0
-1139 -1912 0
-1141 -1914 0
-1143 -1915 0
-1144 -1916 0
-1145 -1917 0
-1139 -1918 0
-1141 -1919 0
-1142 -1921 0
-1143 -1922 0
-1145 -1923 0
-1141 -1940 0
-1143 -1942 0
-1144 -1943 0
-1145 -1944 0
-1139 -1952 0
-1142 -1955 0
-1143 -1956 0
-1144 -1957 0
-1145 -1958 0
-1146 -1192 0
-1149 -1196 0
-1151 -1198 0
-1146 -1205 0
-1148 -1207 0
-1149 -1208 0
-1150 -1209 0
-1151 -1211 0
-1146 -1266 0
-1148 -1268 0
-1149 -1269 0
-1151 -1272 0
-1148 -1282 0
-1149 -1283 0
-1151 -1285 0
-1148 -1308 0
-1149 -1309 0
-1150 -1310 0
-1151 -1313 0
-1147 -1314 0
-1149 -1317 0
-1151 -1320 0
-1149 -1344 0
-1151 -1346 0
-1148 -1350 0
-1149 -1351 0
-1150 -1352 0
-1151 -1353 0
-1146 -1363 0
-1149 -1367 0
-1151 -1369 0
-1146 -1377 0
-1148 -1379 0
-1149 -1380 0
-1151 -1382 0
-1146 -1390 0
-1148 -1392 0
-1149 -1393 0
-1150 -1394 0
-1151 -1396 0
-1146 -1397 0
-1148 -1399 0
-1149 -1400 0
-1151 -1403 0
-1148 -1412 0
-1149 -1413 0
-1151 -1415 0
-1149 -1424 0
-1150 -1425 0
-1151 -1428 0
-1148 -1436 0
-1149 -1437 0
-1150 -1438 0
-1151 -1440 0
-1148 -1458 0
-1149 -1459 0
-1150 -1460 0
-1151 -1463 0
-1147 -1473 0
-1148 -1475 0
-1149 -1476 0
-1150 -1477 0
-1151 -1479 0
-1147 -1481 0
-1149 -1483 0
-1150 -1484 0
-1151 -1486 0
-1147 -1494 0
-1149 -1495 0
-1150 -1496 0
-1151 -1498 0
-1149 -1503 0
-1150 -1504 0
-1151 -1507 0
-1148 -1518 0
-1149 -1519 0
-1151 -1521 0
-1146 -1528 0
-1149 -1531 0
-1150 -1532 0
-1151 -1534 0
-1147 -1536 0
-1149 -1538 0
-1150 -1539 0
-1151 -1541 0
-1146 -1575 0
-1147 -1577 0
-1148 -1579 0
-1149 -1580 0
-1150 -1581 0
-1151 -1584 0
-1148 -1593 0
-1150 -1594 0
-1151 -1596 0
-1147 -1604 0
-1148 -1605 0
-1150 -1606 0
-1151 -1609 0
-1147 -1610 0
-1150 -1612 0
-1151 -1615 0
-1148 -1632 0
-1149 -1633 0
-1150 -1634 0
-1151 -1635 0
-1149 -1656 0
-1151 -1659 0
-1147 -1660 0
-1148 -1663 0
-1149 -1664 0
-1150 -1665 0
-1151 -1668 0
-1148 -1691 0
-1149 -1692 0
-1150 -1693 0
-1151 -1694 0
-1149 -1698 0
-1151 -1700 0
-1146 -1708 0
-1148 -1711 0
-1149 -1712 0
-1150 -1713 0
-1151 -1716 0
-1146 -1723 0
-1149 -1726 0
-1150 -1727 0
-1151 -1729 0
-1146 -1736 0
-1148 -1739 0
-1149 -1740 0
-1151 -1741 0
-1146 -1742 0
-1149 -1744 0
-1150 -1745 0
-1151 -1747 0
-1148 -1756 0
-1150 -1757 0
-1151 -1760 0
-1148 -1770 0
-1151 -1773 0
-1149 -1790 0
-1151 -1793 0
-1147 -1794 0
-1148 -1795 0
-1149 -1796 0
-1151 -1799 0
-1148 -1802 0
-1149 -1803 0
-1151 -1806 0
-1148 -1854 0
-1150 -1855 0
-1151 -1857 0
-1147 -1866 0
-1148 -1867 0
-1150 -1868 0
-1151 -1871 0
-1148 -1874 0
-1150 -1875 0
-1151 -1877 0
-1146 -1885 0
-1148 -1888 0
-1150 -1889 0
-1151 -1891 0
-1146 -1899 0
-1150 -1902 0
-1151 -1904 0
-1148 -1919 0
-1149 -1920 0
-1150 -1921 0
-1151 -1923 0
-1152 -1192 0
-1154 -1195 0
-1158 -1198 0
-1152 -1199 0
-1154 -1201 0
-1157 -1203 0
-1158 -1204 0
-1152 -1212 0
-1154 -1214 0
-1155 -1215 0
-1156 -1216 0
-1158 -1218 0
-1152 -1260 0
-1154 -1261 0
-1156 -1263 0
-1158 -1265 0
-1154 -1275 0
-1156 -1276 0
-1157 -1277 0
-1158 -1278 0
-1154 -1288 0
-1155 -1289 0
-1156 -1290 0
-1157 -1291 0
-1158 -1292 0
-1153 -1314 0
-1154 -1316 0
-1157 -1319 0
-1158 -1320 0
-1152 -1321 0
-1153 -1322 0
-1154 -1323 0
-1155 -1324 0
-1156 -1325 0
-1157 -1326 0
-1158 -1327 0
-1154 -1343 0
-1157 -1345 0
-1158 -1346 0
-1154 -1349 0
-1155 -1350 0
-1156 -1352 0
-1158 -1353 0
-1152 -1354 0
-1154 -1357 0
-1155 -1358 0
-1156 -1359 0
-1157 -1361 0
-1158 -1362 0
-1152 -1383 0
-1154 -1385 0
-1156 -1387 0
-1157 -1388 0
-1158 -1389 0
-1152 -1397 0
-1154 -1398 0
-1155 -1399 0
-1157 -1402 0
-1158 -1403 0
-1156 -1406 0
-1157 -1408 0
-1158 -1409 0
-1155 -1417 0
-1156 -1419 0
-1158 -1421 0
-1155 -1458 0
-1156 -1460 0
-1157 -1462 0
-1158 -1463 0
-1153 -1466 0
-1157 -1469 0
-1158 -1470 0
-1153 -1488 0
-1155 -1489 0
-1156 -1490 0
-1157 -1491 0
-1158 -1492 0
-1153 -1494 0
-1156 -1496 0
-1157 -1497 0
-1158 -1498 0
-1155 -1511 0
-1156 -1512 0
-1158 -1514 0
-1156 -1524 0
-1157 -1526 0
-1158 -1527 0
-1152 -1528 0
-1156 -1532 0
-1158 -1534 0
-1153 -1536 0
-1156 -1539 0
-1158 -1541 0
-1152 -1585 0
-1153 -1587 0
-1156 -1588 0
-1158 -1590 0
-1154 -1592 0
-1155 -1593 0
-1156 -1594 0
-1158 -1596 0
-1153 -1598 0
-1154 -1599 0
-1158 -1602 0
-1153 -1616 0
-1154 -1617 0
-1155 -1618 0
-1156 -1620 0
-1158 -1622 0
-1154 -1625 0
-1155 -1626 0
-1157 -1628 0
-1158 -1629 0
-1154 -1638 0
-1156 -1640 0
-1158 -1641 0
-1153 -1660 0
-1154 -1662 0
-1155 -1663 0
-1156 -1665 0
-1157 -1667 0
-1158 -1668 0
-1152 -1669 0
-1153 -1670 0
-1154 -1671 0
-1157 -1673 0
-1158 -1674 0
-1154 -1690 0
-1155 -1691 0
-1156 -1693 0
-1158 -1694 0
-1154 -1697 0
-1157 -1699 0
-1158 -1700 0
-1152 -1701 0
-1154 -1704 0
-1158 -1707 0
-1152 -1730 0
-1154 -1732 0
-1155 -1733 0
-1156 -1734 0
-1158 -1735 0
-1152 -1742 0
-1154 -1743 0
-1156 -1745 0
-1158 -1747 0
-1154 -1749 0
-1155 -1750 0
-1158 -1753 0
-1154 -1762 0
-1156 -1764 0
-1157 -1766 0
-1158 -1767 0
-1154 -1782 0
-1155 -1783 0
-1156 -1785 0
-1157 -1786 0
-1158 -1787 0
-1154 -1789 0
-1157 -1792 0
-1158 -1793 0
-1154 -1809 0
-1156 -1810 0
-1158 -1812 0
-1156 -1841 0
-1157 -1843 0
-1158 -1844 0
-1155 -1847 0
-1157 -1849 0
-1158 -1850 0
-1153 -1866 0
-1155 -1867 0
-1156 -1868 0
-1157 -1870 0
-1158 -1871 0
-1155 -1874 0
-1156 -1875 0
-1157 -1876 0
-1158 -1877 0
-1152 -1879 0
-1157 -1883 0
-1158 -1884 0
-1152 -1905 0
-1155 -1907 0
-1156 -1909 0
-1157 -1910 0
-1158 -1911 0
-1154 -1913 0
-1155 -1914 0
-1157 -1916 0
-1158 -1917 0
-1152 -1938 0
-1154 -1939 0
-1155 -1940 0
-1157 -1943 0
-1158 -1944 0
-1154 -1953 0
-1156 -1955 0
-1157 -1957 0
-1158 -1958 0
-1162 -1182 0
-1163 -1183 0
-1165 -1184 0
-1160 -1188 0
-1161 -1189 0
-1165 -1191 0
-1161 -1255 0
-1163 -1256 0
-1164 -1257 0
-1165 -1259 0
-1160 -1275 0
-1163 -1276 0
-1165 -1278 0
-1160 -1281 0
-1161 -1282 0
-1162 -1283 0
-1165 -1285 0
-1160 -1288 0
-1161 -1289 0
-1163 -1290 0
-1165 -1292 0
-1159 -1301 0
-1160 -1303 0
-1163 -1304 0
-1165 -1306 0
-1159 -1322 0
-1160 -1323 0
-1161 -1324 0
-1163 -1325 0
-1165 -1327 0
-1159 -1328 0
-1160 -1329 0
-1163 -1330 0
-1164 -1331 0
-1165 -1333 0
-1159 -1334 0
-1160 -1335 0
-1161 -1336 0
-1162 -1337 0
-1163 -1338 0
-1164 -1339 0
-1165 -1340 0
-1160 -1343 0
-1162 -1344 0
-1165 -1346 0
-1160 -1349 0
-1161 -1350 0
-1162 -1351 0
-1163 -1352 0
-1165 -1353 0
-1161 -1379 0
-1162 -1380 0
-1165 -1382 0
-1160 -1385 0
-1162 -1386 0
-1163 -1387 0
-1165 -1389 0
-1161 -1392 0
-1162 -1393 0
-1163 -1394 0
-1165 -1396 0
-1162 -1405 0
-1163 -1406 0
-1164 -1407 0
-1165 -1409 0
-1160 -1411 0
-1161 -1412 0
-1162 -1413 0
-1164 -1414 0
-1165 -1415 0
-1161 -1417 0
-1162 -1418 0
-1163 -1419 0
-1164 -1420 0
-1165 -1421 0
-1160 -1423 0
-1162 -1424 0
-1163 -1425 0
-1164 -1426 0
-1165 -1428 0
-1160 -1451 0
-1162 -1452 0
-1163 -1453 0
-1165 -1455 0
-1159 -1481 0
-1160 -1482 0
-1162 -1483 0
-1163 -1484 0
-1165 -1486 0
-1159 -1488 0
-1161 -1489 0
-1163 -1490 0
-1165 -1492 0
-1159 -1494 0
-1162 -1495 0
-1163 -1496 0
-1165 -1498 0
-1160 -1544 0
-1161 -1545 0
-1163 -1546 0
-1165 -1548 0
-1160 -1551 0
-1162 -1552 0
-1163 -1553 0
-1165 -1554 0
-1159 -1563 0
-1160 -1565 0
-1163 -1566 0
-1165 -1568 0
-1159 -1570 0
-1160 -1571 0
-1161 -1572 0
-1163 -1573 0
-1165 -1574 0
-1159 -1610 0
-1160 -1611 0
-1163 -1612 0
-1164 -1613 0
-1165 -1615 0
-1159 -1616 0
-1160 -1617 0
-1161 -1618 0
-1162 -1619 0
-1163 -1620 0
-1164 -1621 0
-1165 -1622 0
-1160 -1625 0
-1161 -1626 0
-1162 -1627 0
-1165 -1629 0
-1161 -1632 0
-1162 -1633 0
-1163 -1634 0
-1165 -1635 0
-1160 -1638 0
-1162 -1639 0
-1163 -1640 0
-1165 -1641 0
-1159 -1649 0
-1161 -1651 0
-1162 -1652 0
-1165 -1653 0
-1159 -1670 0
-1160 -1671 0
-1162 -1672 0
-1165 -1674 0
-1159 -1675 0
-1160 -1676 0
-1161 -1677 0
-1162 -1678 0
-1163 -1679 0
-1164 -1680 0
-1165 -1681 0
-1159 -1682 0
-1161 -1683 0
-1162 -1684 0
-1164 -1685 0
-1165 -1687 0
-1160 -1690 0
-1161 -1691 0
-1162 -1692 0
-1163 -1693 0
-1165 -1694 0
-1160 -1697 0
-1162 -1698 0
-1165 -1700 0
-1160 -1725 0
-1162 -1726 0
-1163 -1727 0
-1165 -1729 0
-1160 -1732 0
-1161 -1733 0
-1163 -1734 0
-1165 -1735 0
-1160 -1738 0
-1161 -1739 0
-1162 -1740 0
-1165 -1741 0
-1160 -1749 0
-1161 -1750 0
-1162 -1751 0
-1164 -1752 0
-1165 -1753 0
-1160 -1755 0
-1161 -1756 0
-1163 -1757 0
-1164 -1758 0
-1165 -1760 0
-1160 -1762 0
-1162 -1763 0
-1163 -1764 0
-1164 -1765 0
-1165 -1767 0
-1160 -1769 0
-1161 -1770 0
-1164 -1771 0
-1165 -1773 0
-1161 -1847 0
-1162 -1848 0
-1165 -1850 0
-1160 -1853 0
-1161 -1854 0
-1163 -1855 0
-1165 -1857 0
-1159 -1859 0
-1160 -1860 0
-1161 -1861 0
-1162 -1862 0
-1165 -1864 0
-1161 -1874 0
-1163 -1875 0
-1165 -1877 0
-1160 -1901 0
-1163 -1902 0
-1165 -1904 0
-1161 -1907 0
-1162 -1908 0
-1163 -1909 0
-1165 -1911 0
-1160 -1913 0
-1161 -1914 0
-1164 -1915 0
-1165 -1917 0
-1161 -1919 0
-1162 -1920 0
-1163 -1921 0
-1164 -1922 0
-1165 -1923 0
-1161 -1933 0
-1162 -1934 0
-1163 -1935 0
-1165 -1937 0
-1167 -1286 0
-1169 -1289 0
-1171 -1292 0
-1166 -1293 0
-1170 -1297 0
-1171 -1299 0
-1169 -1308 0
-1170 -1311 0
-1171 -1313 0
-1166 -1321 0
-1169 -1324 0
-1171 -1327 0
-1170 -1331 0
-1171 -1333 0
-1169 -1336 0
-1170 -1339 0
-1171 -1340 0
-1166 -1390 0
-1167 -1391 0
-1169 -1392 0
-1171 -1396 0
-1166 -1397 0
-1169 -1399 0
-1170 -1401 0
-1171 -1403 0
-1167 -1416 0
-1169 -1417 0
-1170 -1420 0
-1171 -1421 0
-1167 -1422 0
-1170 -1426 0
-1171 -1428 0
-1166 -1429 0
-1170 -1433 0
-1171 -1434 0
-1169 -1436 0
-1171 -1440 0
-1169 -1458 0
-1170 -1461 0
-1171 -1463 0
-1167 -1464 0
-1170 -1468 0
-1171 -1470 0
-1167 -1471 0
-1169 -1475 0
-1170 -1478 0
-1171 -1479 0
-1171 -1486 0
-1169 -1489 0
-1171 -1492 0
-1167 -1493 0
-1171 -1498 0
-1167 -1515 0
-1169 -1518 0
-1170 -1520 0
-1171 -1521 0
-1167 -1522 0
-1170 -1525 0
-1171 -1527 0
-1166 -1528 0
-1167 -1529 0
-1170 -1533 0
-1171 -1534 0
-1167 -1542 0
-1169 -1545 0
-1171 -1548 0
-1167 -1549 0
-1171 -1554 0
-1166 -1555 0
-1170 -1559 0
-1171 -1561 0
-1167 -1569 0
-1169 -1572 0
-1171 -1574 0
-1166 -1575 0
-1167 -1576 0
-1169 -1579 0
-1170 -1582 0
-1171 -1584 0
-1166 -1585 0
-1167 -1586 0
-1170 -1589 0
-1171 -1590 0
-1169 -1593 0
-1170 -1595 0
-1171 -1596 0
-1167 -1597 0
-1170 -1601 0
-1171 -1602 0
-1167 -1603 0
-1169 -1605 0
-1170 -1607 0
-1171 -1609 0
-1170 -1613 0
-1171 -1615 0
-1169 -1618 0
-1170 -1621 0
-1171 -1622 0
-1167 -1636 0
-1171 -1641 0
-1166 -1642 0
-1169 -1644 0
-1170 -1646 0
-1171 -1647 0
-1170 -1657 0
-1171 -1659 0
-1166 -1669 0
-1171 -1674 0
-1169 -1677 0
-1170 -1680 0
-1171 -1681 0
-1169 -1683 0
-1170 -1685 0
-1171 -1687 0
-1166 -1736 0
-1167 -1737 0
-1169 -1739 0
-1171 -1741 0
-1166 -1742 0
-1170 -1746 0
-1171 -1747 0
-1167 -1761 0
-1170 -1765 0
-1171 -1767 0
-1167 -1768 0
-1169 -1770 0
-1170 -1771 0
-1171 -1773 0
-1166 -1774 0
-1169 -1776 0
-1170 -1778 0
-1171 -1780 0
-1169 -1783 0
-1171 -1787 0
-1167 -1800 0
-1168 -1801 0
-1169 -1802 0
-1170 -1804 0
-1171 -1806 0
-1167 -1807 0
-1168 -1808 0
-1170 -1811 0
-1171 -1812 0
-1168 -1813 0
-1169 -1815 0
-1170 -1817 0
-1171 -1819 0
-1168 -1820 0
-1170 -1823 0
-1171 -1825 0
-1168 -1839 0
-1170 -1842 0
-1171 -1844 0
-1167 -1952 0
-1170 -1956 0
-1171 -1958 0
-1174 -1274 0
-1175 -1276 0
-1177 -1277 0
-1178 -1278 0
-1174 -1280 0
-1177 -1284 0
-1178 -1285 0
-1172 -1293 0
-1175 -1296 0
-1176 -1297 0
-1177 -1298 0
-1178 -1299 0
-1175 -1310 0
-1176 -1311 0
-1177 -1312 0
-1178 -1313 0
-1174 -1315 0
-1176 -1318 0
-1177 -1319 0
-1178 -1320 0
-1172 -1321 0
-1175 -1325 0
-1177 -1326 0
-1178 -1327 0
-1175 -1330 0
-1176 -1331 0
-1177 -1332 0
-1178 -1333 0
-1175 -1338 0
-1176 -1339 0
-1178 -1340 0
-1172 -1377 0
-1174 -1378 0
-1177 -1381 0
-1178 -1382 0
-1172 -1383 0
-1174 -1384 0
-1175 -1387 0
-1177 -1388 0
-1178 -1389 0
-1172 -1397 0
-1176 -1401 0
-1177 -1402 0
-1178 -1403 0
-1174 -1404 0
-1175 -1406 0
-1176 -1407 0
-1177 -1408 0
-1178 -1409 0
-1174 -1410 0
-1176 -1414 0
-1178 -1415 0
-1172 -1429 0
-1175 -1432 0
-1176 -1433 0
-1178 -1434 0
-1175 -1438 0
-1177 -1439 0
-1178 -1440 0
-1173 -1464 0
-1176 -1468 0
-1177 -1469 0
-1178 -1470 0
-1173 -1471 0
-1175 -1477 0
-1176 -1478 0
-1178 -1479 0
-1173 -1493 0
-1175 -1496 0
-1177 -1497 0
-1178 -1498 0
-1173 -1499 0
-1174 -1501 0
-1175 -1504 0
-1176 -1505 0
-1177 -1506 0
-1178 -1507 0
-1173 -1508 0
-1174 -1510 0
-1175 -1512 0
-1176 -1513 0
-1178 -1514 0
-1172 -1528 0
-1173 -1529 0
-1175 -1532 0
-1176 -1533 0
-1178 -1534 0
-1173 -1542 0
-1175 -1546 0
-1177 -1547 0
-1178 -1548 0
-1173 -1549 0
-1175 -1553 0
-1178 -1554 0
-1173 -1562 0
-1174 -1564 0
-1175 -1566 0
-1177 -1567 0
-1178 -1568 0
-1172 -1575 0
-1173 -1576 0
-1175 -1581 0
-1176 -1582 0
-1177 -1583 0
-1178 -1584 0
-1172 -1585 0
-1173 -1586 0
-1175 -1588 0
-1176 -1589 0
-1178 -1590 0
-1173 -1597 0
-1176 -1601 0
-1178 -1602 0
-1173 -1603 0
-1175 -1606 0
-1176 -1607 0
-1177 -1608 0
-1178 -1609 0
-1174 -1624 0
-1177 -1628 0
-1178 -1629 0
-1174 -1631 0
-1175 -1634 0
-1178 -1635 0
-1172 -1642 0
-1176 -1646 0
-1178 -1647 0
-1176 -1657 0
-1177 -1658 0
-1178 -1659 0
-1174 -1661 0
-1175 -1665 0
-1176 -1666 0
-1177 -1667 0
-1178 -1668 0
-1172 -1669 0
-1177 -1673 0
-1178 -1674 0
-1175 -1679 0
-1176 -1680 0
-1178 -1681 0
-1176 -1685 0
-1177 -1686 0
-1178 -1687 0
-1172 -1723 0
-1174 -1724 0
-1175 -1727 0
-1177 -1728 0
-1178 -1729 0
-1172 -1730 0
-1174 -1731 0
-1175 -1734 0
-1178 -1735 0
-1172 -1742 0
-1175 -1745 0
-1176 -1746 0
-1178 -1747 0
-1174 -1748 0
-1176 -1752 0
-1178 -1753 0
-1174 -1754 0
-1175 -1757 0
-1176 -1758 0
-1177 -1759 0
-1178 -1760 0
-1172 -1774 0
-1176 -1778 0
-1177 -1779 0
-1178 -1780 0
-1175 -1785 0
-1177 -1786 0
-1178 -1787 0
-1173 -1800 0
-1174 -1801 0
-1176 -1804 0
-1177 -1805 0
-1178 -1806 0
-1173 -1807 0
-1174 -1808 0
-1175 -1810 0
-1176 -1811 0
-1178 -1812 0
-1173 -1826 0
-1176 -1829 0
-1177 -1830 0
-1178 -1831 0
-1174 -1839 0
-1175 -1841 0
-1176 -1842 0
-1177 -1843 0
-1178 -1844 0
-1173 -1845 0
-1177 -1849 0
-1178 -1850 0
-1173 -1851 0
-1175 -1855 0
-1177 -1856 0
-1178 -1857 0
-1173 -1865 0
-1175 -1868 0
-1176 -1869 0
-1177 -1870 0
-1178 -1871 0
-1172 -1899 0
-1173 -1900 0
-1175 -1902 0
-1177 -1903 0
-1178 -1904 0
-1172 -1905 0
-1173 -1906 0
-1175 -1909 0
-1177 -1910 0
-1178 -1911 0
-1173 -1912 0
-1176 -1915 0
-1177 -1916 0
-1178 -1917 0
-1173 -1918 0
-1175 -1921 0
-1176 -1922 0
-1178 -1923 0
-1172 -1938 0
-1176 -1942 0
-1177 -1943 0
-1178 -1944 0
-1175 -1948 0
-1177 -1949 0
-1178 -1950 0
-1173 -1952 0
-1175 -1955 0
-1176 -1956 0
-1177 -1957 0
-1178 -1958 0
-1179 -1266 0
-1182 -1269 0
-1184 -1272 0
-1181 -1280 0
-1182 -1283 0
-1184 -1285 0
-1182 -1309 0
-1183 -1310 0
-1184 -1313 0
-1181 -1315 0
-1182 -1317 0
-1184 -1320 0
-1182 -1337 0
-1183 -1338 0
-1184 -1340 0
-1180 -1370 0
-1181 -1371 0
-1182 -1373 0
-1184 -1376 0
-1179 -1383 0
-1181 -1384 0
-1182 -1386 0
-1183 -1387 0
-1184 -1389 0
-1181 -1410 0
-1182 -1413 0
-1184 -1415 0
-1180 -1422 0
-1182 -1424 0
-1183 -1425 0
-1184 -1428 0
-1182 -1437 0
-1183 -1438 0
-1184 -1440 0
-1182 -1459 0
-1183 -1460 0
-1184 -1463 0
-1180 -1471 0
-1182 -1476 0
-1183 -1477 0
-1184 -1479 0
-1182 -1483 0
-1183 -1484 0
-1184 -1486 0
-1180 -1493 0
-1182 -1495 0
-1183 -1496 0
-1184 -1498 0
-1180 -1508 0
-1181 -1510 0
-1183 -1512 0
-1184 -1514 0
-1180 -1522 0
-1183 -1524 0
-1184 -1527 0
-1180 -1542 0
-1183 -1546 0
-1184 -1548 0
-1179 -1555 0
-1183 -1558 0
-1184 -1561 0
-1180 -1562 0
-1181 -1564 0
-1183 -1566 0
-1184 -1568 0
-1180 -1569 0
-1183 -1573 0
-1184 -1574 0
-1179 -1585 0
-1180 -1586 0
-1183 -1588 0
-1184 -1590 0
-1183 -1594 0
-1184 -1596 0
-1180 -1603 0
-1183 -1606 0
-1184 -1609 0
-1183 -1612 0
-1184 -1615 0
-1181 -1631 0
-1182 -1633 0
-1183 -1634 0
-1184 -1635 0
-1182 -1656 0
-1184 -1659 0
-1181 -1661 0
-1182 -1664 0
-1183 -1665 0
-1184 -1668 0
-1182 -1684 0
-1184 -1687 0
-1180 -1717 0
-1181 -1718 0
-1183 -1720 0
-1184 -1722 0
-1179 -1730 0
-1181 -1731 0
-1183 -1734 0
-1184 -1735 0
-1181 -1754 0
-1183 -1757 0
-1184 -1760 0
-1180 -1768 0
-1184 -1773 0
-1182 -1790 0
-1184 -1793 0
-1182 -1796 0
-1184 -1799 0
-1180 -1807 0
-1181 -1808 0
-1183 -1810 0
-1184 -1812 0
-1181 -1813 0
-1183 -1816 0
-1184 -1819 0
-1180 -1826 0
-1184 -1831 0
-1179 -1832 0
-1183 -1834 0
-1184 -1837 0
-1180 -1851 0
-1183 -1855 0
-1184 -1857 0
-1180 -1865 0
-1183 -1868 0
-1184 -1871 0
-1180 -1892 0
-1182 -1894 0
-1183 -1895 0
-1184 -1898 0
-1179 -1905 0
-1180 -1906 0
-1182 -1908 0
-1183 -1909 0
-1184 -1911 0
-1180 -1918 0
-1182 -1920 0
-1183 -1921 0
-1184 -1923 0
-1185 -1260 0
-1188 -1261 0
-1191 -1265 0
-1187 -1274 0
-1188 -1275 0
-1190 -1277 0
-1191 -1278 0
-1186 -1286 0
-1188 -1288 0
-1189 -1289 0
-1190 -1291 0
-1191 -1292 0
-1187 -1315 0
-1188 -1316 0
-1190 -1319 0
-1191 -1320 0
-1185 -1321 0
-1188 -1323 0
-1189 -1324 0
-1190 -1326 0
-1191 -1327 0
-1188 -1329 0
-1190 -1332 0
-1191 -1333 0
-1186 -1370 0
-1187 -1371 0
-1189 -1372 0
-1190 -1375 0
-1191 -1376 0
-1185 -1377 0
-1187 -1378 0
-1189 -1379 0
-1190 -1381 0
-1191 -1382 0
-1185 -1390 0
-1186 -1391 0
-1189 -1392 0
-1190 -1395 0
-1191 -1396 0
-1187 -1404 0
-1190 -1408 0
-1191 -1409 0
-1186 -1416 0
-1189 -1417 0
-1191 -1421 0
-1189 -1458 0
-1190 -1462 0
-1191 -1463 0
-1186 -1464 0
-1190 -1469 0
-1191 -1470 0
-1189 -1489 0
-1190 -1491 0
-1191 -1492 0
-1186 -1493 0
-1190 -1497 0
-1191 -1498 0
-1186 -1499 0
-1187 -1501 0
-1188 -1502 0
-1190 -1506 0
-1191 -1507 0
-1186 -1515 0
-1188 -1517 0
-1189 -1518 0
-1191 -1521 0
-1186 -1549 0
-1188 -1551 0
-1191 -1554 0
-1185 -1555 0
-1188 -1557 0
-1190 -1560 0
-1191 -1561 0
-1186 -1562 0
-1187 -1564 0
-1188 -1565 0
-1190 -1567 0
-1191 -1568 0
-1186 -1569 0
-1188 -1571 0
-1189 -1572 0
-1191 -1574 0
-1185 -1575 0
-1186 -1576 0
-1188 -1578 0
-1189 -1579 0
-1190 -1583 0
-1191 -1584 0
-1188 -1592 0
-1189 -1593 0
-1191 -1596 0
-1186 -1597 0
-1188 -1599 0
-1191 -1602 0
-1188 -1617 0
-1189 -1618 0
-1191 -1622 0
-1187 -1624 0
-1188 -1625 0
-1189 -1626 0
-1190 -1628 0
-1191 -1629 0
-1186 -1636 0
-1188 -1638 0
-1191 -1641 0
-1187 -1661 0
-1188 -1662 0
-1189 -1663 0
-1190 -1667 0
-1191 -1668 0
-1185 -1669 0
-1188 -1671 0
-1190 -1673 0
-1191 -1674 0
-1188 -1676 0
-1189 -1677 0
-1191 -1681 0
-1186 -1717 0
-1187 -1718 0
-1188 -1719 0
-1191 -1722 0
-1185 -1723 0
-1187 -1724 0
-1188 -1725 0
-1190 -1728 0
-1191 -1729 0
-1185 -1736 0
-1186 -1737 0
-1188 -1738 0
-1189 -1739 0
-1191 -1741 0
-1187 -1748 0
-1188 -1749 0
-1189 -1750 0
-1191 -1753 0
-1186 -1761 0
-1188 -1762 0
-1190 -1766 0
-1191 -1767 0
-1188 -1782 0
-1189 -1783 0
-1190 -1786 0
-1191 -1787 0
-1188 -1789 0
-1190 -1792 0
-1191 -1793 0
-1186 -1800 0
-1187 -1801 0
-1189 -1802 0
-1190 -1805 0
-1191 -1806 0
-1187 -1820 0
-1190 -1824 0
-1191 -1825 0
-1185 -1832 0
-1189 -1833 0
-1190 -1836 0
-1191 -1837 0
-1187 -1839 0
-1190 -1843 0
-1191 -1844 0
-1186 -1845 0
-1189 -1847 0
-1190 -1849 0
-1191 -1850 0
-1186 -1865 0
-1189 -1867 0
-1190 -1870 0
-1191 -1871 0
-1186 -1892 0
-1188 -1893 0
-1190 -1897 0
-1191 -1898 0
-1185 -1899 0
-1186 -1900 0
-1188 -1901 0
-1190 -1903 0
-1191 -1904 0
-1186 -1912 0
-1188 -1913 0
-1189 -1914 0
-1190 -1916 0
-1191 -1917 0
-1185 -1938 0
-1188 -1939 0
-1189 -1940 0
-1190 -1943 0
-1191 -1944 0
-1188 -1945 0
-1189 -1946 0
-1190 -1949 0
-1191 -1950 0
-1186 -1952 0
-1188 -1953 0
-1190 -1957 0
-1191 -1958 0
-1192 -1254 0
-1197 -1257 0
-1198 -1259 0
-1194 -1274 0
-1195 -1275 0
-1198 -1278 0
-1194 -1280 0
-1195 -1281 0
-1196 -1283 0
-1198 -1285 0
-1193 -1286 0
-1195 -1288 0
-1198 -1292 0
-1193 -1300 0
-1194 -1302 0
-1195 -1303 0
-1198 -1306 0
-1192 -1321 0
-1195 -1323 0
-1198 -1327 0
-1192 -1354 0
-1193 -1355 0
-1194 -1356 0
-1195 -1357 0
-1197 -1360 0
-1198 -1362 0
-1192 -1363 0
-1193 -1364 0
-1194 -1365 0
-1195 -1366 0
-1196 -1367 0
-1197 -1368 0
-1198 -1369 0
-1192 -1397 0
-1195 -1398 0
-1196 -1400 0
-1197 -1401 0
-1198 -1403 0
-1194 -1404 0
-1196 -1405 0
-1197 -1407 0
-1198 -1409 0
-1194 -1410 0
-1195 -1411 0
-1196 -1413 0
-1197 -1414 0
-1198 -1415 0
-1193 -1416 0
-1196 -1418 0
-1197 -1420 0
-1198 -1421 0
-1193 -1422 0
-1195 -1423 0
-1196 -1424 0
-1197 -1426 0
-1198 -1428 0
-1192 -1449 0
-1194 -1450 0
-1195 -1451 0
-1196 -1452 0
-1198 -1455 0
-1195 -1482 0
-1196 -1483 0
-1198 -1486 0
-1198 -1492 0
-1193 -1493 0
-1196 -1495 0
-1198 -1498 0
-1193 -1499 0
-1194 -1501 0
-1195 -1502 0
-1196 -1503 0
-1197 -1505 0
-1198 -1507 0
-1193 -1508 0
-1194 -1510 0
-1197 -1513 0
-1198 -1514 0
-1193 -1515 0
-1195 -1517 0
-1196 -1519 0
-1197 -1520 0
-1198 -1521 0
-1193 -1522 0
-1197 -1525 0
-1198 -1527 0
-1193 -1535 0
-1194 -1537 0
-1196 -1538 0
-1197 -1540 0
-1198 -1541 0
-1192 -1555 0
-1195 -1557 0
-1197 -1559 0
-1198 -1561 0
-1192 -1575 0
-1193 -1576 0
-1195 -1578 0
-1196 -1580 0
-1197 -1582 0
-1198 -1584 0
-1192 -1585 0
-1193 -1586 0
-1197 -1589 0
-1198 -1590 0
-1195 -1611 0
-1197 -1613 0
-1198 -1615 0
-1195 -1617 0
-1196 -1619 0
-1197 -1621 0
-1198 -1622 0
-1194 -1624 0
-1195 -1625 0
-1196 -1627 0
-1198 -1629 0
-1194 -1631 0
-1196 -1633 0
-1198 -1635 0
-1193 -1636 0
-1195 -1638 0
-1196 -1639 0
-1198 -1641 0
-1193 -1648 0
-1194 -1650 0
-1196 -1652 0
-1198 -1653 0
-1192 -1669 0
-1195 -1671 0
-1196 -1672 0
-1198 -1674 0
-1192 -1701 0
-1193 -1702 0
-1194 -1703 0
-1195 -1704 0
-1196 -1705 0
-1197 -1706 0
-1198 -1707 0
-1192 -1708 0
-1193 -1709 0
-1194 -1710 0
-1196 -1712 0
-1197 -1714 0
-1198 -1716 0
-1192 -1742 0
-1195 -1743 0
-1196 -1744 0
-1197 -1746 0
-1198 -1747 0
-1194 -1748 0
-1195 -1749 0
-1196 -1751 0
-1197 -1752 0
-1198 -1753 0
-1194 -1754 0
-1195 -1755 0
-1197 -1758 0
-1198 -1760 0
-1193 -1761 0
-1195 -1762 0
-1196 -1763 0
-1197 -1765 0
-1198 -1767 0
-1193 -1768 0
-1195 -1769 0
-1197 -1771 0
-1198 -1773 0
-1194 -1813 0
-1195 -1814 0
-1197 -1817 0
-1198 -1819 0
-1194 -1820 0
-1196 -1821 0
-1197 -1823 0
-1198 -1825 0
-1193 -1826 0
-1195 -1827 0
-1197 -1829 0
-1198 -1831 0
-1193 -1845 0
-1196 -1848 0
-1198 -1850 0
-1193 -1851 0
-1195 -1853 0
-1198 -1857 0
-1193 -1858 0
-1195 -1860 0
-1196 -1862 0
-1198 -1864 0
-1192 -1879 0
-1193 -1880 0
-1196 -1881 0
-1197 -1882 0
-1198 -1884 0
-1192 -1885 0
-1193 -1886 0
-1195 -1887 0
-1197 -1890 0
-1198 -1891 0
-1193 -1912 0
-1195 -1913 0
-1197 -1915 0
-1198 -1917 0
-1193 -1918 0
-1196 -1920 0
-1197 -1922 0
-1198 -1923 0
-1192 -1931 0
-1193 -1932 0
-1196 -1934 0
-1198 -1937 0
-1195 -1945 0
-1196 -1947 0
-1198 -1950 0
-1199 -1247 0
-1203 -1252 0
-1204 -1253 0
-1200 -1280 0
-1201 -1281 0
-1203 -1284 0
-1204 -1285 0
-1201 -1288 0
-1203 -1291 0
-1204 -1292 0
-1199 -1293 0
-1201 -1295 0
-1202 -1297 0
-1203 -1298 0
-1204 -1299 0
-1200 -1302 0
-1201 -1303 0
-1203 -1305 0
-1204 -1306 0
-1201 -1329 0
-1202 -1331 0
-1203 -1332 0
-1204 -1333 0
-1200 -1348 0
-1201 -1349 0
-1204 -1353 0
-1199 -1363 0
-1200 -1365 0
-1201 -1366 0
-1202 -1368 0
-1204 -1369 0
-1200 -1410 0
-1201 -1411 0
-1202 -1414 0
-1204 -1415 0
-1202 -1420 0
-1204 -1421 0
-1199 -1429 0
-1201 -1430 0
-1202 -1433 0
-1204 -1434 0
-1202 -1461 0
-1203 -1462 0
-1204 -1463 0
-1202 -1468 0
-1203 -1469 0
-1204 -1470 0
-1203 -1491 0
-1204 -1492 0
-1203 -1497 0
-1204 -1498 0
-1200 -1510 0
-1202 -1513 0
-1204 -1514 0
-1201 -1517 0
-1202 -1520 0
-1204 -1521 0
-1199 -1528 0
-1202 -1533 0
-1204 -1534 0
-1200 -1537 0
-1202 -1540 0
-1204 -1541 0
-1201 -1551 0
-1204 -1554 0
-1201 -1571 0
-1204 -1574 0
-1199 -1585 0
-1202 -1589 0
-1204 -1590 0
-1201 -1592 0
-1202 -1595 0
-1204 -1596 0
-1201 -1599 0
-1202 -1601 0
-1204 -1602 0
-1201 -1617 0
-1202 -1621 0
-1204 -1622 0
-1200 -1631 0
-1204 -1635 0
-1201 -1638 0
-1204 -1641 0
-1199 -1642 0
-1202 -1646 0
-1204 -1647 0
-1200 -1650 0
-1204 -1653 0
-1201 -1676 0
-1202 -1680 0
-1204 -1681 0
-1200 -1696 0
-1201 -1697 0
-1203 -1699 0
-1204 -1700 0
-1199 -1708 0
-1200 -1710 0
-1202 -1714 0
-1203 -1715 0
-1204 -1716 0
-1200 -1754 0
-1201 -1755 0
-1202 -1758 0
-1203 -1759 0
-1204 -1760 0
-1201 -1762 0
-1202 -1765 0
-1203 -1766 0
-1204 -1767 0
-1199 -1774 0
-1201 -1775 0
-1202 -1778 0
-1203 -1779 0
-1204 -1780 0
-1201 -1782 0
-1203 -1786 0
-1204 -1787 0
-1202 -1797 0
-1203 -1798 0
-1204 -1799 0
-1200 -1801 0
-1202 -1804 0
-1203 -1805 0
-1204 -1806 0
-1200 -1820 0
-1202 -1823 0
-1203 -1824 0
-1204 -1825 0
-1201 -1827 0
-1202 -1829 0
-1203 -1830 0
-1204 -1831 0
-1199 -1832 0
-1202 -1835 0
-1203 -1836 0
-1204 -1837 0
-1200 -1839 0
-1202 -1842 0
-1203 -1843 0
-1204 -1844 0
-1201 -1853 0
-1203 -1856 0
-1204 -1857 0
-1201 -1860 0
-1203 -1863 0
-1204 -1864 0
-1199 -1885 0
-1201 -1887 0
-1202 -1890 0
-1204 -1891 0
-1202 -1922 0
-1204 -1923 0
-1201 -1953 0
-1202 -1956 0
-1203 -1957 0
-1204 -1958 0
-1205 -1241 0
-1209 -1244 0
-1211 -1246 0
-1206 -1274 0
-1209 -1276 0
-1211 -1278 0
-1205 -1293 0
-1209 -1296 0
-1210 -1297 0
-1211 -1299 0
-1206 -1302 0
-1209 -1304 0
-1211 -1306 0
-1207 -1308 0
-1208 -1309 0
-1209 -1310 0
-1210 -1311 0
-1211 -1313 0
-1205 -1321 0
-1207 -1324 0
-1209 -1325 0
-1211 -1327 0
-1207 -1336 0
-1208 -1337 0
-1209 -1338 0
-1210 -1339 0
-1211 -1340 0
-1206 -1348 0
-1207 -1350 0
-1208 -1351 0
-1209 -1352 0
-1211 -1353 0
-1205 -1354 0
-1206 -1356 0
-1207 -1358 0
-1209 -1359 0
-1210 -1360 0
-1211 -1362 0
-1205 -1390 0
-1207 -1392 0
-1208 -1393 0
-1209 -1394 0
-1211 -1396 0
-1206 -1404 0
-1208 -1405 0
-1209 -1406 0
-1210 -1407 0
-1211 -1409 0
-1208 -1424 0
-1209 -1425 0
-1210 -1426 0
-1211 -1428 0
-1205 -1429 0
-1208 -1431 0
-1209 -1432 0
-1210 -1433 0
-1211 -1434 0
-1207 -1436 0
-1208 -1437 0
-1209 -1438 0
-1211 -1440 0
-1205 -1449 0
-1206 -1450 0
-1208 -1452 0
-1209 -1453 0
-1211 -1455 0
-1207 -1458 0
-1208 -1459 0
-1209 -1460 0
-1210 -1461 0
-1211 -1463 0
-1207 -1475 0
-1208 -1476 0
-1209 -1477 0
-1210 -1478 0
-1211 -1479 0
-1208 -1483 0
-1209 -1484 0
-1211 -1486 0
-1208 -1495 0
-1209 -1496 0
-1211 -1498 0
-1206 -1501 0
-1208 -1503 0
-1209 -1504 0
-1210 -1505 0
-1211 -1507 0
-1209 -1524 0
-1210 -1525 0
-1211 -1527 0
-1205 -1528 0
-1208 -1531 0
-1209 -1532 0
-1210 -1533 0
-1211 -1534 0
-1206 -1537 0
-1208 -1538 0
-1209 -1539 0
-1210 -1540 0
-1211 -1541 0
-1207 -1545 0
-1209 -1546 0
-1211 -1548 0
-1207 -1572 0
-1209 -1573 0
-1211 -1574 0
-1205 -1575 0
-1207 -1579 0
-1208 -1580 0
-1209 -1581 0
-1210 -1582 0
-1211 -1584 0
-1207 -1593 0
-1209 -1594 0
-1210 -1595 0
-1211 -1596 0
-1207 -1605 0
-1209 -1606 0
-1210 -1607 0
-1211 -1609 0
-1209 -1612 0
-1210 -1613 0
-1211 -1615 0
-1206 -1624 0
-1207 -1626 0
-1208 -1627 0
-1211 -1629 0
-1205 -1642 0
-1207 -1644 0
-1208 -1645 0
-1210 -1646 0
-1211 -1647 0
-1206 -1650 0
-1207 -1651 0
-1208 -1652 0
-1211 -1653 0
-1208 -1656 0
-1210 -1657 0
-1211 -1659 0
-1205 -1669 0
-1208 -1672 0
-1211 -1674 0
-1207 -1683 0
-1208 -1684 0
-1210 -1685 0
-1211 -1687 0
-1206 -1696 0
-1208 -1698 0
-1211 -1700 0
-1205 -1701 0
-1206 -1703 0
-1208 -1705 0
-1210 -1706 0
-1211 -1707 0
-1205 -1736 0
-1207 -1739 0
-1208 -1740 0
-1211 -1741 0
-1206 -1748 0
-1207 -1750 0
-1208 -1751 0
-1210 -1752 0
-1211 -1753 0
-1207 -1770 0
-1210 -1771 0
-1211 -1773 0
-1205 -1774 0
-1207 -1776 0
-1208 -1777 0
-1210 -1778 0
-1211 -1780 0
-1206 -1808 0
-1209 -1810 0
-1210 -1811 0
-1211 -1812 0
-1206 -1813 0
-1207 -1815 0
-1209 -1816 0
-1210 -1817 0
-1211 -1819 0
-1205 -1832 0
-1207 -1833 0
-1209 -1834 0
-1210 -1835 0
-1211 -1837 0
-1207 -1847 0
-1208 -1848 0
-1211 -1850 0
-1207 -1861 0
-1208 -1862 0
-1211 -1864 0
-1205 -1879 0
-1208 -1881 0
-1210 -1882 0
-1211 -1884 0
-1207 -1914 0
-1210 -1915 0
-1211 -1917 0
-1205 -1931 0
-1207 -1933 0
-1208 -1934 0
-1209 -1935 0
-1211 -1937 0
-1207 -1946 0
-1208 -1947 0
-1209 -1948 0
-1211 -1950 0
-1212 -1235 0
-1215 -1237 0
-1218 -1240 0
-1214 -1275 0
-1216 -1276 0
-1218 -1278 0
-1212 -1293 0
-1214 -1295 0
-1216 -1296 0
-1217 -1297 0
-1218 -1299 0
-1213 -1300 0
-1214 -1303 0
-1216 -1304 0
-1218 -1306 0
-1214 -1316 0
-1217 -1318 0
-1218 -1320 0
-1214 -1329 0
-1216 -1330 0
-1217 -1331 0
-1218 -1333 0
-1213 -1341 0
-1214 -1343 0
-1218 -1346 0
-1212 -1363 0
-1213 -1364 0
-1214 -1366 0
-1217 -1368 0
-1218 -1369 0
-1212 -1383 0
-1214 -1385 0
-1216 -1387 0
-1218 -1389 0
-1216 -1406 0
-1217 -1407 0
-1218 -1409 0
-1213 -1422 0
-1214 -1423 0
-1216 -1425 0
-1217 -1426 0
-1218 -1428 0
-1212 -1429 0
-1214 -1430 0
-1216 -1432 0
-1217 -1433 0
-1218 -1434 0
-1214 -1443 0
-1215 -1444 0
-1216 -1445 0
-1217 -1446 0
-1218 -1448 0
-1213 -1464 0
-1217 -1468 0
-1218 -1470 0
-1214 -1482 0
-1216 -1484 0
-1218 -1486 0
-1213 -1493 0
-1216 -1496 0
-1218 -1498 0
-1213 -1499 0
-1214 -1502 0
-1216 -1504 0
-1217 -1505 0
-1218 -1507 0
-1213 -1522 0
-1216 -1524 0
-1217 -1525 0
-1218 -1527 0
-1212 -1528 0
-1213 -1529 0
-1216 -1532 0
-1217 -1533 0
-1218 -1534 0
-1213 -1535 0
-1216 -1539 0
-1217 -1540 0
-1218 -1541 0
-1213 -1549 0
-1214 -1551 0
-1216 -1553 0
-1218 -1554 0
-1212 -1555 0
-1214 -1557 0
-1216 -1558 0
-1217 -1559 0
-1218 -1561 0
-1213 -1562 0
-1214 -1565 0
-1216 -1566 0
-1218 -1568 0
-1212 -1585 0
-1213 -1586 0
-1216 -1588 0
-1217 -1589 0
-1218 -1590 0
-1213 -1597 0
-1214 -1599 0
-1217 -1601 0
-1218 -1602 0
-1214 -1611 0
-1216 -1612 0
-1217 -1613 0
-1218 -1615 0
-1214 -1625 0
-1215 -1626 0
-1218 -1629 0
-1212 -1642 0
-1215 -1644 0
-1217 -1646 0
-1218 -1647 0
-1213 -1648 0
-1215 -1651 0
-1218 -1653 0
-1214 -1662 0
-1215 -1663 0
-1216 -1665 0
-1217 -1666 0
-1218 -1668 0
-1214 -1676 0
-1215 -1677 0
-1216 -1679 0
-1217 -1680 0
-1218 -1681 0
-1213 -1688 0
-1214 -1690 0
-1215 -1691 0
-1216 -1693 0
-1218 -1694 0
-1212 -1708 0
-1213 -1709 0
-1215 -1711 0
-1216 -1713 0
-1217 -1714 0
-1218 -1716 0
-1212 -1730 0
-1214 -1732 0
-1215 -1733 0
-1216 -1734 0
-1218 -1735 0
-1214 -1749 0
-1215 -1750 0
-1217 -1752 0
-1218 -1753 0
-1213 -1768 0
-1214 -1769 0
-1215 -1770 0
-1217 -1771 0
-1218 -1773 0
-1212 -1774 0
-1214 -1775 0
-1215 -1776 0
-1217 -1778 0
-1218 -1780 0
-1214 -1782 0
-1215 -1783 0
-1216 -1785 0
-1218 -1787 0
-1215 -1795 0
-1217 -1797 0
-1218 -1799 0
-1213 -1800 0
-1215 -1802 0
-1217 -1804 0
-1218 -1806 0
-1214 -1814 0
-1215 -1815 0
-1216 -1816 0
-1217 -1817 0
-1218 -1819 0
-1212 -1832 0
-1215 -1833 0
-1216 -1834 0
-1217 -1835 0
-1218 -1837 0
-1216 -1841 0
-1217 -1842 0
-1218 -1844 0
-1213 -1845 0
-1215 -1847 0
-1218 -1850 0
-1213 -1858 0
-1214 -1860 0
-1215 -1861 0
-1218 -1864 0
-1213 -1865 0
-1215 -1867 0
-1216 -1868 0
-1217 -1869 0
-1218 -1871 0
-1213 -1872 0
-1215 -1874 0
-1216 -1875 0
-1218 -1877 0
-1212 -1885 0
-1213 -1886 0
-1214 -1887 0
-1215 -1888 0
-1216 -1889 0
-1217 -1890 0
-1218 -1891 0
-1212 -1905 0
-1213 -1906 0
-1215 -1907 0
-1216 -1909 0
-1218 -1911 0
-1213 -1912 0
-1214 -1913 0
-1215 -1914 0
-1217 -1915 0
-1218 -1917 0
-1213 -1924 0
-1215 -1926 0
-1217 -1928 0
-1218 -1930 0
-1214 -1945 0
-1215 -1946 0
-1216 -1948 0
-1218 -1950 0
-1213 -1952 0
-1214 -1953 0
-1216 -1955 0
-1217 -1956 0
-1218 -1958 0
-1221 -1274 0
-1222 -1275 0
-1225 -1276 0
-1227 -1277 0
-1228 -1278 0
-1221 -1280 0
-1222 -1281 0
-1223 -1282 0
-1224 -1283 0
-1227 -1284 0
-1228 -1285 0
-1220 -1286 0
-1222 -1288 0
-1223 -1289 0
-1225 -1290 0
-1227 -1291 0
-1228 -1292 0
-1220 -1300 0
-1221 -1302 0
-1222 -1303 0
-1225 -1304 0
-1227 -1305 0
-1228 -1306 0
-1223 -1308 0
-1224 -1309 0
-1225 -1310 0
-1226 -1311 0
-1227 -1312 0
-1228 -1313 0
-1221 -1315 0
-1222 -1316 0
-1224 -1317 0
-1226 -1318 0
-1227 -1319 0
-1228 -1320 0
-1222 -1329 0
-1225 -1330 0
-1226 -1331 0
-1227 -1332 0
-1228 -1333 0
-1222 -1335 0
-1223 -1336 0
-1224 -1337 0
-1225 -1338 0
-1226 -1339 0
-1228 -1340 0
-1220 -1355 0
-1221 -1356 0
-1222 -1357 0
-1223 -1358 0
-1225 -1359 0
-1226 -1360 0
-1227 -1361 0
-1228 -1362 0
-1220 -1364 0
-1221 -1365 0
-1222 -1366 0
-1224 -1367 0
-1226 -1368 0
-1228 -1369 0
-1221 -1378 0
-1223 -1379 0
-1224 -1380 0
-1227 -1381 0
-1228 -1382 0
-1221 -1384 0
-1222 -1385 0
-1224 -1386 0
-1225 -1387 0
-1227 -1388 0
-1228 -1389 0
-1220 -1391 0
-1223 -1392 0
-1224 -1393 0
-1225 -1394 0
-1227 -1395 0
-1228 -1396 0
-1222 -1430 0
-1224 -1431 0
-1225 -1432 0
-1226 -1433 0
-1228 -1434 0
-1221 -1450 0
-1222 -1451 0
-1224 -1452 0
-1225 -1453 0
-1227 -1454 0
-1228 -1455 0
-1220 -1499 0
-1221 -1501 0
-1222 -1502 0
-1224 -1503 0
-1225 -1504 0
-1226 -1505 0
-1227 -1506 0
-1228 -1507 0
-1220 -1508 0
-1221 -1510 0
-1223 -1511 0
-1225 -1512 0
-1226 -1513 0
-1228 -1514 0
-1220 -1515 0
-1222 -1517 0
-1223 -1518 0
-1224 -1519 0
-1226 -1520 0
-1228 -1521 0
-1220 -1522 0
-1225 -1524 0
-1226 -1525 0
-1227 -1526 0
-1228 -1527 0
-1220 -1535 0
-1221 -1537 0
-1224 -1538 0
-1225 -1539 0
-1226 -1540 0
-1228 -1541 0
-1220 -1542 0
-1222 -1544 0
-1223 -1545 0
-1225 -1546 0
-1227 -1547 0
-1228 -1548 0
-1220 -1549 0
-1222 -1551 0
-1224 -1552 0
-1225 -1553 0
-1228 -1554 0
-1220 -1562 0
-1221 -1564 0
-1222 -1565 0
-1225 -1566 0
-1227 -1567 0
-1228 -1568 0
-1220 -1569 0
-1222 -1571 0
-1223 -1572 0
-1225 -1573 0
-1228 -1574 0
-1222 -1592 0
-1223 -1593 0
-1225 -1594 0
-1226 -1595 0
-1228 -1596 0
-1220 -1597 0
-1222 -1599 0
-1224 -1600 0
-1226 -1601 0
-1228 -1602 0
-1220 -1603 0
-1223 -1605 0
-1225 -1606 0
-1226 -1607 0
-1227 -1608 0
-1228 -1609 0
-1222 -1611 0
-1225 -1612 0
-1226 -1613 0
-1227 -1614 0
-1228 -1615 0
-1222 -1617 0
-1223 -1618 0
-1224 -1619 0
-1225 -1620 0
-1226 -1621 0
-1228 -1622 0
-1221 -1624 0
-1222 -1625 0
-1223 -1626 0
-1224 -1627 0
-1227 -1628 0
-1228 -1629 0
-1221 -1631 0
-1223 -1632 0
-1224 -1633 0
-1225 -1634 0
-1228 -1635 0
-1220 -1636 0
-1222 -1638 0
-1224 -1639 0
-1225 -1640 0
-1228 -1641 0
-1220 -1648 0
-1221 -1650 0
-1223 -1651 0
-1224 -1652 0
-1228 -1653 0
-1222 -1655 0
-1224 -1656 0
-1226 -1657 0
-1227 -1658 0
-1228 -1659 0
-1221 -1661 0
-1222 -1662 0
-1223 -1663 0
-1224 -1664 0
-1225 -1665 0
-1226 -1666 0
-1227 -1667 0
-1228 -1668 0
-1222 -1676 0
-1223 -1677 0
-1224 -1678 0
-1225 -1679 0
-1226 -1680 0
-1228 -1681 0
-1223 -1683 0
-1224 -1684 0
-1226 -1685 0
-1227 -1686 0
-1228 -1687 0
-1220 -1702 0
-1221 -1703 0
-1222 -1704 0
-1224 -1705 0
-1226 -1706 0
-1228 -1707 0
-1220 -1709 0
-1221 -1710 0
-1223 -1711 0
-1224 -1712 0
-1225 -1713 0
-1226 -1714 0
-1227 -1715 0
-1228 -1716 0
-1221 -1724 0
-1222 -1725 0
-1224 -1726 0
-1225 -1727 0
-1227 -1728 0
-1228 -1729 0
-1221 -1731 0
-1222 -1732 0
-1223 -1733 0
-1225 -1734 0
-1228 -1735 0
-1220 -1737 0
-1222 -1738 0
-1223 -1739 0
-1224 -1740 0
-1228 -1741 0
-1222 -1775 0
-1223 -1776 0
-1224 -1777 0
-1226 -1778 0
-1227 -1779 0
-1228 -1780 0
-1220 -1845 0
-1223 -1847 0
-1224 -1848 0
-1227 -1849 0
-1228 -1850 0
-1220 -1851 0
-1222 -1853 0
-1223 -1854 0
-1225 -1855 0
-1227 -1856 0
-1228 -1857 0
-1220 -1858 0
-1222 -1860 0
-1223 -1861 0
-1224 -1862 0
-1227 -1863 0
-1228 -1864 0
-1220 -1865 0
-1223 -1867 0
-1225 -1868 0
-1226 -1869 0
-1227 -1870 0
-1228 -1871 0
-1220 -1880 0
-1224 -1881 0
-1226 -1882 0
-1227 -1883 0
-1228 -1884 0
-1220 -1886 0
-1222 -1887 0
-1223 -1888 0
-1225 -1889 0
-1226 -1890 0
-1228 -1891 0
-1220 -1900 0
-1222 -1901 0
-1225 -1902 0
-1227 -1903 0
-1228 -1904 0
-1220 -1906 0
-1223 -1907 0
-1224 -1908 0
-1225 -1909 0
-1227 -1910 0
-1228 -1911 0
-1220 -1932 0
-1223 -1933 0
-1224 -1934 0
-1225 -1935 0
-1227 -1936 0
-1228 -1937 0
-1222 -1939 0
-1223 -1940 0
-1224 -1941 0
-1226 -1942 0
-1227 -1943 0
-1228 -1944 0
-1230 -1280 0
-1231 -1281 0
-1232 -1282 0
-1234 -1285 0
-1231 -1288 0
-1232 -1289 0
-1233 -1290 0
-1234 -1292 0
-1229 -1293 0
-1231 -1295 0
-1233 -1296 0
-1234 -1299 0
-1230 -1302 0
-1231 -1303 0
-1233 -1304 0
-1234 -1306 0
-1232 -1308 0
-1233 -1310 0
-1234 -1313 0
-1230 -1315 0
-1231 -1316 0
-1234 -1320 0
-1229 -1321 0
-1231 -1323 0
-1232 -1324 0
-1233 -1325 0
-1234 -1327 0
-1231 -1335 0
-1232 -1336 0
-1233 -1338 0
-1234 -1340 0
-1230 -1348 0
-1231 -1349 0
-1232 -1350 0
-1233 -1352 0
-1234 -1353 0
-1229 -1363 0
-1230 -1365 0
-1231 -1366 0
-1234 -1369 0
-1230 -1371 0
-1232 -1372 0
-1234 -1376 0
-1229 -1383 0
-1230 -1384 0
-1231 -1385 0
-1233 -1387 0
-1234 -1389 0
-1229 -1390 0
-1232 -1392 0
-1233 -1394 0
-1234 -1396 0
-1229 -1397 0
-1231 -1398 0
-1232 -1399 0
-1234 -1403 0
-1231 -1423 0
-1233 -1425 0
-1234 -1428 0
-1232 -1458 0
-1233 -1460 0
-1234 -1463 0
-1234 -1470 0
-1231 -1482 0
-1233 -1484 0
-1234 -1486 0
-1230 -1510 0
-1232 -1511 0
-1233 -1512 0
-1234 -1514 0
-1231 -1517 0
-1232 -1518 0
-1234 -1521 0
-1229 -1528 0
-1233 -1532 0
-1234 -1534 0
-1230 -1537 0
-1233 -1539 0
-1234 -1541 0
-1231 -1544 0
-1232 -1545 0
-1233 -1546 0
-1234 -1548 0
-1229 -1555 0
-1231 -1557 0
-1233 -1558 0
-1234 -1561 0
-1230 -1564 0
-1231 -1565 0
-1233 -1566 0
-1234 -1568 0
-1229 -1575 0
-1231 -1578 0
-1232 -1579 0
-1233 -1581 0
-1234 -1584 0
-1232 -1605 0
-1233 -1606 0
-1234 -1609 0
-1231 -1617 0
-1232 -1618 0
-1233 -1620 0
-1234 -1622 0
-1230 -1631 0
-1232 -1632 0
-1233 -1634 0
-1234 -1635 0
-1231 -1638 0
-1233 -1640 0
-1234 -1641 0
-1229 -1642 0
-1232 -1644 0
-1234 -1647 0
-1230 -1650 0
-1232 -1651 0
-1234 -1653 0
-1231 -1655 0
-1234 -1659 0
-1230 -1661 0
-1231 -1662 0
-1232 -1663 0
-1233 -1665 0
-1234 -1668 0
-1229 -1669 0
-1231 -1671 0
-1234 -1674 0
-1232 -1683 0
-1234 -1687 0
-1230 -1696 0
-1231 -1697 0
-1234 -1700 0
-1229 -1708 0
-1230 -1710 0
-1232 -1711 0
-1233 -1713 0
-1234 -1716 0
-1230 -1718 0
-1231 -1719 0
-1233 -1720 0
-1234 -1722 0
-1229 -1730 0
-1230 -1731 0
-1231 -1732 0
-1232 -1733 0
-1233 -1734 0
-1234 -1735 0
-1229 -1736 0
-1231 -1738 0
-1232 -1739 0
-1234 -1741 0
-1229 -1742 0
-1231 -1743 0
-1233 -1745 0
-1234 -1747 0
-1231 -1769 0
-1232 -1770 0
-1234 -1773 0
-1231 -1782 0
-1232 -1783 0
-1233 -1785 0
-1234 -1787 0
-1230 -1801 0
-1232 -1802 0
-1234 -1806 0
-1230 -1813 0
-1231 -1814 0
-1232 -1815 0
-1233 -1816 0
-1234 -1819 0
-1230 -1839 0
-1233 -1841 0
-1234 -1844 0
-1231 -1853 0
-1232 -1854 0
-1233 -1855 0
-1234 -1857 0
-1231 -1860 0
-1232 -1861 0
-1234 -1864 0
-1232 -1867 0
-1233 -1868 0
-1234 -1871 0
-1229 -1885 0
-1231 -1887 0
-1232 -1888 0
-1233 -1889 0
-1234 -1891 0
-1231 -1893 0
-1233 -1895 0
-1234 -1898 0
-1229 -1905 0
-1232 -1907 0
-1233 -1909 0
-1234 -1911 0
-1231 -1953 0
-1233 -1955 0
-1234 -1958 0
-1236 -1274 0
-1239 -1277 0
-1240 -1278 0
-1235 -1293 0
-1239 -1298 0
-1240 -1299 0
-1236 -1302 0
-1239 -1305 0
-1240 -1306 0
-1236 -1315 0
-1238 -1317 0
-1239 -1319 0
-1240 -1320 0
-1239 -1332 0
-1240 -1333 0
-1236 -1348 0
-1237 -1350 0
-1238 -1351 0
-1240 -1353 0
-1235 -1354 0
-1236 -1356 0
-1237 -1358 0
-1239 -1361 0
-1240 -1362 0
-1236 -1371 0
-1237 -1372 0
-1238 -1373 0
-1239 -1375 0
-1240 -1376 0
-1235 -1377 0
-1236 -1378 0
-1237 -1379 0
-1238 -1380 0
-1239 -1381 0
-1240 -1382 0
-1235 -1397 0
-1237 -1399 0
-1238 -1400 0
-1239 -1402 0
-1240 -1403 0
-1237 -1417 0
-1238 -1418 0
-1240 -1421 0
-1237 -1436 0
-1238 -1437 0
-1239 -1439 0
-1240 -1440 0
-1235 -1449 0
-1236 -1450 0
-1238 -1452 0
-1239 -1454 0
-1240 -1455 0
-1237 -1458 0
-1238 -1459 0
-1239 -1462 0
-1240 -1463 0
-1237 -1475 0
-1238 -1476 0
-1240 -1479 0
-1237 -1489 0
-1239 -1491 0
-1240 -1492 0
-1236 -1501 0
-1238 -1503 0
-1239 -1506 0
-1240 -1507 0
-1239 -1526 0
-1240 -1527 0
-1235 -1528 0
-1238 -1531 0
-1240 -1534 0
-1236 -1537 0
-1238 -1538 0
-1240 -1541 0
-1238 -1552 0
-1240 -1554 0
-1235 -1555 0
-1239 -1560 0
-1240 -1561 0
-1236 -1564 0
-1239 -1567 0
-1240 -1568 0
-1235 -1585 0
-1240 -1590 0
-1238 -1600 0
-1240 -1602 0
-1239 -1614 0
-1240 -1615 0
-1236 -1624 0
-1237 -1626 0
-1238 -1627 0
-1239 -1628 0
-1240 -1629 0
-1235 -1642 0
-1237 -1644 0
-1238 -1645 0
-1240 -1647 0
-1236 -1650 0
-1237 -1651 0
-1238 -1652 0
-1240 -1653 0
-1236 -1661 0
-1237 -1663 0
-1238 -1664 0
-1239 -1667 0
-1240 -1668 0
-1237 -1677 0
-1238 -1678 0
-1240 -1681 0
-1236 -1696 0
-1238 -1698 0
-1239 -1699 0
-1240 -1700 0
-1235 -1701 0
-1236 -1703 0
-1238 -1705 0
-1240 -1707 0
-1236 -1718 0
-1240 -1722 0
-1235 -1723 0
-1236 -1724 0
-1238 -1726 0
-1239 -1728 0
-1240 -1729 0
-1235 -1742 0
-1238 -1744 0
-1240 -1747 0
-1238 -1763 0
-1239 -1766 0
-1240 -1767 0
-1236 -1808 0
-1240 -1812 0
-1236 -1820 0
-1238 -1821 0
-1239 -1824 0
-1240 -1825 0
-1237 -1847 0
-1238 -1848 0
-1239 -1849 0
-1240 -1850 0
-1237 -1861 0
-1238 -1862 0
-1239 -1863 0
-1240 -1864 0
-1237 -1867 0
-1239 -1870 0
-1240 -1871 0
-1235 -1879 0
-1238 -1881 0
-1239 -1883 0
-1240 -1884 0
-1238 -1894 0
-1239 -1897 0
-1240 -1898 0
-1235 -1899 0
-1239 -1903 0
-1240 -1904 0
-1235 -1931 0
-1237 -1933 0
-1238 -1934 0
-1239 -1936 0
-1240 -1937 0
-1235 -1938 0
-1237 -1940 0
-1238 -1941 0
-1239 -1943 0
-1240 -1944 0
-1243 -1275 0
-1244 -1276 0
-1245 -1277 0
-1246 -1278 0
-1241 -1293 0
-1243 -1295 0
-1244 -1296 0
-1245 -1298 0
-1246 -1299 0
-1242 -1300 0
-1243 -1303 0
-1244 -1304 0
-1245 -1305 0
-1246 -1306 0
-1244 -1310 0
-1245 -1312 0
-1246 -1313 0
-1241 -1321 0
-1243 -1323 0
-1244 -1325 0
-1245 -1326 0
-1246 -1327 0
-1243 -1335 0
-1244 -1338 0
-1246 -1340 0
-1242 -1341 0
-1243 -1343 0
-1245 -1345 0
-1246 -1346 0
-1241 -1363 0
-1242 -1364 0
-1243 -1366 0
-1246 -1369 0
-1242 -1370 0
-1245 -1375 0
-1246 -1376 0
-1241 -1377 0
-1245 -1381 0
-1246 -1382 0
-1241 -1397 0
-1243 -1398 0
-1245 -1402 0
-1246 -1403 0
-1243 -1411 0
-1246 -1415 0
-1243 -1443 0
-1244 -1445 0
-1245 -1447 0
-1246 -1448 0
-1242 -1464 0
-1245 -1469 0
-1246 -1470 0
-1242 -1499 0
-1243 -1502 0
-1244 -1504 0
-1245 -1506 0
-1246 -1507 0
-1242 -1522 0
-1244 -1524 0
-1245 -1526 0
-1246 -1527 0
-1241 -1528 0
-1242 -1529 0
-1244 -1532 0
-1246 -1534 0
-1242 -1535 0
-1244 -1539 0
-1246 -1541 0
-1242 -1542 0
-1243 -1544 0
-1244 -1546 0
-1245 -1547 0
-1246 -1548 0
-1242 -1569 0
-1243 -1571 0
-1244 -1573 0
-1246 -1574 0
-1241 -1575 0
-1242 -1576 0
-1243 -1578 0
-1244 -1581 0
-1245 -1583 0
-1246 -1584 0
-1243 -1592 0
-1244 -1594 0
-1246 -1596 0
-1242 -1603 0
-1244 -1606 0
-1245 -1608 0
-1246 -1609 0
-1243 -1611 0
-1244 -1612 0
-1245 -1614 0
-1246 -1615 0
-1243 -1625 0
-1245 -1628 0
-1246 -1629 0
-1241 -1642 0
-1246 -1647 0
-1242 -1648 0
-1246 -1653 0
-1243 -1655 0
-1245 -1658 0
-1246 -1659 0
-1241 -1669 0
-1243 -1671 0
-1245 -1673 0
-1246 -1674 0
-1245 -1686 0
-1246 -1687 0
-1242 -1688 0
-1243 -1690 0
-1244 -1693 0
-1246 -1694 0
-1241 -1708 0
-1242 -1709 0
-1244 -1713 0
-1245 -1715 0
-1246 -1716 0
-1242 -1717 0
-1243 -1719 0
-1244 -1720 0
-1246 -1722 0
-1241 -1723 0
-1243 -1725 0
-1244 -1727 0
-1245 -1728 0
-1246 -1729 0
-1241 -1742 0
-1243 -1743 0
-1244 -1745 0
-1246 -1747 0
-1243 -1755 0
-1244 -1757 0
-1245 -1759 0
-1246 -1760 0
-1243 -1782 0
-1244 -1785 0
-1245 -1786 0
-1246 -1787 0
-1242 -1800 0
-1245 -1805 0
-1246 -1806 0
-1242 -1826 0
-1243 -1827 0
-1245 -1830 0
-1246 -1831 0
-1244 -1841 0
-1245 -1843 0
-1246 -1844 0
-1242 -1845 0
-1245 -1849 0
-1246 -1850 0
-1242 -1858 0
-1243 -1860 0
-1245 -1863 0
-1246 -1864 0
-1242 -1872 0
-1244 -1875 0
-1245 -1876 0
-1246 -1877 0
-1241 -1885 0
-1242 -1886 0
-1243 -1887 0
-1244 -1889 0
-1246 -1891 0
-1242 -1892 0
-1243 -1893 0
-1244 -1895 0
-1245 -1897 0
-1246 -1898 0
-1241 -1899 0
-1242 -1900 0
-1243 -1901 0
-1244 -1902 0
-1245 -1903 0
-1246 -1904 0
-1242 -1918 0
-1244 -1921 0
-1246 -1923 0
-1242 -1924 0
-1245 -1929 0
-1246 -1930 0
-1241 -1938 0
-1243 -1939 0
-1245 -1943 0
-1246 -1944 0
-1242 -1952 0
-1243 -1953 0
-1244 -1955 0
-1245 -1957 0
-1246 -1958 0
-1249 -1282 0
-1250 -1283 0
-1252 -1284 0
-1253 -1285 0
-1248 -1286 0
-1249 -1289 0
-1251 -1290 0
-1252 -1291 0
-1253 -1292 0
-1247 -1293 0
-1251 -1296 0
-1252 -1298 0
-1253 -1299 0
-1248 -1300 0
-1251 -1304 0
-1252 -1305 0
-1253 -1306 0
-1251 -1330 0
-1252 -1332 0
-1253 -1333 0
-1248 -1341 0
-1250 -1344 0
-1252 -1345 0
-1253 -1346 0
-1247 -1354 0
-1248 -1355 0
-1249 -1358 0
-1251 -1359 0
-1252 -1361 0
-1253 -1362 0
-1248 -1370 0
-1249 -1372 0
-1250 -1373 0
-1252 -1375 0
-1253 -1376 0
-1247 -1383 0
-1250 -1386 0
-1251 -1387 0
-1252 -1388 0
-1253 -1389 0
-1247 -1390 0
-1248 -1391 0
-1249 -1392 0
-1250 -1393 0
-1251 -1394 0
-1252 -1395 0
-1253 -1396 0
-1247 -1397 0
-1249 -1399 0
-1250 -1400 0
-1252 -1402 0
-1253 -1403 0
-1250 -1405 0
-1251 -1406 0
-1252 -1408 0
-1253 -1409 0
-1249 -1436 0
-1250 -1437 0
-1251 -1438 0
-1252 -1439 0
-1253 -1440 0
-1249 -1444 0
-1251 -1445 0
-1252 -1447 0
-1253 -1448 0
-1247 -1449 0
-1250 -1452 0
-1251 -1453 0
-1252 -1454 0
-1253 -1455 0
-1248 -1471 0
-1249 -1475 0
-1250 -1476 0
-1251 -1477 0
-1253 -1479 0
-1248 -1508 0
-1249 -1511 0
-1251 -1512 0
-1253 -1514 0
-1248 -1515 0
-1249 -1518 0
-1250 -1519 0
-1253 -1521 0
-1247 -1528 0
-1248 -1529 0
-1250 -1531 0
-1251 -1532 0
-1253 -1534 0
-1248 -1535 0
-1250 -1538 0
-1251 -1539 0
-1253 -1541 0
-1248 -1549 0
-1250 -1552 0
-1251 -1553 0
-1253 -1554 0
-1248 -1569 0
-1249 -1572 0
-1251 -1573 0
-1253 -1574 0
-1247 -1585 0
-1248 -1586 0
-1251 -1588 0
-1253 -1590 0
-1249 -1593 0
-1251 -1594 0
-1253 -1596 0
-1248 -1597 0
-1250 -1600 0
-1253 -1602 0
-1249 -1618 0
-1250 -1619 0
-1251 -1620 0
-1253 -1622 0
-1249 -1632 0
-1250 -1633 0
-1251 -1634 0
-1253 -1635 0
-1248 -1636 0
-1250 -1639 0
-1251 -1640 0
-1253 -1641 0
-1247 -1642 0
-1249 -1644 0
-1250 -1645 0
-1253 -1647 0
-1248 -1648 0
-1249 -1651 0
-1250 -1652 0
-1253 -1653 0
-1249 -1677 0
-1250 -1678 0
-1251 -1679 0
-1253 -1681 0
-1248 -1688 0
-1249 -1691 0
-1250 -1692 0
-1251 -1693 0
-1253 -1694 0
-1247 -1701 0
-1248 -1702 0
-1250 -1705 0
-1253 -1707 0
-1248 -1717 0
-1251 -1720 0
-1253 -1722 0
-1247 -1730 0
-1249 -1733 0
-1251 -1734 0
-1253 -1735 0
-1247 -1736 0
-1248 -1737 0
-1249 -1739 0
-1250 -1740 0
-1253 -1741 0
-1247 -1742 0
-1250 -1744 0
-1251 -1745 0
-1253 -1747 0
-1249 -1750 0
-1250 -1751 0
-1253 -1753 0
-1248 -1807 0
-1251 -1810 0
-1253 -1812 0
-1248 -1851 0
-1249 -1854 0
-1251 -1855 0
-1252 -1856 0
-1253 -1857 0
-1248 -1858 0
-1249 -1861 0
-1250 -1862 0
-1252 -1863 0
-1253 -1864 0
-1248 -1872 0
-1249 -1874 0
-1251 -1875 0
-1252 -1876 0
-1253 -1877 0
-1247 -1879 0
-1248 -1880 0
-1250 -1881 0
-1252 -1883 0
-1253 -1884 0
-1248 -1892 0
-1250 -1894 0
-1251 -1895 0
-1252 -1897 0
-1253 -1898 0
-1247 -1905 0
-1248 -1906 0
-1249 -1907 0
-1250 -1908 0
-1251 -1909 0
-1252 -1910 0
-1253 -1911 0
-1248 -1912 0
-1249 -1914 0
-1252 -1916 0
-1253 -1917 0
-1248 -1924 0
-1249 -1926 0
-1250 -1927 0
-1252 -1929 0
-1253 -1930 0
-1247 -1931 0
-1248 -1932 0
-1249 -1933 0
-1250 -1934 0
-1251 -1935 0
-1252 -1936 0
-1253 -1937 0
-1249 -1946 0
-1250 -1947 0
-1251 -1948 0
-1252 -1949 0
-1253 -1950 0
-1256 -1276 0
-1258 -1277 0
-1259 -1278 0
-1255 -1282 0
-1258 -1284 0
-1259 -1285 0
-1255 -1289 0
-1256 -1290 0
-1258 -1291 0
-1259 -1292 0
-1256 -1304 0
-1258 -1305 0
-1259 -1306 0
-1254 -1321 0
-1255 -1324 0
-1256 -1325 0
-1258 -1326 0
-1259 -1327 0
-1258 -1345 0
-1259 -1346 0
-1255 -1350 0
-1256 -1352 0
-1259 -1353 0
-1254 -1377 0
-1255 -1379 0
-1258 -1381 0
-1259 -1382 0
-1254 -1383 0
-1256 -1387 0
-1258 -1388 0
-1259 -1389 0
-1254 -1390 0
-1255 -1392 0
-1256 -1394 0
-1258 -1395 0
-1259 -1396 0
-1255 -1436 0
-1256 -1438 0
-1258 -1439 0
-1259 -1440 0
-1255 -1444 0
-1256 -1445 0
-1257 -1446 0
-1258 -1447 0
-1259 -1448 0
-1255 -1458 0
-1256 -1460 0
-1257 -1461 0
-1258 -1462 0
-1259 -1463 0
-1257 -1468 0
-1258 -1469 0
-1259 -1470 0
-1255 -1475 0
-1256 -1477 0
-1257 -1478 0
-1259 -1479 0
-1256 -1504 0
-1257 -1505 0
-1258 -1506 0
-1259 -1507 0
-1255 -1511 0
-1256 -1512 0
-1257 -1513 0
-1259 -1514 0
-1255 -1518 0
-1257 -1520 0
-1259 -1521 0
-1256 -1524 0
-1257 -1525 0
-1258 -1526 0
-1259 -1527 0
-1256 -1539 0
-1257 -1540 0
-1259 -1541 0
-1254 -1555 0
-1256 -1558 0
-1257 -1559 0
-1258 -1560 0
-1259 -1561 0
-1254 -1575 0
-1255 -1579 0
-1256 -1581 0
-1257 -1582 0
-1258 -1583 0
-1259 -1584 0
-1254 -1585 0
-1256 -1588 0
-1257 -1589 0
-1259 -1590 0
-1256 -1612 0
-1257 -1613 0
-1258 -1614 0
-1259 -1615 0
-1255 -1618 0
-1256 -1620 0
-1257 -1621 0
-1259 -1622 0
-1255 -1626 0
-1258 -1628 0
-1259 -1629 0
-1255 -1632 0
-1256 -1634 0
-1259 -1635 0
-1256 -1640 0
-1259 -1641 0
-1255 -1651 0
-1259 -1653 0
-1254 -1669 0
-1258 -1673 0
-1259 -1674 0
-1255 -1691 0
-1256 -1693 0
-1259 -1694 0
-1258 -1699 0
-1259 -1700 0
-1254 -1723 0
-1256 -1727 0
-1258 -1728 0
-1259 -1729 0
-1254 -1730 0
-1255 -1733 0
-1256 -1734 0
-1259 -1735 0
-1254 -1736 0
-1255 -1739 0
-1259 -1741 0
-1255 -1783 0
-1256 -1785 0
-1258 -1786 0
-1259 -1787 0
-1257 -1791 0
-1258 -1792 0
-1259 -1793 0
-1255 -1802 0
-1257 -1804 0
-1258 -1805 0
-1259 -1806 0
-1256 -1810 0
-1257 -1811 0
-1259 -1812 0
-1254 -1832 0
-1255 -1833 0
-1256 -1834 0
-1257 -1835 0
-1258 -1836 0
-1259 -1837 0
-1256 -1841 0
-1257 -1842 0
-1258 -1843 0
-1259 -1844 0
-1255 -1847 0
-1258 -1849 0
-1259 -1850 0
-1255 -1854 0
-1256 -1855 0
-1258 -1856 0
-1259 -1857 0
-1255 -1861 0
-1258 -1863 0
-1259 -1864 0
-1255 -1874 0
-1256 -1875 0
-1258 -1876 0
-1259 -1877 0
-1254 -1899 0
-1256 -1902 0
-1258 -1903 0
-1259 -1904 0
-1254 -1905 0
-1255 -1907 0
-1256 -1909 0
-1258 -1910 0
-1259 -1911 0
-1255 -1926 0
-1257 -1928 0
-1258 -1929 0
-1259 -1930 0
-1254 -1938 0
-1255 -1940 0
-1257 -1942 0
-1258 -1943 0
-1259 -1944 0
-1256 -1955 0
-1257 -1956 0
-1258 -1957 0
-1259 -1958 0
-1261 -1275 0
-1263 -1276 0
-1265 -1278 0
-1261 -1288 0
-1263 -1290 0
-1265 -1292 0
-1261 -1316 0
-1262 -1317 0
-1264 -1318 0
-1265 -1320 0
-1260 -1321 0
-1261 -1323 0
-1263 -1325 0
-1265 -1327 0
-1261 -1329 0
-1263 -1330 0
-1264 -1331 0
-1265 -1333 0
-1261 -1343 0
-1262 -1344 0
-1265 -1346 0
-1261 -1349 0
-1262 -1351 0
-1263 -1352 0
-1265 -1353 0
-1260 -1354 0
-1261 -1357 0
-1263 -1359 0
-1264 -1360 0
-1265 -1362 0
-1260 -1383 0
-1261 -1385 0
-1262 -1386 0
-1263 -1387 0
-1265 -1389 0
-1260 -1397 0
-1261 -1398 0
-1262 -1400 0
-1264 -1401 0
-1265 -1403 0
-1261 -1411 0
-1262 -1413 0
-1264 -1414 0
-1265 -1415 0
-1261 -1423 0
-1262 -1424 0
-1263 -1425 0
-1264 -1426 0
-1265 -1428 0
-1260 -1429 0
-1261 -1430 0
-1262 -1431 0
-1263 -1432 0
-1264 -1433 0
-1265 -1434 0
-1261 -1443 0
-1263 -1445 0
-1264 -1446 0
-1265 -1448 0
-1260 -1449 0
-1261 -1451 0
-1262 -1452 0
-1263 -1453 0
-1265 -1455 0
-1261 -1482 0
-1262 -1483 0
-1263 -1484 0
-1265 -1486 0
-1261 -1502 0
-1262 -1503 0
-1263 -1504 0
-1264 -1505 0
-1265 -1507 0
-1261 -1517 0
-1262 -1519 0
-1264 -1520 0
-1265 -1521 0
-1261 -1551 0
-1262 -1552 0
-1263 -1553 0
-1265 -1554 0
-1260 -1555 0
-1261 -1557 0
-1263 -1558 0
-1264 -1559 0
-1265 -1561 0
-1261 -1565 0
-1263 -1566 0
-1265 -1568 0
-1261 -1571 0
-1263 -1573 0
-1265 -1574 0
-1260 -1575 0
-1261 -1578 0
-1262 -1580 0
-1263 -1581 0
-1264 -1582 0
-1265 -1584 0
-1261 -1592 0
-1263 -1594 0
-1264 -1595 0
-1265 -1596 0
-1261 -1599 0
-1262 -1600 0
-1264 -1601 0
-1265 -1602 0
-1261 -1617 0
-1262 -1619 0
-1263 -1620 0
-1264 -1621 0
-1265 -1622 0
-1261 -1625 0
-1262 -1627 0
-1265 -1629 0
-1261 -1638 0
-1262 -1639 0
-1263 -1640 0
-1265 -1641 0
-1261 -1662 0
-1262 -1664 0
-1263 -1665 0
-1264 -1666 0
-1265 -1668 0
-1260 -1669 0
-1261 -1671 0
-1262 -1672 0
-1265 -1674 0
-1261 -1676 0
-1262 -1678 0
-1263 -1679 0
-1264 -1680 0
-1265 -1681 0
-1261 -1690 0
-1262 -1692 0
-1263 -1693 0
-1265 -1694 0
-1261 -1697 0
-1262 -1698 0
-1265 -1700 0
-1260 -1701 0
-1261 -1704 0
-1262 -1705 0
-1264 -1706 0
-1265 -1707 0
-1260 -1730 0
-1261 -1732 0
-1263 -1734 0
-1265 -1735 0
-1260 -1742 0
-1261 -1743 0
-1262 -1744 0
-1263 -1745 0
-1264 -1746 0
-1265 -1747 0
-1261 -1755 0
-1263 -1757 0
-1264 -1758 0
-1265 -1760 0
-1261 -1769 0
-1264 -1771 0
-1265 -1773 0
-1260 -1774 0
-1261 -1775 0
-1262 -1777 0
-1264 -1778 0
-1265 -1780 0
-1261 -1814 0
-1263 -1816 0
-1264 -1817 0
-1265 -1819 0
-1261 -1827 0
-1264 -1829 0
-1265 -1831 0
-1262 -1848 0
-1265 -1850 0
-1263 -1868 0
-1264 -1869 0
-1265 -1871 0
-1263 -1875 0
-1265 -1877 0
-1260 -1879 0
-1262 -1881 0
-1264 -1882 0
-1265 -1884 0
-1260 -1905 0
-1262 -1908 0
-1263 -1909 0
-1265 -1911 0
-1262 -1920 0
-1263 -1921 0
-1264 -1922 0
-1265 -1923 0
-1262 -1927 0
-1264 -1928 0
-1265 -1930 0
-1260 -1931 0
-1262 -1934 0
-1263 -1935 0
-1265 -1937 0
-1267 -1281 0
-1268 -1282 0
-1269 -1283 0
-1271 -1284 0
-1272 -1285 0
-1268 -1308 0
-1269 -1309 0
-1270 -1311 0
-1271 -1312 0
-1272 -1313 0
-1267 -1316 0
-1269 -1317 0
-1270 -1318 0
-1271 -1319 0
-1272 -1320 0
-1267 -1335 0
-1268 -1336 0
-1269 -1337 0
-1270 -1339 0
-1272 -1340 0
-1267 -1343 0
-1269 -1344 0
-1271 -1345 0
-1272 -1346 0
-1267 -1349 0
-1268 -1350 0
-1269 -1351 0
-1272 -1353 0
-1266 -1363 0
-1267 -1366 0
-1269 -1367 0
-1270 -1368 0
-1272 -1369 0
-1266 -1377 0
-1268 -1379 0
-1269 -1380 0
-1271 -1381 0
-1272 -1382 0
-1266 -1390 0
-1268 -1392 0
-1269 -1393 0
-1271 -1395 0
-1272 -1396 0
-1266 -1397 0
-1267 -1398 0
-1268 -1399 0
-1269 -1400 0
-1270 -1401 0
-1271 -1402 0
-1272 -1403 0
-1269 -1405 0
-1270 -1407 0
-1271 -1408 0
-1272 -1409 0
-1268 -1417 0
-1269 -1418 0
-1270 -1420 0
-1272 -1421 0
-1266 -1429 0
-1267 -1430 0
-1269 -1431 0
-1270 -1433 0
-1272 -1434 0
-1267 -1443 0
-1268 -1444 0
-1270 -1446 0
-1271 -1447 0
-1272 -1448 0
-1268 -1489 0
-1271 -1491 0
-1272 -1492 0
-1268 -1511 0
-1270 -1513 0
-1272 -1514 0
-1270 -1525 0
-1271 -1526 0
-1272 -1527 0
-1267 -1544 0
-1268 -1545 0
-1271 -1547 0
-1272 -1548 0
-1266 -1555 0
-1267 -1557 0
-1270 -1559 0
-1271 -1560 0
-1272 -1561 0
-1267 -1565 0
-1271 -1567 0
-1272 -1568 0
-1267 -1571 0
-1268 -1572 0
-1272 -1574 0
-1266 -1585 0
-1270 -1589 0
-1272 -1590 0
-1267 -1592 0
-1268 -1593 0
-1270 -1595 0
-1272 -1596 0
-1268 -1605 0
-1270 -1607 0
-1271 -1608 0
-1272 -1609 0
-1267 -1611 0
-1270 -1613 0
-1271 -1614 0
-1272 -1615 0
-1268 -1632 0
-1269 -1633 0
-1272 -1635 0
-1267 -1655 0
-1269 -1656 0
-1270 -1657 0
-1271 -1658 0
-1272 -1659 0
-1267 -1662 0
-1268 -1663 0
-1269 -1664 0
-1270 -1666 0
-1271 -1667 0
-1272 -1668 0
-1268 -1683 0
-1269 -1684 0
-1270 -1685 0
-1271 -1686 0
-1272 -1687 0
-1267 -1690 0
-1268 -1691 0
-1269 -1692 0
-1272 -1694 0
-1267 -1697 0
-1269 -1698 0
-1271 -1699 0
-1272 -1700 0
-1266 -1708 0
-1268 -1711 0
-1269 -1712 0
-1270 -1714 0
-1271 -1715 0
-1272 -1716 0
-1266 -1723 0
-1267 -1725 0
-1269 -1726 0
-1271 -1728 0
-1272 -1729 0
-1266 -1736 0
-1267 -1738 0
-1268 -1739 0
-1269 -1740 0
-1272 -1741 0
-1266 -1742 0
-1267 -1743 0
-1269 -1744 0
-1270 -1746 0
-1272 -1747 0
-1267 -1749 0
-1268 -1750 0
-1269 -1751 0
-1270 -1752 0
-1272 -1753 0
-1267 -1762 0
-1269 -1763 0
-1270 -1765 0
-1271 -1766 0
-1272 -1767 0
-1266 -1774 0
-1267 -1775 0
-1268 -1776 0
-1269 -1777 0
-1270 -1778 0
-1271 -1779 0
-1272 -1780 0
-1269 -1821 0
-1270 -1823 0
-1271 -1824 0
-1272 -1825 0
-1267 -1853 0
-1268 -1854 0
-1271 -1856 0
-1272 -1857 0
-1268 -1867 0
-1270 -1869 0
-1271 -1870 0
-1272 -1871 0
-1268 -1874 0
-1271 -1876 0
-1272 -1877 0
-1266 -1885 0
-1267 -1887 0
-1268 -1888 0
-1270 -1890 0
-1272 -1891 0
-1266 -1899 0
-1267 -1901 0
-1271 -1903 0
-1272 -1904 0
-1267 -1913 0
-1268 -1914 0
-1270 -1915 0
-1271 -1916 0
-1272 -1917 0
-1268 -1926 0
-1269 -1927 0
-1270 -1928 0
-1271 -1929 0
-1272 -1930 0
-1266 -1938 0
-1267 -1939 0
-1268 -1940 0
-1269 -1941 0
-1270 -1942 0
-1271 -1943 0
-1272 -1944 0
-1267 -1945 0
-1268 -1946 0
-1269 -1947 0
-1271 -1949 0
-1272 -1950 0
-1275 -1423 0
-1276 -1425 0
-1277 -1427 0
-1278 -1428 0
-1273 -1472 0
-1275 -1474 0
-1276 -1477 0
-1278 -1479 0
-1273 -1487 0
-1276 -1490 0
-1277 -1491 0
-1278 -1492 0
-1276 -1496 0
-1277 -1497 0
-1278 -1498 0
-1273 -1509 0
-1274 -1510 0
-1276 -1512 0
-1278 -1514 0
-1273 -1516 0
-1275 -1517 0
-1278 -1521 0
-1273 -1530 0
-1276 -1532 0
-1278 -1534 0
-1274 -1537 0
-1276 -1539 0
-1278 -1541 0
-1273 -1543 0
-1275 -1544 0
-1276 -1546 0
-1277 -1547 0
-1278 -1548 0
-1273 -1556 0
-1275 -1557 0
-1276 -1558 0
-1277 -1560 0
-1278 -1561 0
-1274 -1564 0
-1275 -1565 0
-1276 -1566 0
-1277 -1567 0
-1278 -1568 0
-1275 -1578 0
-1276 -1581 0
-1277 -1583 0
-1278 -1584 0
-1273 -1591 0
-1275 -1592 0
-1276 -1594 0
-1278 -1596 0
-1275 -1599 0
-1278 -1602 0
-1275 -1611 0
-1276 -1612 0
-1277 -1614 0
-1278 -1615 0
-1273 -1630 0
-1274 -1631 0
-1276 -1634 0
-1278 -1635 0
-1273 -1637 0
-1275 -1638 0
-1276 -1640 0
-1278 -1641 0
-1273 -1643 0
-1278 -1647 0
-1274 -1650 0
-1278 -1653 0
-1273 -1654 0
-1275 -1655 0
-1277 -1658 0
-1278 -1659 0
-1274 -1661 0
-1275 -1662 0
-1276 -1665 0
-1277 -1667 0
-1278 -1668 0
-1275 -1671 0
-1277 -1673 0
-1278 -1674 0
-1275 -1676 0
-1276 -1679 0
-1278 -1681 0
-1274 -1689 0
-1275 -1690 0
-1276 -1693 0
-1278 -1694 0
-1274 -1703 0
-1275 -1704 0
-1278 -1707 0
-1274 -1724 0
-1275 -1725 0
-1276 -1727 0
-1277 -1728 0
-1278 -1729 0
-1274 -1748 0
-1275 -1749 0
-1278 -1753 0
-1274 -1808 0
-1275 -1809 0
-1276 -1810 0
-1278 -1812 0
-1274 -1820 0
-1276 -1822 0
-1277 -1824 0
-1278 -1825 0
-1275 -1827 0
-1277 -1830 0
-1278 -1831 0
-1276 -1834 0
-1277 -1836 0
-1278 -1837 0
-1275 -1887 0
-1276 -1889 0
-1278 -1891 0
-1275 -1893 0
-1276 -1895 0
-1277 -1897 0
-1278 -1898 0
-1276 -1909 0
-1277 -1910 0
-1278 -1911 0
-1276 -1921 0
-1278 -1923 0
-1282 -1392 0
-1283 -1393 0
-1284 -1395 0
-1285 -1396 0
-1282 -1417 0
-1283 -1418 0
-1285 -1421 0
-1281 -1435 0
-1282 -1436 0
-1283 -1437 0
-1284 -1439 0
-1285 -1440 0
-1279 -1465 0
-1283 -1467 0
-1284 -1469 0
-1285 -1470 0
-1279 -1480 0
-1281 -1482 0
-1283 -1483 0
-1284 -1485 0
-1285 -1486 0
-1283 -1495 0
-1284 -1497 0
-1285 -1498 0
-1279 -1500 0
-1280 -1501 0
-1281 -1502 0
-1283 -1503 0
-1284 -1506 0
-1285 -1507 0
-1279 -1523 0
-1284 -1526 0
-1285 -1527 0
-1279 -1530 0
-1283 -1531 0
-1285 -1534 0
-1280 -1537 0
-1283 -1538 0
-1285 -1541 0
-1279 -1550 0
-1281 -1551 0
-1283 -1552 0
-1285 -1554 0
-1279 -1556 0
-1281 -1557 0
-1284 -1560 0
-1285 -1561 0
-1280 -1564 0
-1281 -1565 0
-1284 -1567 0
-1285 -1568 0
-1285 -1590 0
-1279 -1591 0
-1281 -1592 0
-1282 -1593 0
-1285 -1596 0
-1282 -1605 0
-1284 -1608 0
-1285 -1609 0
-1281 -1617 0
-1282 -1618 0
-1283 -1619 0
-1285 -1622 0
-1279 -1623 0
-1280 -1624 0
-1281 -1625 0
-1282 -1626 0
-1283 -1627 0
-1284 -1628 0
-1285 -1629 0
-1279 -1643 0
-1282 -1644 0
-1283 -1645 0
-1285 -1647 0
-1280 -1650 0
-1282 -1651 0
-1283 -1652 0
-1285 -1653 0
-1280 -1661 0
-1281 -1662 0
-1282 -1663 0
-1283 -1664 0
-1284 -1667 0
-1285 -1668 0
-1282 -1683 0
-1283 -1684 0
-1284 -1686 0
-1285 -1687 0
-1280 -1689 0
-1281 -1690 0
-1282 -1691 0
-1283 -1692 0
-1285 -1694 0
-1280 -1710 0
-1282 -1711 0
-1283 -1712 0
-1284 -1715 0
-1285 -1716 0
-1280 -1731 0
-1281 -1732 0
-1282 -1733 0
-1285 -1735 0
-1280 -1754 0
-1281 -1755 0
-1282 -1756 0
-1284 -1759 0
-1285 -1760 0
-1282 -1795 0
-1283 -1796 0
-1284 -1798 0
-1285 -1799 0
-1280 -1801 0
-1282 -1802 0
-1283 -1803 0
-1284 -1805 0
-1285 -1806 0
-1280 -1813 0
-1281 -1814 0
-1282 -1815 0
-1284 -1818 0
-1285 -1819 0
-1282 -1833 0
-1284 -1836 0
-1285 -1837 0
-1280 -1839 0
-1283 -1840 0
-1284 -1843 0
-1285 -1844 0
-1283 -1881 0
-1284 -1883 0
-1285 -1884 0
-1281 -1893 0
-1283 -1894 0
-1284 -1897 0
-1285 -1898 0
-1281 -1901 0
-1284 -1903 0
-1285 -1904 0
-1281 -1913 0
-1282 -1914 0
-1284 -1916 0
-1285 -1917 0
-1282 -1933 0
-1283 -1934 0
-1284 -1936 0
-1285 -1937 0
-1281 -1939 0
-1282 -1940 0
-1283 -1941 0
-1284 -1943 0
-1285 -1944 0
-1281 -1945 0
-1282 -1946 0
-1283 -1947 0
-1284 -1949 0
-1285 -1950 0
-1288 -1385 0
-1290 -1387 0
-1291 -1388 0
-1292 -1389 0
-1288 -1411 0
-1289 -1412 0
-1292 -1415 0
-1287 -1457 0
-1289 -1458 0
-1290 -1460 0
-1291 -1462 0
-1292 -1463 0
-1286 -1471 0
-1287 -1472 0
-1288 -1474 0
-1289 -1475 0
-1290 -1477 0
-1292 -1479 0
-1287 -1480 0
-1288 -1482 0
-1290 -1484 0
-1291 -1485 0
-1292 -1486 0
-1286 -1493 0
-1290 -1496 0
-1291 -1497 0
-1292 -1498 0
-1286 -1499 0
-1287 -1500 0
-1288 -1502 0
-1290 -1504 0
-1291 -1506 0
-1292 -1507 0
-1286 -1522 0
-1287 -1523 0
-1290 -1524 0
-1291 -1526 0
-1292 -1527 0
-1286 -1529 0
-1287 -1530 0
-1290 -1532 0
-1292 -1534 0
-1286 -1535 0
-1290 -1539 0
-1292 -1541 0
-1286 -1542 0
-1287 -1543 0
-1288 -1544 0
-1289 -1545 0
-1290 -1546 0
-1291 -1547 0
-1292 -1548 0
-1286 -1569 0
-1288 -1571 0
-1289 -1572 0
-1290 -1573 0
-1292 -1574 0
-1286 -1576 0
-1288 -1578 0
-1289 -1579 0
-1290 -1581 0
-1291 -1583 0
-1292 -1584 0
-1286 -1597 0
-1288 -1599 0
-1292 -1602 0
-1287 -1623 0
-1288 -1625 0
-1289 -1626 0
-1291 -1628 0
-1292 -1629 0
-1287 -1643 0
-1289 -1644 0
-1292 -1647 0
-1286 -1648 0
-1289 -1651 0
-1292 -1653 0
-1287 -1654 0
-1288 -1655 0
-1291 -1658 0
-1292 -1659 0
-1288 -1671 0
-1291 -1673 0
-1292 -1674 0
-1288 -1676 0
-1289 -1677 0
-1290 -1679 0
-1292 -1681 0
-1286 -1695 0
-1288 -1697 0
-1291 -1699 0
-1292 -1700 0
-1286 -1702 0
-1288 -1704 0
-1292 -1707 0
-1286 -1737 0
-1288 -1738 0
-1289 -1739 0
-1292 -1741 0
-1286 -1761 0
-1288 -1762 0
-1290 -1764 0
-1291 -1766 0
-1292 -1767 0
-1286 -1807 0
-1288 -1809 0
-1290 -1810 0
-1292 -1812 0
-1288 -1814 0
-1289 -1815 0
-1290 -1816 0
-1291 -1818 0
-1292 -1819 0
-1289 -1833 0
-1290 -1834 0
-1291 -1836 0
-1292 -1837 0
-1286 -1851 0
-1287 -1852 0
-1288 -1853 0
-1289 -1854 0
-1290 -1855 0
-1291 -1856 0
-1292 -1857 0
-1286 -1865 0
-1289 -1867 0
-1290 -1868 0
-1291 -1870 0
-1292 -1871 0
-1286 -1872 0
-1289 -1874 0
-1290 -1875 0
-1291 -1876 0
-1292 -1877 0
-1286 -1886 0
-1288 -1887 0
-1289 -1888 0
-1290 -1889 0
-1292 -1891 0
-1286 -1892 0
-1288 -1893 0
-1290 -1895 0
-1291 -1897 0
-1292 -1898 0
-1286 -1900 0
-1288 -1901 0
-1290 -1902 0
-1291 -1903 0
-1292 -1904 0
-1286 -1912 0
-1288 -1913 0
-1289 -1914 0
-1291 -1916 0
-1292 -1917 0
-1286 -1924 0
-1289 -1926 0
-1291 -1929 0
-1292 -1930 0
-1288 -1939 0
-1289 -1940 0
-1291 -1943 0
-1292 -1944 0
-1288 -1945 0
-1289 -1946 0
-1290 -1948 0
-1291 -1949 0
-1292 -1950 0
-1297 -1374 0
-1298 -1375 0
-1299 -1376 0
-1295 -1435 0
-1296 -1438 0
-1298 -1439 0
-1299 -1440 0
-1294 -1480 0
-1295 -1482 0
-1296 -1484 0
-1298 -1485 0
-1299 -1486 0
-1294 -1487 0
-1296 -1490 0
-1298 -1491 0
-1299 -1492 0
-1296 -1496 0
-1298 -1497 0
-1299 -1498 0
-1294 -1500 0
-1295 -1502 0
-1296 -1504 0
-1297 -1505 0
-1298 -1506 0
-1299 -1507 0
-1294 -1509 0
-1296 -1512 0
-1297 -1513 0
-1299 -1514 0
-1294 -1516 0
-1295 -1517 0
-1297 -1520 0
-1299 -1521 0
-1294 -1523 0
-1296 -1524 0
-1297 -1525 0
-1298 -1526 0
-1299 -1527 0
-1296 -1539 0
-1297 -1540 0
-1299 -1541 0
-1293 -1555 0
-1294 -1556 0
-1295 -1557 0
-1296 -1558 0
-1297 -1559 0
-1298 -1560 0
-1299 -1561 0
-1293 -1575 0
-1295 -1578 0
-1296 -1581 0
-1297 -1582 0
-1298 -1583 0
-1299 -1584 0
-1293 -1585 0
-1296 -1588 0
-1297 -1589 0
-1299 -1590 0
-1294 -1591 0
-1295 -1592 0
-1296 -1594 0
-1297 -1595 0
-1299 -1596 0
-1295 -1599 0
-1297 -1601 0
-1299 -1602 0
-1296 -1606 0
-1297 -1607 0
-1298 -1608 0
-1299 -1609 0
-1294 -1623 0
-1295 -1625 0
-1298 -1628 0
-1299 -1629 0
-1294 -1630 0
-1296 -1634 0
-1299 -1635 0
-1294 -1637 0
-1295 -1638 0
-1296 -1640 0
-1299 -1641 0
-1299 -1653 0
-1293 -1669 0
-1295 -1671 0
-1298 -1673 0
-1299 -1674 0
-1295 -1676 0
-1296 -1679 0
-1297 -1680 0
-1299 -1681 0
-1297 -1685 0
-1298 -1686 0
-1299 -1687 0
-1293 -1701 0
-1295 -1704 0
-1297 -1706 0
-1299 -1707 0
-1293 -1708 0
-1296 -1713 0
-1297 -1714 0
-1298 -1715 0
-1299 -1716 0
-1293 -1742 0
-1295 -1743 0
-1296 -1745 0
-1297 -1746 0
-1299 -1747 0
-1293 -1774 0
-1295 -1775 0
-1297 -1778 0
-1298 -1779 0
-1299 -1780 0
-1295 -1814 0
-1296 -1816 0
-1297 -1817 0
-1298 -1818 0
-1299 -1819 0
-1296 -1822 0
-1297 -1823 0
-1298 -1824 0
-1299 -1825 0
-1295 -1827 0
-1297 -1829 0
-1298 -1830 0
-1299 -1831 0
-1296 -1868 0
-1297 -1869 0
-1298 -1870 0
-1299 -1871 0
-1296 -1875 0
-1298 -1876 0
-1299 -1877 0
-1293 -1899 0
-1295 -1901 0
-1296 -1902 0
-1298 -1903 0
-1299 -1904 0
-1293 -1905 0
-1296 -1909 0
-1298 -1910 0
-1299 -1911 0
-1295 -1913 0
-1297 -1915 0
-1298 -1916 0
-1299 -1917 0
-1296 -1921 0
-1297 -1922 0
-1299 -1923 0
-1297 -1928 0
-1298 -1929 0
-1299 -1930 0
-1293 -1938 0
-1295 -1939 0
-1297 -1942 0
-1298 -1943 0
-1299 -1944 0
-1295 -1945 0
-1296 -1948 0
-1298 -1949 0
-1299 -1950 0
-1303 -1435 0
-1304 -1438 0
-1305 -1439 0
-1306 -1440 0
-1304 -1460 0
-1305 -1462 0
-1306 -1463 0
-1301 -1481 0
-1303 -1482 0
-1304 -1484 0
-1305 -1485 0
-1306 -1486 0
-1301 -1488 0
-1304 -1490 0
-1305 -1491 0
-1306 -1492 0
-1300 -1499 0
-1302 -1501 0
-1303 -1502 0
-1304 -1504 0
-1305 -1506 0
-1306 -1507 0
-1300 -1508 0
-1302 -1510 0
-1304 -1512 0
-1306 -1514 0
-1300 -1515 0
-1303 -1517 0
-1306 -1521 0
-1300 -1522 0
-1304 -1524 0
-1305 -1526 0
-1306 -1527 0
-1300 -1529 0
-1304 -1532 0
-1306 -1534 0
-1300 -1562 0
-1301 -1563 0
-1302 -1564 0
-1303 -1565 0
-1304 -1566 0
-1305 -1567 0
-1306 -1568 0
-1300 -1569 0
-1301 -1570 0
-1303 -1571 0
-1304 -1573 0
-1306 -1574 0
-1300 -1576 0
-1301 -1577 0
-1303 -1578 0
-1304 -1581 0
-1305 -1583 0
-1306 -1584 0
-1300 -1586 0
-1301 -1587 0
-1304 -1588 0
-1306 -1590 0
-1300 -1597 0
-1301 -1598 0
-1303 -1599 0
-1306 -1602 0
-1300 -1603 0
-1301 -1604 0
-1304 -1606 0
-1305 -1608 0
-1306 -1609 0
-1302 -1624 0
-1303 -1625 0
-1305 -1628 0
-1306 -1629 0
-1302 -1631 0
-1304 -1634 0
-1306 -1635 0
-1300 -1636 0
-1303 -1638 0
-1304 -1640 0
-1306 -1641 0
-1306 -1647 0
-1301 -1660 0
-1302 -1661 0
-1303 -1662 0
-1304 -1665 0
-1305 -1667 0
-1306 -1668 0
-1301 -1670 0
-1303 -1671 0
-1305 -1673 0
-1306 -1674 0
-1301 -1675 0
-1303 -1676 0
-1304 -1679 0
-1306 -1681 0
-1301 -1682 0
-1305 -1686 0
-1306 -1687 0
-1300 -1688 0
-1302 -1689 0
-1303 -1690 0
-1304 -1693 0
-1306 -1694 0
-1300 -1695 0
-1302 -1696 0
-1303 -1697 0
-1305 -1699 0
-1306 -1700 0
-1300 -1702 0
-1302 -1703 0
-1303 -1704 0
-1306 -1707 0
-1300 -1709 0
-1302 -1710 0
-1304 -1713 0
-1305 -1715 0
-1306 -1716 0
-1302 -1813 0
-1303 -1814 0
-1304 -1816 0
-1305 -1818 0
-1306 -1819 0
-1302 -1820 0
-1304 -1822 0
-1305 -1824 0
-1306 -1825 0
-1300 -1826 0
-1303 -1827 0
-1305 -1830 0
-1306 -1831 0
-1304 -1834 0
-1305 -1836 0
-1306 -1837 0
-1300 -1892 0
-1303 -1893 0
-1304 -1895 0
-1305 -1897 0
-1306 -1898 0
-1300 -1900 0
-1303 -1901 0
-1304 -1902 0
-1305 -1903 0
-1306 -1904 0
-1300 -1906 0
-1304 -1909 0
-1305 -1910 0
-1306 -1911 0
-1300 -1912 0
-1303 -1913 0
-1305 -1916 0
-1306 -1917 0
-1300 -1918 0
-1304 -1921 0
-1306 -1923 0
-1303 -1939 0
-1305 -1943 0
-1306 -1944 0
-1303 -1945 0
-1304 -1948 0
-1305 -1949 0
-1306 -1950 0
-1308 -1336 0
-1309 -1337 0
-1310 -1338 0
-1311 -1339 0
-1313 -1340 0
-1309 -1367 0
-1311 -1368 0
-1313 -1369 0
-1308 -1412 0
-1309 -1413 0
-1311 -1414 0
-1313 -1415 0
-1309 -1424 0
-1310 -1425 0
-1311 -1426 0
-1312 -1427 0
-1313 -1428 0
-1309 -1431 0
-1310 -1432 0
-1311 -1433 0
-1313 -1434 0
-1307 -1457 0
-1308 -1458 0
-1309 -1459 0
-1310 -1460 0
-1311 -1461 0
-1312 -1462 0
-1313 -1463 0
-1307 -1465 0
-1309 -1467 0
-1311 -1468 0
-1312 -1469 0
-1313 -1470 0
-1307 -1487 0
-1308 -1489 0
-1310 -1490 0
-1312 -1491 0
-1313 -1492 0
-1309 -1495 0
-1310 -1496 0
-1312 -1497 0
-1313 -1498 0
-1307 -1500 0
-1309 -1503 0
-1310 -1504 0
-1311 -1505 0
-1312 -1506 0
-1313 -1507 0
-1307 -1516 0
-1308 -1518 0
-1309 -1519 0
-1311 -1520 0
-1313 -1521 0
-1307 -1550 0
-1309 -1552 0
-1310 -1553 0
-1313 -1554 0
-1307 -1556 0
-1310 -1558 0
-1311 -1559 0
-1312 -1560 0
-1313 -1561 0
-1310 -1566 0
-1312 -1567 0
-1313 -1568 0
-1308 -1572 0
-1310 -1573 0
-1313 -1574 0
-1308 -1579 0
-1309 -1580 0
-1310 -1581 0
-1311 -1582 0
-1312 -1583 0
-1313 -1584 0
-1310 -1612 0
-1311 -1613 0
-1312 -1614 0
-1313 -1615 0
-1307 -1623 0
-1308 -1626 0
-1309 -1627 0
-1312 -1628 0
-1313 -1629 0
-1307 -1637 0
-1309 -1639 0
-1310 -1640 0
-1313 -1641 0
-1308 -1663 0
-1309 -1664 0
-1310 -1665 0
-1311 -1666 0
-1312 -1667 0
-1313 -1668 0
-1309 -1672 0
-1312 -1673 0
-1313 -1674 0
-1310 -1720 0
-1311 -1721 0
-1313 -1722 0
-1309 -1726 0
-1310 -1727 0
-1312 -1728 0
-1313 -1729 0
-1308 -1739 0
-1309 -1740 0
-1313 -1741 0
-1307 -1788 0
-1309 -1790 0
-1311 -1791 0
-1312 -1792 0
-1313 -1793 0
-1308 -1802 0
-1309 -1803 0
-1311 -1804 0
-1312 -1805 0
-1313 -1806 0
-1309 -1821 0
-1310 -1822 0
-1311 -1823 0
-1312 -1824 0
-1313 -1825 0
-1308 -1833 0
-1310 -1834 0
-1311 -1835 0
-1312 -1836 0
-1313 -1837 0
-1309 -1840 0
-1310 -1841 0
-1311 -1842 0
-1312 -1843 0
-1313 -1844 0
-1307 -1852 0
-1308 -1854 0
-1310 -1855 0
-1312 -1856 0
-1313 -1857 0
-1308 -1861 0
-1309 -1862 0
-1312 -1863 0
-1313 -1864 0
-1308 -1874 0
-1310 -1875 0
-1312 -1876 0
-1313 -1877 0
-1309 -1881 0
-1311 -1882 0
-1312 -1883 0
-1313 -1884 0
-1308 -1907 0
-1309 -1908 0
-1310 -1909 0
-1312 -1910 0
-1313 -1911 0
-1308 -1914 0
-1311 -1915 0
-1312 -1916 0
-1313 -1917 0
-1308 -1926 0
-1309 -1927 0
-1311 -1928 0
-1312 -1929 0
-1313 -1930 0
-1308 -1933 0
-1309 -1934 0
-1310 -1935 0
-1312 -1936 0
-1313 -1937 0
-1308 -1946 0
-1309 -1947 0
-1310 -1948 0
-1312 -1949 0
-1313 -1950 0
-1317 -1418 0
-1318 -1420 0
-1320 -1421 0
-1316 -1423 0
-1317 -1424 0
-1318 -1426 0
-1319 -1427 0
-1320 -1428 0
-1316 -1430 0
-1317 -1431 0
-1318 -1433 0
-1320 -1434 0
-1317 -1459 0
-1318 -1461 0
-1319 -1462 0
-1320 -1463 0
-1314 -1466 0
-1317 -1467 0
-1318 -1468 0
-1319 -1469 0
-1320 -1470 0
-1314 -1473 0
-1316 -1474 0
-1317 -1476 0
-1318 -1478 0
-1320 -1479 0
-1315 -1501 0
-1316 -1502 0
-1317 -1503 0
-1318 -1505 0
-1319 -1506 0
-1320 -1507 0
-1315 -1510 0
-1318 -1513 0
-1320 -1514 0
-1314 -1536 0
-1315 -1537 0
-1317 -1538 0
-1318 -1540 0
-1320 -1541 0
-1316 -1544 0
-1319 -1547 0
-1320 -1548 0
-1316 -1551 0
-1317 -1552 0
-1320 -1554 0
-1316 -1557 0
-1318 -1559 0
-1319 -1560 0
-1320 -1561 0
-1314 -1570 0
-1316 -1571 0
-1320 -1574 0
-1314 -1577 0
-1316 -1578 0
-1317 -1580 0
-1318 -1582 0
-1319 -1583 0
-1320 -1584 0
-1314 -1587 0
-1318 -1589 0
-1320 -1590 0
-1314 -1610 0
-1316 -1611 0
-1318 -1613 0
-1319 -1614 0
-1320 -1615 0
-1314 -1616 0
-1316 -1617 0
-1317 -1619 0
-1318 -1621 0
-1320 -1622 0
-1315 -1624 0
-1316 -1625 0
-1317 -1627 0
-1319 -1628 0
-1320 -1629 0
-1315 -1631 0
-1317 -1633 0
-1320 -1635 0
-1314 -1649 0
-1315 -1650 0
-1317 -1652 0
-1320 -1653 0
-1316 -1655 0
-1317 -1656 0
-1318 -1657 0
-1319 -1658 0
-1320 -1659 0
-1314 -1670 0
-1316 -1671 0
-1317 -1672 0
-1319 -1673 0
-1320 -1674 0
-1315 -1689 0
-1316 -1690 0
-1317 -1692 0
-1320 -1694 0
-1315 -1718 0
-1316 -1719 0
-1318 -1721 0
-1320 -1722 0
-1315 -1724 0
-1316 -1725 0
-1317 -1726 0
-1319 -1728 0
-1320 -1729 0
-1315 -1731 0
-1316 -1732 0
-1320 -1735 0
-1316 -1789 0
-1317 -1790 0
-1318 -1791 0
-1319 -1792 0
-1320 -1793 0
-1315 -1801 0
-1317 -1803 0
-1318 -1804 0
-1319 -1805 0
-1320 -1806 0
-1315 -1808 0
-1316 -1809 0
-1318 -1811 0
-1320 -1812 0
-1316 -1827 0
-1318 -1829 0
-1319 -1830 0
-1320 -1831 0
-1318 -1835 0
-1319 -1836 0
-1320 -1837 0
-1315 -1839 0
-1317 -1840 0
-1318 -1842 0
-1319 -1843 0
-1320 -1844 0
-1317 -1881 0
-1318 -1882 0
-1319 -1883 0
-1320 -1884 0
-1316 -1887 0
-1318 -1890 0
-1320 -1891 0
-1316 -1913 0
-1318 -1915 0
-1319 -1916 0
-1320 -1917 0
-1317 -1920 0
-1318 -1922 0
-1320 -1923 0
-1317 -1934 0
-1319 -1936 0
-1320 -1937 0
-1316 -1945 0
-1317 -1947 0
-1319 -1949 0
-1320 -1950 0
-1323 -1411 0
-1324 -1412 0
-1327 -1415 0
-1323 -1423 0
-1325 -1425 0
-1326 -1427 0
-1327 -1428 0
-1324 -1458 0
-1325 -1460 0
-1326 -1462 0
-1327 -1463 0
-1322 -1473 0
-1323 -1474 0
-1324 -1475 0
-1325 -1477 0
-1327 -1479 0
-1322 -1488 0
-1324 -1489 0
-1325 -1490 0
-1326 -1491 0
-1327 -1492 0
-1323 -1502 0
-1325 -1504 0
-1326 -1506 0
-1327 -1507 0
-1323 -1517 0
-1324 -1518 0
-1327 -1521 0
-1321 -1528 0
-1325 -1532 0
-1327 -1534 0
-1322 -1536 0
-1325 -1539 0
-1327 -1541 0
-1323 -1544 0
-1324 -1545 0
-1325 -1546 0
-1326 -1547 0
-1327 -1548 0
-1321 -1555 0
-1323 -1557 0
-1325 -1558 0
-1326 -1560 0
-1327 -1561 0
-1322 -1563 0
-1323 -1565 0
-1325 -1566 0
-1326 -1567 0
-1327 -1568 0
-1322 -1570 0
-1323 -1571 0
-1324 -1572 0
-1325 -1573 0
-1327 -1574 0
-1321 -1585 0
-1322 -1587 0
-1325 -1588 0
-1327 -1590 0
-1322 -1598 0
-1323 -1599 0
-1327 -1602 0
-1322 -1610 0
-1323 -1611 0
-1325 -1612 0
-1326 -1614 0
-1327 -1615 0
-1323 -1625 0
-1324 -1626 0
-1326 -1628 0
-1327 -1629 0
-1323 -1638 0
-1325 -1640 0
-1327 -1641 0
-1321 -1642 0
-1324 -1644 0
-1327 -1647 0
-1322 -1649 0
-1324 -1651 0
-1327 -1653 0
-1323 -1655 0
-1326 -1658 0
-1327 -1659 0
-1322 -1660 0
-1323 -1662 0
-1324 -1663 0
-1325 -1665 0
-1326 -1667 0
-1327 -1668 0
-1322 -1675 0
-1323 -1676 0
-1324 -1677 0
-1325 -1679 0
-1327 -1681 0
-1321 -1701 0
-1323 -1704 0
-1327 -1707 0
-1321 -1723 0
-1323 -1725 0
-1325 -1727 0
-1326 -1728 0
-1327 -1729 0
-1321 -1736 0
-1323 -1738 0
-1324 -1739 0
-1327 -1741 0
-1321 -1742 0
-1323 -1743 0
-1325 -1745 0
-1327 -1747 0
-1323 -1809 0
-1325 -1810 0
-1327 -1812 0
-1325 -1822 0
-1326 -1824 0
-1327 -1825 0
-1323 -1853 0
-1324 -1854 0
-1325 -1855 0
-1326 -1856 0
-1327 -1857 0
-1324 -1874 0
-1325 -1875 0
-1326 -1876 0
-1327 -1877 0
-1321 -1885 0
-1323 -1887 0
-1324 -1888 0
-1325 -1889 0
-1327 -1891 0
-1323 -1893 0
-1325 -1895 0
-1326 -1897 0
-1327 -1898 0
-1321 -1905 0
-1324 -1907 0
-1325 -1909 0
-1326 -1910 0
-1327 -1911 0
-1323 -1913 0
-1324 -1914 0
-1326 -1916 0
-1327 -1917 0
-1324 -1926 0
-1326 -1929 0
-1327 -1930 0
-1323 -1945 0
-1324 -1946 0
-1325 -1948 0
-1326 -1949 0
-1327 -1950 0
-1331 -1374 0
-1332 -1375 0
-1333 -1376 0
-1329 -1385 0
-1330 -1387 0
-1332 -1388 0
-1333 -1389 0
-1330 -1460 0
-1331 -1461 0
-1332 -1462 0
-1333 -1463 0
-1328 -1473 0
-1329 -1474 0
-1330 -1477 0
-1331 -1478 0
-1333 -1479 0
-1328 -1481 0
-1329 -1482 0
-1330 -1484 0
-1332 -1485 0
-1333 -1486 0
-1328 -1494 0
-1330 -1496 0
-1332 -1497 0
-1333 -1498 0
-1329 -1502 0
-1330 -1504 0
-1331 -1505 0
-1332 -1506 0
-1333 -1507 0
-1329 -1517 0
-1331 -1520 0
-1333 -1521 0
-1330 -1532 0
-1331 -1533 0
-1333 -1534 0
-1328 -1536 0
-1330 -1539 0
-1331 -1540 0
-1333 -1541 0
-1328 -1577 0
-1329 -1578 0
-1330 -1581 0
-1331 -1582 0
-1332 -1583 0
-1333 -1584 0
-1329 -1592 0
-1330 -1594 0
-1331 -1595 0
-1333 -1596 0
-1328 -1604 0
-1330 -1606 0
-1331 -1607 0
-1332 -1608 0
-1333 -1609 0
-1328 -1610 0
-1329 -1611 0
-1330 -1612 0
-1331 -1613 0
-1332 -1614 0
-1333 -1615 0
-1329 -1625 0
-1332 -1628 0
-1333 -1629 0
-1329 -1638 0
-1330 -1640 0
-1333 -1641 0
-1331 -1646 0
-1333 -1647 0
-1328 -1649 0
-1333 -1653 0
-1328 -1670 0
-1329 -1671 0
-1332 -1673 0
-1333 -1674 0
-1328 -1682 0
-1331 -1685 0
-1332 -1686 0
-1333 -1687 0
-1329 -1704 0
-1331 -1706 0
-1333 -1707 0
-1329 -1749 0
-1331 -1752 0
-1333 -1753 0
-1329 -1762 0
-1330 -1764 0
-1331 -1765 0
-1332 -1766 0
-1333 -1767 0
-1329 -1775 0
-1331 -1778 0
-1332 -1779 0
-1333 -1780 0
-1329 -1809 0
-1330 -1810 0
-1331 -1811 0
-1333 -1812 0
-1329 -1814 0
-1330 -1816 0
-1331 -1817 0
-1332 -1818 0
-1333 -1819 0
-1329 -1827 0
-1331 -1829 0
-1332 -1830 0
-1333 -1831 0
-1330 -1834 0
-1331 -1835 0
-1332 -1836 0
-1333 -1837 0
-1329 -1853 0
-1330 -1855 0
-1332 -1856 0
-1333 -1857 0
-1328 -1866 0
-1330 -1868 0
-1331 -1869 0
-1332 -1870 0
-1333 -1871 0
-1330 -1875 0
-1332 -1876 0
-1333 -1877 0
-1329 -1887 0
-1330 -1889 0
-1331 -1890 0
-1333 -1891 0
-1329 -1901 0
-1330 -1902 0
-1332 -1903 0
-1333 -1904 0
-1330 -1921 0
-1331 -1922 0
-1333 -1923 0
-1331 -1928 0
-1332 -1929 0
-1333 -1930 0
-1329 -1939 0
-1331 -1942 0
-1332 -1943 0
-1333 -1944 0
-1336 -1372 0
-1337 -1373 0
-1339 -1374 0
-1340 -1376 0
-1336 -1379 0
-1337 -1380 0
-1340 -1382 0
-1336 -1392 0
-1337 -1393 0
-1338 -1394 0
-1340 -1396 0
-1335 -1435 0
-1336 -1436 0
-1337 -1437 0
-1338 -1438 0
-1340 -1440 0
-1336 -1458 0
-1337 -1459 0
-1338 -1460 0
-1339 -1461 0
-1340 -1463 0
-1334 -1466 0
-1337 -1467 0
-1339 -1468 0
-1340 -1470 0
-1334 -1488 0
-1336 -1489 0
-1338 -1490 0
-1340 -1492 0
-1334 -1494 0
-1337 -1495 0
-1338 -1496 0
-1340 -1498 0
-1336 -1511 0
-1338 -1512 0
-1339 -1513 0
-1340 -1514 0
-1338 -1524 0
-1339 -1525 0
-1340 -1527 0
-1337 -1531 0
-1338 -1532 0
-1339 -1533 0
-1340 -1534 0
-1334 -1536 0
-1337 -1538 0
-1338 -1539 0
-1339 -1540 0
-1340 -1541 0
-1334 -1587 0
-1338 -1588 0
-1339 -1589 0
-1340 -1590 0
-1335 -1592 0
-1336 -1593 0
-1338 -1594 0
-1339 -1595 0
-1340 -1596 0
-1334 -1598 0
-1335 -1599 0
-1337 -1600 0
-1339 -1601 0
-1340 -1602 0
-1334 -1616 0
-1335 -1617 0
-1336 -1618 0
-1337 -1619 0
-1338 -1620 0
-1339 -1621 0
-1340 -1622 0
-1336 -1632 0
-1337 -1633 0
-1338 -1634 0
-1340 -1635 0
-1336 -1644 0
-1337 -1645 0
-1339 -1646 0
-1340 -1647 0
-1334 -1649 0
-1336 -1651 0
-1337 -1652 0
-1340 -1653 0
-1334 -1675 0
-1335 -1676 0
-1336 -1677 0
-1337 -1678 0
-1338 -1679 0
-1339 -1680 0
-1340 -1681 0
-1336 -1711 0
-1337 -1712 0
-1338 -1713 0
-1339 -1714 0
-1340 -1716 0
-1335 -1755 0
-1336 -1756 0
-1338 -1757 0
-1339 -1758 0
-1340 -1760 0
-1335 -1769 0
-1336 -1770 0
-1339 -1771 0
-1340 -1773 0
-1335 -1775 0
-1336 -1776 0
-1337 -1777 0
-1339 -1778 0
-1340 -1780 0
-1334 -1794 0
-1336 -1795 0
-1337 -1796 0
-1339 -1797 0
-1340 -1799 0
-1336 -1802 0
-1337 -1803 0
-1339 -1804 0
-1340 -1806 0
-1337 -1821 0
-1338 -1822 0
-1339 -1823 0
-1340 -1825 0
-1336 -1833 0
-1338 -1834 0
-1339 -1835 0
-1340 -1837 0
-1337 -1840 0
-1338 -1841 0
-1339 -1842 0
-1340 -1844 0
-1336 -1847 0
-1337 -1848 0
-1340 -1850 0
-1334 -1866 0
-1336 -1867 0
-1338 -1868 0
-1339 -1869 0
-1340 -1871 0
-1336 -1874 0
-1338 -1875 0
-1340 -1877 0
-1337 -1881 0
-1339 -1882 0
-1340 -1884 0
-1336 -1907 0
-1337 -1908 0
-1338 -1909 0
-1340 -1911 0
-1335 -1913 0
-1336 -1914 0
-1339 -1915 0
-1340 -1917 0
-1336 -1926 0
-1337 -1927 0
-1339 -1928 0
-1340 -1930 0
-1336 -1933 0
-1337 -1934 0
-1338 -1935 0
-1340 -1937 0
-1335 -1945 0
-1336 -1946 0
-1337 -1947 0
-1338 -1948 0
-1340 -1950 0
-1344 -1459 0
-1345 -1462 0
-1346 -1463 0
-1341 -1464 0
-1344 -1467 0
-1345 -1469 0
-1346 -1470 0
-1341 -1471 0
-1343 -1474 0
-1344 -1476 0
-1346 -1479 0
-1343 -1482 0
-1344 -1483 0
-1345 -1485 0
-1346 -1486 0
-1345 -1491 0
-1346 -1492 0
-1341 -1493 0
-1344 -1495 0
-1345 -1497 0
-1346 -1498 0
-1341 -1515 0
-1343 -1517 0
-1344 -1519 0
-1346 -1521 0
-1341 -1522 0
-1345 -1526 0
-1346 -1527 0
-1341 -1529 0
-1344 -1531 0
-1346 -1534 0
-1341 -1542 0
-1343 -1544 0
-1345 -1547 0
-1346 -1548 0
-1341 -1549 0
-1343 -1551 0
-1344 -1552 0
-1346 -1554 0
-1343 -1557 0
-1345 -1560 0
-1346 -1561 0
-1341 -1569 0
-1343 -1571 0
-1346 -1574 0
-1341 -1576 0
-1343 -1578 0
-1344 -1580 0
-1345 -1583 0
-1346 -1584 0
-1341 -1586 0
-1346 -1590 0
-1343 -1592 0
-1346 -1596 0
-1341 -1597 0
-1343 -1599 0
-1344 -1600 0
-1346 -1602 0
-1341 -1603 0
-1345 -1608 0
-1346 -1609 0
-1343 -1611 0
-1345 -1614 0
-1346 -1615 0
-1343 -1617 0
-1344 -1619 0
-1346 -1622 0
-1342 -1624 0
-1343 -1625 0
-1344 -1627 0
-1345 -1628 0
-1346 -1629 0
-1342 -1631 0
-1344 -1633 0
-1346 -1635 0
-1341 -1648 0
-1342 -1650 0
-1344 -1652 0
-1346 -1653 0
-1342 -1661 0
-1343 -1662 0
-1344 -1664 0
-1345 -1667 0
-1346 -1668 0
-1341 -1695 0
-1342 -1696 0
-1343 -1697 0
-1344 -1698 0
-1345 -1699 0
-1346 -1700 0
-1341 -1702 0
-1342 -1703 0
-1343 -1704 0
-1344 -1705 0
-1346 -1707 0
-1341 -1709 0
-1342 -1710 0
-1344 -1712 0
-1345 -1715 0
-1346 -1716 0
-1341 -1717 0
-1342 -1718 0
-1343 -1719 0
-1346 -1722 0
-1342 -1724 0
-1343 -1725 0
-1344 -1726 0
-1345 -1728 0
-1346 -1729 0
-1342 -1731 0
-1343 -1732 0
-1346 -1735 0
-1342 -1748 0
-1343 -1749 0
-1344 -1751 0
-1346 -1753 0
-1342 -1754 0
-1343 -1755 0
-1345 -1759 0
-1346 -1760 0
-1343 -1789 0
-1344 -1790 0
-1345 -1792 0
-1346 -1793 0
-1344 -1796 0
-1345 -1798 0
-1346 -1799 0
-1341 -1826 0
-1343 -1827 0
-1345 -1830 0
-1346 -1831 0
-1345 -1836 0
-1346 -1837 0
-1342 -1839 0
-1344 -1840 0
-1345 -1843 0
-1346 -1844 0
-1341 -1932 0
-1344 -1934 0
-1345 -1936 0
-1346 -1937 0
-1343 -1939 0
-1344 -1941 0
-1345 -1943 0
-1346 -1944 0
-1343 -1945 0
-1344 -1947 0
-1345 -1949 0
-1346 -1950 0
-1347 -1464 0
-1351 -1467 0
-1353 -1470 0
-1347 -1471 0
-1349 -1474 0
-1350 -1475 0
-1351 -1476 0
-1352 -1477 0
-1353 -1479 0
-1347 -1493 0
-1351 -1495 0
-1352 -1496 0
-1353 -1498 0
-1347 -1499 0
-1348 -1501 0
-1349 -1502 0
-1351 -1503 0
-1352 -1504 0
-1353 -1507 0
-1347 -1508 0
-1348 -1510 0
-1350 -1511 0
-1352 -1512 0
-1353 -1514 0
-1347 -1529 0
-1351 -1531 0
-1352 -1532 0
-1353 -1534 0
-1347 -1542 0
-1349 -1544 0
-1350 -1545 0
-1352 -1546 0
-1353 -1548 0
-1347 -1549 0
-1349 -1551 0
-1351 -1552 0
-1352 -1553 0
-1353 -1554 0
-1347 -1562 0
-1348 -1564 0
-1349 -1565 0
-1352 -1566 0
-1353 -1568 0
-1347 -1576 0
-1349 -1578 0
-1350 -1579 0
-1351 -1580 0
-1352 -1581 0
-1353 -1584 0
-1347 -1586 0
-1352 -1588 0
-1353 -1590 0
-1347 -1597 0
-1349 -1599 0
-1351 -1600 0
-1353 -1602 0
-1347 -1603 0
-1350 -1605 0
-1352 -1606 0
-1353 -1609 0
-1347 -1636 0
-1349 -1638 0
-1351 -1639 0
-1352 -1640 0
-1353 -1641 0
-1347 -1648 0
-1348 -1650 0
-1350 -1651 0
-1351 -1652 0
-1353 -1653 0
-1347 -1688 0
-1348 -1689 0
-1349 -1690 0
-1350 -1691 0
-1351 -1692 0
-1352 -1693 0
-1353 -1694 0
-1347 -1702 0
-1348 -1703 0
-1349 -1704 0
-1351 -1705 0
-1353 -1707 0
-1347 -1709 0
-1348 -1710 0
-1350 -1711 0
-1351 -1712 0
-1352 -1713 0
-1353 -1716 0
-1347 -1717 0
-1348 -1718 0
-1349 -1719 0
-1352 -1720 0
-1353 -1722 0
-1347 -1737 0
-1349 -1738 0
-1350 -1739 0
-1351 -1740 0
-1353 -1741 0
-1347 -1761 0
-1349 -1762 0
-1351 -1763 0
-1352 -1764 0
-1353 -1767 0
-1347 -1768 0
-1349 -1769 0
-1350 -1770 0
-1353 -1773 0
-1349 -1789 0
-1351 -1790 0
-1353 -1793 0
-1350 -1795 0
-1351 -1796 0
-1353 -1799 0
-1348 -1813 0
-1349 -1814 0
-1350 -1815 0
-1352 -1816 0
-1353 -1819 0
-1348 -1820 0
-1351 -1821 0
-1352 -1822 0
-1353 -1825 0
-1350 -1833 0
-1352 -1834 0
-1353 -1837 0
-1348 -1839 0
-1351 -1840 0
-1352 -1841 0
-1353 -1844 0
-1347 -1845 0
-1350 -1847 0
-1351 -1848 0
-1353 -1850 0
-1347 -1851 0
-1349 -1853 0
-1350 -1854 0
-1352 -1855 0
-1353 -1857 0
-1347 -1865 0
-1350 -1867 0
-1352 -1868 0
-1353 -1871 0
-1347 -1900 0
-1349 -1901 0
-1352 -1902 0
-1353 -1904 0
-1347 -1906 0
-1350 -1907 0
-1351 -1908 0
-1352 -1909 0
-1353 -1911 0
-1347 -1912 0
-1349 -1913 0
-1350 -1914 0
-1353 -1917 0
-1347 -1918 0
-1350 -1919 0
-1351 -1920 0
-1352 -1921 0
-1353 -1923 0
-1347 -1924 0
-1348 -1925 0
-1350 -1926 0
-1351 -1927 0
-1353 -1930 0
-1347 -1932 0
-1350 -1933 0
-1351 -1934 0
-1352 -1935 0
-1353 -1937 0
-1358 -1458 0
-1359 -1460 0
-1360 -1461 0
-1361 -1462 0
-1362 -1463 0
-1355 -1471 0
-1357 -1474 0
-1358 -1475 0
-1359 -1477 0
-1360 -1478 0
-1362 -1479 0
-1357 -1482 0
-1359 -1484 0
-1361 -1485 0
-1362 -1486 0
-1355 -1493 0
-1359 -1496 0
-1361 -1497 0
-1362 -1498 0
-1355 -1508 0
-1356 -1510 0
-1358 -1511 0
-1359 -1512 0
-1360 -1513 0
-1362 -1514 0
-1355 -1522 0
-1359 -1524 0
-1360 -1525 0
-1361 -1526 0
-1362 -1527 0
-1355 -1542 0
-1357 -1544 0
-1358 -1545 0
-1359 -1546 0
-1361 -1547 0
-1362 -1548 0
-1354 -1555 0
-1357 -1557 0
-1359 -1558 0
-1360 -1559 0
-1361 -1560 0
-1362 -1561 0
-1355 -1562 0
-1356 -1564 0
-1357 -1565 0
-1359 -1566 0
-1361 -1567 0
-1362 -1568 0
-1355 -1569 0
-1357 -1571 0
-1358 -1572 0
-1359 -1573 0
-1362 -1574 0
-1354 -1585 0
-1355 -1586 0
-1359 -1588 0
-1360 -1589 0
-1362 -1590 0
-1357 -1592 0
-1358 -1593 0
-1359 -1594 0
-1360 -1595 0
-1362 -1596 0
-1355 -1603 0
-1358 -1605 0
-1359 -1606 0
-1360 -1607 0
-1361 -1608 0
-1362 -1609 0
-1357 -1611 0
-1359 -1612 0
-1360 -1613 0
-1361 -1614 0
-1362 -1615 0
-1356 -1624 0
-1357 -1625 0
-1358 -1626 0
-1361 -1628 0
-1362 -1629 0
-1355 -1636 0
-1357 -1638 0
-1359 -1640 0
-1362 -1641 0
-1354 -1642 0
-1358 -1644 0
-1360 -1646 0
-1362 -1647 0
-1355 -1648 0
-1356 -1650 0
-1358 -1651 0
-1362 -1653 0
-1354 -1669 0
-1357 -1671 0
-1361 -1673 0
-1362 -1674 0
-1357 -1676 0
-1358 -1677 0
-1359 -1679 0
-1360 -1680 0
-1362 -1681 0
-1355 -1688 0
-1356 -1689 0
-1357 -1690 0
-1358 -1691 0
-1359 -1693 0
-1362 -1694 0
-1355 -1695 0
-1356 -1696 0
-1357 -1697 0
-1361 -1699 0
-1362 -1700 0
-1354 -1708 0
-1355 -1709 0
-1356 -1710 0
-1358 -1711 0
-1359 -1713 0
-1360 -1714 0
-1361 -1715 0
-1362 -1716 0
-1354 -1723 0
-1356 -1724 0
-1357 -1725 0
-1359 -1727 0
-1361 -1728 0
-1362 -1729 0
-1354 -1736 0
-1355 -1737 0
-1357 -1738 0
-1358 -1739 0
-1362 -1741 0
-1354 -1742 0
-1357 -1743 0
-1359 -1745 0
-1360 -1746 0
-1362 -1747 0
-1356 -1748 0
-1357 -1749 0
-1358 -1750 0
-1360 -1752 0
-1362 -1753 0
-1355 -1761 0
-1357 -1762 0
-1359 -1764 0
-1360 -1765 0
-1361 -1766 0
-1362 -1767 0
-1354 -1774 0
-1357 -1775 0
-1358 -1776 0
-1360 -1778 0
-1361 -1779 0
-1362 -1780 0
-1356 -1820 0
-1359 -1822 0
-1360 -1823 0
-1361 -1824 0
-1362 -1825 0
-1355 -1851 0
-1357 -1853 0
-1358 -1854 0
-1359 -1855 0
-1361 -1856 0
-1362 -1857 0
-1355 -1865 0
-1358 -1867 0
-1359 -1868 0
-1360 -1869 0
-1361 -1870 0
-1362 -1871 0
-1355 -1892 0
-1357 -1893 0
-1359 -1895 0
-1360 -1896 0
-1361 -1897 0
-1362 -1898 0
-1354 -1905 0
-1355 -1906 0
-1358 -1907 0
-1359 -1909 0
-1361 -1910 0
-1362 -1911 0
-1355 -1918 0
-1358 -1919 0
-1359 -1921 0
-1360 -1922 0
-1362 -1923 0
-1355 -1924 0
-1356 -1925 0
-1358 -1926 0
-1360 -1928 0
-1361 -1929 0
-1362 -1930 0
-1354 -1938 0
-1357 -1939 0
-1358 -1940 0
-1360 -1942 0
-1361 -1943 0
-1362 -1944 0
-1357 -1945 0
-1358 -1946 0
-1359 -1948 0
-1361 -1949 0
-1362 -1950 0
-1366 -1435 0
-1367 -1437 0
-1369 -1440 0
-1367 -1459 0
-1368 -1461 0
-1369 -1463 0
-1364 -1464 0
-1367 -1467 0
-1368 -1468 0
-1369 -1470 0
-1369 -1492 0
-1364 -1493 0
-1367 -1495 0
-1369 -1498 0
-1364 -1499 0
-1365 -1501 0
-1366 -1502 0
-1367 -1503 0
-1368 -1505 0
-1369 -1507 0
-1364 -1515 0
-1366 -1517 0
-1367 -1519 0
-1368 -1520 0
-1369 -1521 0
-1364 -1549 0
-1366 -1551 0
-1367 -1552 0
-1369 -1554 0
-1363 -1555 0
-1366 -1557 0
-1368 -1559 0
-1369 -1561 0
-1364 -1562 0
-1365 -1564 0
-1366 -1565 0
-1369 -1568 0
-1364 -1569 0
-1366 -1571 0
-1369 -1574 0
-1363 -1575 0
-1364 -1576 0
-1366 -1578 0
-1367 -1580 0
-1368 -1582 0
-1369 -1584 0
-1366 -1592 0
-1368 -1595 0
-1369 -1596 0
-1364 -1597 0
-1366 -1599 0
-1367 -1600 0
-1368 -1601 0
-1369 -1602 0
-1366 -1617 0
-1367 -1619 0
-1368 -1621 0
-1369 -1622 0
-1365 -1631 0
-1367 -1633 0
-1369 -1635 0
-1363 -1642 0
-1367 -1645 0
-1368 -1646 0
-1369 -1647 0
-1364 -1648 0
-1365 -1650 0
-1367 -1652 0
-1369 -1653 0
-1367 -1684 0
-1368 -1685 0
-1369 -1687 0
-1364 -1688 0
-1365 -1689 0
-1366 -1690 0
-1367 -1692 0
-1369 -1694 0
-1364 -1695 0
-1365 -1696 0
-1366 -1697 0
-1367 -1698 0
-1369 -1700 0
-1363 -1701 0
-1364 -1702 0
-1365 -1703 0
-1366 -1704 0
-1367 -1705 0
-1368 -1706 0
-1369 -1707 0
-1363 -1730 0
-1365 -1731 0
-1366 -1732 0
-1369 -1735 0
-1363 -1742 0
-1366 -1743 0
-1367 -1744 0
-1368 -1746 0
-1369 -1747 0
-1365 -1754 0
-1366 -1755 0
-1368 -1758 0
-1369 -1760 0
-1364 -1768 0
-1366 -1769 0
-1368 -1771 0
-1369 -1773 0
-1363 -1774 0
-1366 -1775 0
-1367 -1777 0
-1368 -1778 0
-1369 -1780 0
-1367 -1796 0
-1368 -1797 0
-1369 -1799 0
-1365 -1813 0
-1366 -1814 0
-1368 -1817 0
-1369 -1819 0
-1364 -1826 0
-1366 -1827 0
-1368 -1829 0
-1369 -1831 0
-1365 -1839 0
-1367 -1840 0
-1368 -1842 0
-1369 -1844 0
-1364 -1845 0
-1367 -1848 0
-1369 -1850 0
-1364 -1865 0
-1368 -1869 0
-1369 -1871 0
-1364 -1892 0
-1366 -1893 0
-1367 -1894 0
-1368 -1896 0
-1369 -1898 0
-1363 -1899 0
-1364 -1900 0
-1366 -1901 0
-1369 -1904 0
-1364 -1912 0
-1366 -1913 0
-1368 -1915 0
-1369 -1917 0
-1364 -1924 0
-1365 -1925 0
-1367 -1927 0
-1368 -1928 0
-1369 -1930 0
-1363 -1931 0
-1364 -1932 0
-1367 -1934 0
-1369 -1937 0
-1373 -1431 0
-1374 -1433 0
-1376 -1434 0
-1371 -1450 0
-1373 -1452 0
-1375 -1454 0
-1376 -1455 0
-1373 -1483 0
-1375 -1485 0
-1376 -1486 0
-1372 -1489 0
-1375 -1491 0
-1376 -1492 0
-1370 -1493 0
-1373 -1495 0
-1375 -1497 0
-1376 -1498 0
-1370 -1499 0
-1371 -1501 0
-1373 -1503 0
-1374 -1505 0
-1375 -1506 0
-1376 -1507 0
-1370 -1508 0
-1371 -1510 0
-1372 -1511 0
-1374 -1513 0
-1376 -1514 0
-1370 -1515 0
-1372 -1518 0
-1373 -1519 0
-1374 -1520 0
-1376 -1521 0
-1370 -1522 0
-1374 -1525 0
-1375 -1526 0
-1376 -1527 0
-1370 -1535 0
-1371 -1537 0
-1373 -1538 0
-1374 -1540 0
-1376 -1541 0
-1374 -1559 0
-1375 -1560 0
-1376 -1561 0
-1370 -1576 0
-1372 -1579 0
-1373 -1580 0
-1374 -1582 0
-1375 -1583 0
-1376 -1584 0
-1370 -1586 0
-1374 -1589 0
-1376 -1590 0
-1374 -1613 0
-1375 -1614 0
-1376 -1615 0
-1372 -1618 0
-1373 -1619 0
-1374 -1621 0
-1376 -1622 0
-1373 -1656 0
-1374 -1657 0
-1375 -1658 0
-1376 -1659 0
-1371 -1661 0
-1372 -1663 0
-1373 -1664 0
-1374 -1666 0
-1375 -1667 0
-1376 -1668 0
-1370 -1688 0
-1371 -1689 0
-1372 -1691 0
-1373 -1692 0
-1376 -1694 0
-1370 -1695 0
-1371 -1696 0
-1373 -1698 0
-1375 -1699 0
-1376 -1700 0
-1371 -1724 0
-1373 -1726 0
-1375 -1728 0
-1376 -1729 0
-1371 -1731 0
-1372 -1733 0
-1376 -1735 0
-1370 -1737 0
-1372 -1739 0
-1373 -1740 0
-1376 -1741 0
-1372 -1783 0
-1373 -1784 0
-1375 -1786 0
-1376 -1787 0
-1372 -1795 0
-1373 -1796 0
-1374 -1797 0
-1375 -1798 0
-1376 -1799 0
-1370 -1800 0
-1371 -1801 0
-1372 -1802 0
-1373 -1803 0
-1374 -1804 0
-1375 -1805 0
-1376 -1806 0
-1370 -1807 0
-1371 -1808 0
-1374 -1811 0
-1376 -1812 0
-1372 -1833 0
-1374 -1835 0
-1375 -1836 0
-1376 -1837 0
-1370 -1845 0
-1372 -1847 0
-1373 -1848 0
-1375 -1849 0
-1376 -1850 0
-1370 -1851 0
-1372 -1854 0
-1375 -1856 0
-1376 -1857 0
-1370 -1858 0
-1372 -1861 0
-1373 -1862 0
-1375 -1863 0
-1376 -1864 0
-1370 -1880 0
-1373 -1881 0
-1374 -1882 0
-1375 -1883 0
-1376 -1884 0
-1370 -1886 0
-1372 -1888 0
-1374 -1890 0
-1376 -1891 0
-1370 -1912 0
-1372 -1914 0
-1374 -1915 0
-1375 -1916 0
-1376 -1917 0
-1370 -1918 0
-1372 -1919 0
-1373 -1920 0
-1374 -1922 0
-1376 -1923 0
-1370 -1924 0
-1371 -1925 0
-1372 -1926 0
-1373 -1927 0
-1374 -1928 0
-1375 -1929 0
-1376 -1930 0
-1372 -1940 0
-1373 -1941 0
-1374 -1942 0
-1375 -1943 0
-1376 -1944 0
-1370 -1952 0
-1373 -1954 0
-1374 -1956 0
-1375 -1957 0
-1376 -1958 0
-1380 -1424 0
-1381 -1427 0
-1382 -1428 0
-1379 -1458 0
-1380 -1459 0
-1381 -1462 0
-1382 -1463 0
-1380 -1467 0
-1381 -1469 0
-1382 -1470 0
-1379 -1489 0
-1381 -1491 0
-1382 -1492 0
-1380 -1495 0
-1381 -1497 0
-1382 -1498 0
-1378 -1510 0
-1379 -1511 0
-1382 -1514 0
-1379 -1518 0
-1380 -1519 0
-1382 -1521 0
-1377 -1528 0
-1380 -1531 0
-1382 -1534 0
-1378 -1537 0
-1380 -1538 0
-1382 -1541 0
-1380 -1552 0
-1382 -1554 0
-1379 -1572 0
-1382 -1574 0
-1377 -1585 0
-1382 -1590 0
-1379 -1593 0
-1382 -1596 0
-1380 -1600 0
-1382 -1602 0
-1379 -1618 0
-1380 -1619 0
-1382 -1622 0
-1378 -1624 0
-1379 -1626 0
-1380 -1627 0
-1381 -1628 0
-1382 -1629 0
-1380 -1656 0
-1381 -1658 0
-1382 -1659 0
-1378 -1661 0
-1379 -1663 0
-1380 -1664 0
-1381 -1667 0
-1382 -1668 0
-1377 -1669 0
-1380 -1672 0
-1381 -1673 0
-1382 -1674 0
-1378 -1689 0
-1379 -1691 0
-1380 -1692 0
-1382 -1694 0
-1377 -1701 0
-1378 -1703 0
-1380 -1705 0
-1382 -1707 0
-1378 -1718 0
-1382 -1722 0
-1377 -1730 0
-1378 -1731 0
-1379 -1733 0
-1382 -1735 0
-1377 -1736 0
-1379 -1739 0
-1380 -1740 0
-1382 -1741 0
-1377 -1742 0
-1380 -1744 0
-1382 -1747 0
-1378 -1748 0
-1379 -1750 0
-1380 -1751 0
-1382 -1753 0
-1380 -1790 0
-1381 -1792 0
-1382 -1793 0
-1378 -1808 0
-1382 -1812 0
-1378 -1839 0
-1380 -1840 0
-1381 -1843 0
-1382 -1844 0
-1379 -1854 0
-1381 -1856 0
-1382 -1857 0
-1379 -1861 0
-1380 -1862 0
-1381 -1863 0
-1382 -1864 0
-1377 -1885 0
-1379 -1888 0
-1382 -1891 0
-1379 -1919 0
-1380 -1920 0
-1382 -1923 0
-1378 -1925 0
-1379 -1926 0
-1380 -1927 0
-1381 -1929 0
-1382 -1930 0
-1377 -1931 0
-1379 -1933 0
-1380 -1934 0
-1381 -1936 0
-1382 -1937 0
-1379 -1946 0
-1380 -1947 0
-1381 -1949 0
-1382 -1950 0
-1386 -1418 0
-1387 -1419 0
-1389 -1421 0
-1383 -1449 0
-1384 -1450 0
-1385 -1451 0
-1386 -1452 0
-1387 -1453 0
-1388 -1454 0
-1389 -1455 0
-1386 -1459 0
-1387 -1460 0
-1388 -1462 0
-1389 -1463 0
-1385 -1474 0
-1386 -1476 0
-1387 -1477 0
-1389 -1479 0
-1385 -1482 0
-1386 -1483 0
-1387 -1484 0
-1388 -1485 0
-1389 -1486 0
-1386 -1495 0
-1387 -1496 0
-1388 -1497 0
-1389 -1498 0
-1384 -1501 0
-1385 -1502 0
-1386 -1503 0
-1387 -1504 0
-1388 -1506 0
-1389 -1507 0
-1387 -1524 0
-1388 -1526 0
-1389 -1527 0
-1383 -1528 0
-1386 -1531 0
-1387 -1532 0
-1389 -1534 0
-1384 -1537 0
-1386 -1538 0
-1387 -1539 0
-1389 -1541 0
-1385 -1544 0
-1387 -1546 0
-1388 -1547 0
-1389 -1548 0
-1385 -1571 0
-1387 -1573 0
-1389 -1574 0
-1383 -1575 0
-1385 -1578 0
-1386 -1580 0
-1387 -1581 0
-1388 -1583 0
-1389 -1584 0
-1385 -1592 0
-1387 -1594 0
-1389 -1596 0
-1387 -1606 0
-1388 -1608 0
-1389 -1609 0
-1385 -1611 0
-1387 -1612 0
-1388 -1614 0
-1389 -1615 0
-1384 -1631 0
-1386 -1633 0
-1387 -1634 0
-1389 -1635 0
-1384 -1661 0
-1385 -1662 0
-1386 -1664 0
-1387 -1665 0
-1388 -1667 0
-1389 -1668 0
-1384 -1689 0
-1385 -1690 0
-1386 -1692 0
-1387 -1693 0
-1389 -1694 0
-1383 -1708 0
-1384 -1710 0
-1386 -1712 0
-1387 -1713 0
-1388 -1715 0
-1389 -1716 0
-1384 -1718 0
-1385 -1719 0
-1387 -1720 0
-1389 -1722 0
-1383 -1723 0
-1384 -1724 0
-1385 -1725 0
-1386 -1726 0
-1387 -1727 0
-1388 -1728 0
-1389 -1729 0
-1383 -1742 0
-1385 -1743 0
-1386 -1744 0
-1387 -1745 0
-1389 -1747 0
-1384 -1754 0
-1385 -1755 0
-1387 -1757 0
-1388 -1759 0
-1389 -1760 0
-1385 -1782 0
-1386 -1784 0
-1387 -1785 0
-1388 -1786 0
-1389 -1787 0
-1385 -1789 0
-1386 -1790 0
-1388 -1792 0
-1389 -1793 0
-1386 -1796 0
-1388 -1798 0
-1389 -1799 0
-1384 -1801 0
-1386 -1803 0
-1388 -1805 0
-1389 -1806 0
-1385 -1827 0
-1388 -1830 0
-1389 -1831 0
-1386 -1848 0
-1388 -1849 0
-1389 -1850 0
-1385 -1860 0
-1386 -1862 0
-1388 -1863 0
-1389 -1864 0
-1383 -1879 0
-1386 -1881 0
-1388 -1883 0
-1389 -1884 0
-1385 -1913 0
-1388 -1916 0
-1389 -1917 0
-1384 -1925 0
-1386 -1927 0
-1388 -1929 0
-1389 -1930 0
-1383 -1938 0
-1385 -1939 0
-1386 -1941 0
-1388 -1943 0
-1389 -1944 0
-1385 -1953 0
-1386 -1954 0
-1387 -1955 0
-1388 -1957 0
-1389 -1958 0
-1392 -1412 0
-1393 -1413 0
-1396 -1415 0
-1392 -1444 0
-1394 -1445 0
-1395 -1447 0
-1396 -1448 0
-1391 -1464 0
-1393 -1467 0
-1395 -1469 0
-1396 -1470 0
-1393 -1483 0
-1394 -1484 0
-1395 -1485 0
-1396 -1486 0
-1391 -1493 0
-1393 -1495 0
-1394 -1496 0
-1395 -1497 0
-1396 -1498 0
-1391 -1499 0
-1393 -1503 0
-1394 -1504 0
-1395 -1506 0
-1396 -1507 0
-1391 -1522 0
-1394 -1524 0
-1395 -1526 0
-1396 -1527 0
-1390 -1528 0
-1391 -1529 0
-1393 -1531 0
-1394 -1532 0
-1396 -1534 0
-1391 -1535 0
-1393 -1538 0
-1394 -1539 0
-1396 -1541 0
-1391 -1549 0
-1393 -1552 0
-1394 -1553 0
-1396 -1554 0
-1390 -1555 0
-1394 -1558 0
-1395 -1560 0
-1396 -1561 0
-1391 -1562 0
-1394 -1566 0
-1395 -1567 0
-1396 -1568 0
-1390 -1585 0
-1391 -1586 0
-1394 -1588 0
-1396 -1590 0
-1391 -1597 0
-1393 -1600 0
-1396 -1602 0
-1394 -1612 0
-1395 -1614 0
-1396 -1615 0
-1391 -1636 0
-1393 -1639 0
-1394 -1640 0
-1396 -1641 0
-1393 -1656 0
-1395 -1658 0
-1396 -1659 0
-1390 -1669 0
-1393 -1672 0
-1395 -1673 0
-1396 -1674 0
-1391 -1695 0
-1393 -1698 0
-1395 -1699 0
-1396 -1700 0
-1390 -1701 0
-1391 -1702 0
-1393 -1705 0
-1396 -1707 0
-1391 -1717 0
-1394 -1720 0
-1396 -1722 0
-1390 -1723 0
-1393 -1726 0
-1394 -1727 0
-1395 -1728 0
-1396 -1729 0
-1390 -1742 0
-1393 -1744 0
-1394 -1745 0
-1396 -1747 0
-1391 -1761 0
-1393 -1763 0
-1394 -1764 0
-1395 -1766 0
-1396 -1767 0
-1393 -1790 0
-1395 -1792 0
-1396 -1793 0
-1391 -1807 0
-1394 -1810 0
-1396 -1812 0
-1393 -1821 0
-1394 -1822 0
-1395 -1824 0
-1396 -1825 0
-1393 -1840 0
-1394 -1841 0
-1395 -1843 0
-1396 -1844 0
-1391 -1845 0
-1392 -1847 0
-1393 -1848 0
-1395 -1849 0
-1396 -1850 0
-1391 -1858 0
-1392 -1861 0
-1393 -1862 0
-1395 -1863 0
-1396 -1864 0
-1391 -1865 0
-1392 -1867 0
-1394 -1868 0
-1395 -1870 0
-1396 -1871 0
-1391 -1872 0
-1392 -1874 0
-1394 -1875 0
-1395 -1876 0
-1396 -1877 0
-1390 -1885 0
-1391 -1886 0
-1392 -1888 0
-1394 -1889 0
-1396 -1891 0
-1390 -1905 0
-1391 -1906 0
-1392 -1907 0
-1393 -1908 0
-1394 -1909 0
-1395 -1910 0
-1396 -1911 0
-1391 -1912 0
-1392 -1914 0
-1395 -1916 0
-1396 -1917 0
-1390 -1931 0
-1391 -1932 0
-1392 -1933 0
-1393 -1934 0
-1394 -1935 0
-1395 -1936 0
-1396 -1937 0
-1390 -1938 0
-1392 -1940 0
-1393 -1941 0
-1395 -1943 0
-1396 -1944 0
-1398 -1443 0
-1399 -1444 0
-1401 -1446 0
-1402 -1447 0
-1403 -1448 0
-1399 -1458 0
-1400 -1459 0
-1401 -1461 0
-1402 -1462 0
-1403 -1463 0
-1400 -1467 0
-1401 -1468 0
-1402 -1469 0
-1403 -1470 0
-1398 -1474 0
-1399 -1475 0
-1400 -1476 0
-1401 -1478 0
-1403 -1479 0
-1398 -1482 0
-1400 -1483 0
-1402 -1485 0
-1403 -1486 0
-1399 -1489 0
-1402 -1491 0
-1403 -1492 0
-1400 -1495 0
-1402 -1497 0
-1403 -1498 0
-1398 -1502 0
-1400 -1503 0
-1401 -1505 0
-1402 -1506 0
-1403 -1507 0
-1399 -1511 0
-1401 -1513 0
-1403 -1514 0
-1398 -1517 0
-1399 -1518 0
-1400 -1519 0
-1401 -1520 0
-1403 -1521 0
-1401 -1525 0
-1402 -1526 0
-1403 -1527 0
-1400 -1538 0
-1401 -1540 0
-1403 -1541 0
-1398 -1544 0
-1399 -1545 0
-1402 -1547 0
-1403 -1548 0
-1398 -1551 0
-1400 -1552 0
-1403 -1554 0
-1398 -1565 0
-1402 -1567 0
-1403 -1568 0
-1398 -1571 0
-1399 -1572 0
-1403 -1574 0
-1398 -1592 0
-1399 -1593 0
-1401 -1595 0
-1403 -1596 0
-1398 -1599 0
-1400 -1600 0
-1401 -1601 0
-1403 -1602 0
-1399 -1605 0
-1401 -1607 0
-1402 -1608 0
-1403 -1609 0
-1398 -1611 0
-1401 -1613 0
-1402 -1614 0
-1403 -1615 0
-1398 -1617 0
-1399 -1618 0
-1400 -1619 0
-1401 -1621 0
-1403 -1622 0
-1397 -1642 0
-1399 -1644 0
-1400 -1645 0
-1401 -1646 0
-1403 -1647 0
-1397 -1669 0
-1398 -1671 0
-1400 -1672 0
-1402 -1673 0
-1403 -1674 0
-1397 -1701 0
-1398 -1704 0
-1400 -1705 0
-1401 -1706 0
-1403 -1707 0
-1397 -1708 0
-1399 -1711 0
-1400 -1712 0
-1401 -1714 0
-1402 -1715 0
-1403 -1716 0
-1397 -1723 0
-1398 -1725 0
-1400 -1726 0
-1402 -1728 0
-1403 -1729 0
-1397 -1730 0
-1398 -1732 0
-1399 -1733 0
-1403 -1735 0
-1397 -1736 0
-1398 -1738 0
-1399 -1739 0
-1400 -1740 0
-1403 -1741 0
-1397 -1774 0
-1398 -1775 0
-1399 -1776 0
-1400 -1777 0
-1401 -1778 0
-1402 -1779 0
-1403 -1780 0
-1400 -1840 0
-1401 -1842 0
-1402 -1843 0
-1403 -1844 0
-1399 -1847 0
-1400 -1848 0
-1402 -1849 0
-1403 -1850 0
-1398 -1853 0
-1399 -1854 0
-1402 -1856 0
-1403 -1857 0
-1398 -1860 0
-1399 -1861 0
-1400 -1862 0
-1402 -1863 0
-1403 -1864 0
-1399 -1867 0
-1401 -1869 0
-1402 -1870 0
-1403 -1871 0
-1399 -1874 0
-1402 -1876 0
-1403 -1877 0
-1398 -1893 0
-1400 -1894 0
-1401 -1896 0
-1402 -1897 0
-1403 -1898 0
-1398 -1913 0
-1399 -1914 0
-1401 -1915 0
-1402 -1916 0
-1403 -1917 0
-1399 -1919 0
-1400 -1920 0
-1401 -1922 0
-1403 -1923 0
-1397 -1931 0
-1399 -1933 0
-1400 -1934 0
-1402 -1936 0
-1403 -1937 0
-1397 -1938 0
-1398 -1939 0
-1399 -1940 0
-1400 -1941 0
-1401 -1942 0
-1402 -1943 0
-1403 -1944 0
-1405 -1459 0
-1406 -1460 0
-1407 -1461 0
-1408 -1462 0
-1409 -1463 0
-1405 -1467 0
-1407 -1468 0
-1408 -1469 0
-1409 -1470 0
-1405 -1483 0
-1406 -1484 0
-1408 -1485 0
-1409 -1486 0
-1404 -1510 0
-1406 -1512 0
-1407 -1513 0
-1409 -1514 0
-1405 -1519 0
-1407 -1520 0
-1409 -1521 0
-1405 -1531 0
-1406 -1532 0
-1407 -1533 0
-1409 -1534 0
-1404 -1537 0
-1405 -1538 0
-1406 -1539 0
-1407 -1540 0
-1409 -1541 0
-1406 -1546 0
-1408 -1547 0
-1409 -1548 0
-1406 -1558 0
-1407 -1559 0
-1408 -1560 0
-1409 -1561 0
-1404 -1564 0
-1406 -1566 0
-1408 -1567 0
-1409 -1568 0
-1405 -1580 0
-1406 -1581 0
-1407 -1582 0
-1408 -1583 0
-1409 -1584 0
-1406 -1606 0
-1407 -1607 0
-1408 -1608 0
-1409 -1609 0
-1405 -1619 0
-1406 -1620 0
-1407 -1621 0
-1409 -1622 0
-1404 -1624 0
-1405 -1627 0
-1408 -1628 0
-1409 -1629 0
-1405 -1678 0
-1406 -1679 0
-1407 -1680 0
-1409 -1681 0
-1404 -1689 0
-1405 -1692 0
-1406 -1693 0
-1409 -1694 0
-1404 -1703 0
-1405 -1705 0
-1407 -1706 0
-1409 -1707 0
-1404 -1724 0
-1405 -1726 0
-1406 -1727 0
-1408 -1728 0
-1409 -1729 0
-1404 -1754 0
-1406 -1757 0
-1407 -1758 0
-1408 -1759 0
-1409 -1760 0
-1405 -1763 0
-1406 -1764 0
-1407 -1765 0
-1408 -1766 0
-1409 -1767 0
-1405 -1777 0
-1407 -1778 0
-1408 -1779 0
-1409 -1780 0
-1405 -1790 0
-1407 -1791 0
-1408 -1792 0
-1409 -1793 0
-1405 -1796 0
-1407 -1797 0
-1408 -1798 0
-1409 -1799 0
-1404 -1808 0
-1406 -1810 0
-1407 -1811 0
-1409 -1812 0
-1404 -1820 0
-1405 -1821 0
-1406 -1822 0
-1407 -1823 0
-1408 -1824 0
-1409 -1825 0
-1407 -1829 0
-1408 -1830 0
-1409 -1831 0
-1406 -1834 0
-1407 -1835 0
-1408 -1836 0
-1409 -1837 0
-1404 -1839 0
-1405 -1840 0
-1406 -1841 0
-1407 -1842 0
-1408 -1843 0
-1409 -1844 0
-1406 -1855 0
-1408 -1856 0
-1409 -1857 0
-1405 -1862 0
-1408 -1863 0
-1409 -1864 0
-1406 -1868 0
-1407 -1869 0
-1408 -1870 0
-1409 -1871 0
-1406 -1889 0
-1407 -1890 0
-1409 -1891 0
-1405 -1894 0
-1406 -1895 0
-1407 -1896 0
-1408 -1897 0
-1409 -1898 0
-1405 -1908 0
-1406 -1909 0
-1408 -1910 0
-1409 -1911 0
-1404 -1925 0
-1405 -1927 0
-1407 -1928 0
-1408 -1929 0
-1409 -1930 0
-1405 -1934 0
-1406 -1935 0
-1408 -1936 0
-1409 -1937 0
-1405 -1941 0
-1407 -1942 0
-1408 -1943 0
-1409 -1944 0
-1410 -1450 0
-1411 -1451 0
-1413 -1452 0
-1415 -1455 0
-1412 -1458 0
-1413 -1459 0
-1414 -1461 0
-1415 -1463 0
-1411 -1474 0
-1412 -1475 0
-1413 -1476 0
-1414 -1478 0
-1415 -1479 0
-1412 -1489 0
-1415 -1492 0
-1410 -1501 0
-1411 -1502 0
-1413 -1503 0
-1414 -1505 0
-1415 -1507 0
-1414 -1525 0
-1415 -1527 0
-1413 -1531 0
-1414 -1533 0
-1415 -1534 0
-1410 -1537 0
-1413 -1538 0
-1414 -1540 0
-1415 -1541 0
-1411 -1551 0
-1413 -1552 0
-1415 -1554 0
-1411 -1557 0
-1414 -1559 0
-1415 -1561 0
-1410 -1564 0
-1411 -1565 0
-1415 -1568 0
-1414 -1589 0
-1415 -1590 0
-1411 -1599 0
-1413 -1600 0
-1414 -1601 0
-1415 -1602 0
-1411 -1611 0
-1414 -1613 0
-1415 -1615 0
-1410 -1631 0
-1412 -1632 0
-1413 -1633 0
-1415 -1635 0
-1412 -1683 0
-1413 -1684 0
-1414 -1685 0
-1415 -1687 0
-1410 -1689 0
-1411 -1690 0
-1412 -1691 0
-1413 -1692 0
-1415 -1694 0
-1410 -1710 0
-1412 -1711 0
-1413 -1712 0
-1414 -1714 0
-1415 -1716 0
-1410 -1731 0
-1411 -1732 0
-1412 -1733 0
-1415 -1735 0
-1410 -1748 0
-1411 -1749 0
-1412 -1750 0
-1413 -1751 0
-1414 -1752 0
-1415 -1753 0
-1411 -1769 0
-1412 -1770 0
-1414 -1771 0
-1415 -1773 0
-1411 -1775 0
-1412 -1776 0
-1413 -1777 0
-1414 -1778 0
-1415 -1780 0
-1411 -1782 0
-1412 -1783 0
-1413 -1784 0
-1415 -1787 0
-1411 -1789 0
-1413 -1790 0
-1414 -1791 0
-1415 -1793 0
-1410 -1801 0
-1412 -1802 0
-1413 -1803 0
-1414 -1804 0
-1415 -1806 0
-1410 -1813 0
-1411 -1814 0
-1412 -1815 0
-1414 -1817 0
-1415 -1819 0
-1412 -1833 0
-1414 -1835 0
-1415 -1837 0
-1412 -1847 0
-1413 -1848 0
-1415 -1850 0
-1411 -1860 0
-1412 -1861 0
-1413 -1862 0
-1415 -1864 0
-1412 -1867 0
-1414 -1869 0
-1415 -1871 0
-1413 -1881 0
-1414 -1882 0
-1415 -1884 0
-1411 -1893 0
-1413 -1894 0
-1414 -1896 0
-1415 -1898 0
-1411 -1901 0
-1415 -1904 0
-1410 -1925 0
-1412 -1926 0
-1413 -1927 0
-1414 -1928 0
-1415 -1930 0
-1411 -1945 0
-1412 -1946 0
-1413 -1947 0
-1415 -1950 0
-1411 -1953 0
-1413 -1954 0
-1414 -1956 0
-1415 -1958 0
-1417 -1444 0
-1419 -1445 0
-1420 -1446 0
-1421 -1448 0
-1416 -1464 0
-1418 -1467 0
-1420 -1468 0
-1421 -1470 0
-1416 -1499 0
-1418 -1503 0
-1419 -1504 0
-1420 -1505 0
-1421 -1507 0
-1416 -1522 0
-1419 -1524 0
-1420 -1525 0
-1421 -1527 0
-1416 -1529 0
-1418 -1531 0
-1419 -1532 0
-1420 -1533 0
-1421 -1534 0
-1416 -1535 0
-1418 -1538 0
-1419 -1539 0
-1420 -1540 0
-1421 -1541 0
-1416 -1542 0
-1417 -1545 0
-1419 -1546 0
-1421 -1548 0
-1416 -1569 0
-1417 -1572 0
-1419 -1573 0
-1421 -1574 0
-1416 -1576 0
-1417 -1579 0
-1418 -1580 0
-1419 -1581 0
-1420 -1582 0
-1421 -1584 0
-1417 -1593 0
-1419 -1594 0
-1420 -1595 0
-1421 -1596 0
-1416 -1603 0
-1417 -1605 0
-1419 -1606 0
-1420 -1607 0
-1421 -1609 0
-1419 -1612 0
-1420 -1613 0
-1421 -1615 0
-1416 -1636 0
-1418 -1639 0
-1419 -1640 0
-1421 -1641 0
-1417 -1677 0
-1418 -1678 0
-1419 -1679 0
-1420 -1680 0
-1421 -1681 0
-1416 -1695 0
-1418 -1698 0
-1421 -1700 0
-1416 -1702 0
-1418 -1705 0
-1420 -1706 0
-1421 -1707 0
-1416 -1737 0
-1417 -1739 0
-1418 -1740 0
-1421 -1741 0
-1417 -1750 0
-1418 -1751 0
-1420 -1752 0
-1421 -1753 0
-1416 -1768 0
-1417 -1770 0
-1420 -1771 0
-1421 -1773 0
-1417 -1776 0
-1418 -1777 0
-1420 -1778 0
-1421 -1780 0
-1418 -1790 0
-1420 -1791 0
-1421 -1793 0
-1417 -1795 0
-1418 -1796 0
-1420 -1797 0
-1421 -1799 0
-1416 -1807 0
-1419 -1810 0
-1420 -1811 0
-1421 -1812 0
-1417 -1815 0
-1419 -1816 0
-1420 -1817 0
-1421 -1819 0
-1417 -1833 0
-1419 -1834 0
-1420 -1835 0
-1421 -1837 0
-1418 -1840 0
-1419 -1841 0
-1420 -1842 0
-1421 -1844 0
-1416 -1845 0
-1417 -1847 0
-1418 -1848 0
-1421 -1850 0
-1416 -1858 0
-1417 -1861 0
-1418 -1862 0
-1421 -1864 0
-1416 -1872 0
-1417 -1874 0
-1419 -1875 0
-1421 -1877 0
-1416 -1886 0
-1417 -1888 0
-1419 -1889 0
-1420 -1890 0
-1421 -1891 0
-1416 -1892 0
-1418 -1894 0
-1419 -1895 0
-1420 -1896 0
-1421 -1898 0
-1416 -1900 0
-1419 -1902 0
-1421 -1904 0
-1416 -1918 0
-1417 -1919 0
-1418 -1920 0
-1419 -1921 0
-1420 -1922 0
-1421 -1923 0
-1416 -1932 0
-1417 -1933 0
-1418 -1934 0
-1419 -1935 0
-1421 -1937 0
-1417 -1946 0
-1418 -1947 0
-1419 -1948 0
-1421 -1950 0
-1423 -1443 0
-1425 -1445 0
-1426 -1446 0
-1427 -1447 0
-1428 -1448 0
-1423 -1451 0
-1424 -1452 0
-1425 -1453 0
-1427 -1454 0
-1428 -1455 0
-1422 -1471 0
-1423 -1474 0
-1424 -1476 0
-1425 -1477 0
-1426 -1478 0
-1428 -1479 0
-1422 -1508 0
-1425 -1512 0
-1426 -1513 0
-1428 -1514 0
-1422 -1515 0
-1423 -1517 0
-1424 -1519 0
-1426 -1520 0
-1428 -1521 0
-1422 -1529 0
-1424 -1531 0
-1425 -1532 0
-1426 -1533 0
-1428 -1534 0
-1422 -1535 0
-1424 -1538 0
-1425 -1539 0
-1426 -1540 0
-1428 -1541 0
-1422 -1549 0
-1423 -1551 0
-1424 -1552 0
-1425 -1553 0
-1428 -1554 0
-1422 -1569 0
-1423 -1571 0
-1425 -1573 0
-1428 -1574 0
-1422 -1586 0
-1425 -1588 0
-1426 -1589 0
-1428 -1590 0
-1423 -1592 0
-1425 -1594 0
-1426 -1595 0
-1428 -1596 0
-1422 -1597 0
-1423 -1599 0
-1424 -1600 0
-1426 -1601 0
-1428 -1602 0
-1423 -1617 0
-1424 -1619 0
-1425 -1620 0
-1426 -1621 0
-1428 -1622 0
-1424 -1684 0
-1426 -1685 0
-1427 -1686 0
-1428 -1687 0
-1422 -1695 0
-1423 -1697 0
-1424 -1698 0
-1427 -1699 0
-1428 -1700 0
-1422 -1709 0
-1424 -1712 0
-1425 -1713 0
-1426 -1714 0
-1427 -1715 0
-1428 -1716 0
-1423 -1755 0
-1425 -1757 0
-1426 -1758 0
-1427 -1759 0
-1428 -1760 0
-1422 -1761 0
-1423 -1762 0
-1424 -1763 0
-1425 -1764 0
-1426 -1765 0
-1427 -1766 0
-1428 -1767 0
-1423 -1775 0
-1424 -1777 0
-1426 -1778 0
-1427 -1779 0
-1428 -1780 0
-1423 -1782 0
-1424 -1784 0
-1425 -1785 0
-1427 -1786 0
-1428 -1787 0
-1423 -1789 0
-1424 -1790 0
-1426 -1791 0
-1427 -1792 0
-1428 -1793 0
-1422 -1800 0
-1424 -1803 0
-1426 -1804 0
-1427 -1805 0
-1428 -1806 0
-1424 -1821 0
-1425 -1822 0
-1426 -1823 0
-1427 -1824 0
-1428 -1825 0
-1422 -1826 0
-1423 -1827 0
-1426 -1829 0
-1427 -1830 0
-1428 -1831 0
-1425 -1834 0
-1426 -1835 0
-1427 -1836 0
-1428 -1837 0
-1422 -1851 0
-1423 -1853 0
-1425 -1855 0
-1427 -1856 0
-1428 -1857 0
-1422 -1858 0
-1423 -1860 0
-1424 -1862 0
-1427 -1863 0
-1428 -1864 0
-1422 -1872 0
-1425 -1875 0
-1427 -1876 0
-1428 -1877 0
-1422 -1880 0
-1424 -1881 0
-1426 -1882 0
-1427 -1883 0
-1428 -1884 0
-1422 -1892 0
-1423 -1893 0
-1424 -1894 0
-1425 -1895 0
-1426 -1896 0
-1427 -1897 0
-1428 -1898 0
-1422 -1906 0
-1424 -1908 0
-1425 -1909 0
-1427 -1910 0
-1428 -1911 0
-1422 -1912 0
-1423 -1913 0
-1426 -1915 0
-1427 -1916 0
-1428 -1917 0
-1422 -1952 0
-1423 -1953 0
-1424 -1954 0
-1425 -1955 0
-1426 -1956 0
-1427 -1957 0
-1428 -1958 0
-1430 -1443 0
-1432 -1445 0
-1433 -1446 0
-1434 -1448 0
-1431 -1459 0
-1432 -1460 0
-1433 -1461 0
-1434 -1463 0
-1431 -1467 0
-1433 -1468 0
-1434 -1470 0
-1430 -1474 0
-1431 -1476 0
-1432 -1477 0
-1433 -1478 0
-1434 -1479 0
-1430 -1502 0
-1431 -1503 0
-1432 -1504 0
-1433 -1505 0
-1434 -1507 0
-1432 -1512 0
-1433 -1513 0
-1434 -1514 0
-1430 -1517 0
-1431 -1519 0
-1433 -1520 0
-1434 -1521 0
-1432 -1524 0
-1433 -1525 0
-1434 -1527 0
-1431 -1538 0
-1432 -1539 0
-1433 -1540 0
-1434 -1541 0
-1429 -1555 0
-1430 -1557 0
-1432 -1558 0
-1433 -1559 0
-1434 -1561 0
-1429 -1575 0
-1430 -1578 0
-1431 -1580 0
-1432 -1581 0
-1433 -1582 0
-1434 -1584 0
-1429 -1585 0
-1432 -1588 0
-1433 -1589 0
-1434 -1590 0
-1430 -1611 0
-1432 -1612 0
-1433 -1613 0
-1434 -1615 0
-1430 -1617 0
-1431 -1619 0
-1432 -1620 0
-1433 -1621 0
-1434 -1622 0
-1429 -1642 0
-1431 -1645 0
-1433 -1646 0
-1434 -1647 0
-1430 -1676 0
-1431 -1678 0
-1432 -1679 0
-1433 -1680 0
-1434 -1681 0
-1431 -1684 0
-1433 -1685 0
-1434 -1687 0
-1429 -1701 0
-1430 -1704 0
-1431 -1705 0
-1433 -1706 0
-1434 -1707 0
-1429 -1708 0
-1431 -1712 0
-1432 -1713 0
-1433 -1714 0
-1434 -1716 0
-1429 -1742 0
-1430 -1743 0
-1431 -1744 0
-1432 -1745 0
-1433 -1746 0
-1434 -1747 0
-1430 -1749 0
-1431 -1751 0
-1433 -1752 0
-1434 -1753 0
-1430 -1755 0
-1432 -1757 0
-1433 -1758 0
-1434 -1760 0
-1430 -1762 0
-1431 -1763 0
-1432 -1764 0
-1433 -1765 0
-1434 -1767 0
-1430 -1769 0
-1433 -1771 0
-1434 -1773 0
-1431 -1796 0
-1433 -1797 0
-1434 -1799 0
-1430 -1814 0
-1432 -1816 0
-1433 -1817 0
-1434 -1819 0
-1431 -1821 0
-1432 -1822 0
-1433 -1823 0
-1434 -1825 0
-1430 -1827 0
-1433 -1829 0
-1434 -1831 0
-1431 -1840 0
-1432 -1841 0
-1433 -1842 0
-1434 -1844 0
-1431 -1848 0
-1434 -1850 0
-1430 -1853 0
-1432 -1855 0
-1434 -1857 0
-1430 -1860 0
-1431 -1862 0
-1434 -1864 0
-1432 -1875 0
-1434 -1877 0
-1429 -1899 0
-1430 -1901 0
-1432 -1902 0
-1434 -1904 0
-1429 -1905 0
-1431 -1908 0
-1432 -1909 0
-1434 -1911 0
-1429 -1931 0
-1431 -1934 0
-1432 -1935 0
-1434 -1937 0
-1430 -1945 0
-1431 -1947 0
-1432 -1948 0
-1434 -1950 0
-1435 -1443 0
-1436 -1444 0
-1438 -1445 0
-1439 -1447 0
-1440 -1448 0
-1435 -1451 0
-1437 -1452 0
-1438 -1453 0
-1439 -1454 0
-1440 -1455 0
-1435 -1482 0
-1437 -1483 0
-1438 -1484 0
-1439 -1485 0
-1440 -1486 0
-1435 -1502 0
-1437 -1503 0
-1438 -1504 0
-1439 -1506 0
-1440 -1507 0
-1435 -1517 0
-1436 -1518 0
-1437 -1519 0
-1440 -1521 0
-1435 -1551 0
-1437 -1552 0
-1438 -1553 0
-1440 -1554 0
-1435 -1557 0
-1438 -1558 0
-1439 -1560 0
-1440 -1561 0
-1435 -1565 0
-1438 -1566 0
-1439 -1567 0
-1440 -1568 0
-1435 -1571 0
-1436 -1572 0
-1438 -1573 0
-1440 -1574 0
-1435 -1578 0
-1436 -1579 0
-1437 -1580 0
-1438 -1581 0
-1439 -1583 0
-1440 -1584 0
-1435 -1592 0
-1436 -1593 0
-1438 -1594 0
-1440 -1596 0
-1435 -1599 0
-1437 -1600 0
-1440 -1602 0
-1435 -1617 0
-1436 -1618 0
-1437 -1619 0
-1438 -1620 0
-1440 -1622 0
-1435 -1655 0
-1437 -1656 0
-1439 -1658 0
-1440 -1659 0
-1435 -1719 0
-1438 -1720 0
-1440 -1722 0
-1435 -1725 0
-1437 -1726 0
-1438 -1727 0
-1439 -1728 0
-1440 -1729 0
-1435 -1738 0
-1436 -1739 0
-1437 -1740 0
-1440 -1741 0
-1435 -1749 0
-1436 -1750 0
-1437 -1751 0
-1440 -1753 0
-1435 -1762 0
-1437 -1763 0
-1438 -1764 0
-1439 -1766 0
-1440 -1767 0
-1435 -1782 0
-1436 -1783 0
-1437 -1784 0
-1438 -1785 0
-1439 -1786 0
-1440 -1787 0
-1436 -1795 0
-1437 -1796 0
-1439 -1798 0
-1440 -1799 0
-1436 -1802 0
-1437 -1803 0
-1439 -1805 0
-1440 -1806 0
-1437 -1821 0
-1438 -1822 0
-1439 -1824 0
-1440 -1825 0
-1436 -1833 0
-1438 -1834 0
-1439 -1836 0
-1440 -1837 0
-1436 -1847 0
-1437 -1848 0
-1439 -1849 0
-1440 -1850 0
-1436 -1867 0
-1438 -1868 0
-1439 -1870 0
-1440 -1871 0
-1436 -1874 0
-1438 -1875 0
-1439 -1876 0
-1440 -1877 0
-1437 -1881 0
-1439 -1883 0
-1440 -1884 0
-1436 -1907 0
-1437 -1908 0
-1438 -1909 0
-1439 -1910 0
-1440 -1911 0
-1436 -1919 0
-1437 -1920 0
-1438 -1921 0
-1440 -1923 0
-1435 -1939 0
-1436 -1940 0
-1437 -1941 0
-1439 -1943 0
-1440 -1944 0
-1435 -1945 0
-1436 -1946 0
-1437 -1947 0
-1438 -1948 0
-1439 -1949 0
-1440 -1950 0
-1435 -1953 0
-1437 -1954 0
-1438 -1955 0
-1439 -1957 0
-1440 -1958 0
-1444 -1458 0
-1445 -1460 0
-1446 -1461 0
-1447 -1462 0
-1448 -1463 0
-1446 -1468 0
-1447 -1469 0
-1448 -1470 0
-1443 -1474 0
-1444 -1475 0
-1445 -1477 0
-1446 -1478 0
-1448 -1479 0
-1443 -1482 0
-1445 -1484 0
-1447 -1485 0
-1448 -1486 0
-1444 -1489 0
-1445 -1490 0
-1447 -1491 0
-1448 -1492 0
-1445 -1496 0
-1447 -1497 0
-1448 -1498 0
-1442 -1501 0
-1443 -1502 0
-1445 -1504 0
-1446 -1505 0
-1447 -1506 0
-1448 -1507 0
-1442 -1510 0
-1444 -1511 0
-1445 -1512 0
-1446 -1513 0
-1448 -1514 0
-1442 -1537 0
-1445 -1539 0
-1446 -1540 0
-1448 -1541 0
-1442 -1564 0
-1443 -1565 0
-1445 -1566 0
-1447 -1567 0
-1448 -1568 0
-1443 -1638 0
-1445 -1640 0
-1448 -1641 0
-1444 -1644 0
-1446 -1646 0
-1448 -1647 0
-1443 -1655 0
-1446 -1657 0
-1447 -1658 0
-1448 -1659 0
-1443 -1671 0
-1447 -1673 0
-1448 -1674 0
-1443 -1676 0
-1444 -1677 0
-1445 -1679 0
-1446 -1680 0
-1448 -1681 0
-1444 -1683 0
-1446 -1685 0
-1447 -1686 0
-1448 -1687 0
-1442 -1696 0
-1443 -1697 0
-1447 -1699 0
-1448 -1700 0
-1442 -1703 0
-1443 -1704 0
-1446 -1706 0
-1448 -1707 0
-1442 -1710 0
-1444 -1711 0
-1445 -1713 0
-1446 -1714 0
-1447 -1715 0
-1448 -1716 0
-1442 -1718 0
-1443 -1719 0
-1445 -1720 0
-1446 -1721 0
-1448 -1722 0
-1442 -1724 0
-1443 -1725 0
-1445 -1727 0
-1447 -1728 0
-1448 -1729 0
-1442 -1731 0
-1443 -1732 0
-1444 -1733 0
-1445 -1734 0
-1448 -1735 0
-1442 -1748 0
-1443 -1749 0
-1444 -1750 0
-1446 -1752 0
-1448 -1753 0
-1442 -1754 0
-1443 -1755 0
-1444 -1756 0
-1445 -1757 0
-1446 -1758 0
-1447 -1759 0
-1448 -1760 0
-1443 -1789 0
-1446 -1791 0
-1447 -1792 0
-1448 -1793 0
-1444 -1795 0
-1446 -1797 0
-1447 -1798 0
-1448 -1799 0
-1442 -1801 0
-1444 -1802 0
-1446 -1804 0
-1447 -1805 0
-1448 -1806 0
-1442 -1808 0
-1443 -1809 0
-1445 -1810 0
-1446 -1811 0
-1448 -1812 0
-1442 -1813 0
-1443 -1814 0
-1444 -1815 0
-1445 -1816 0
-1446 -1817 0
-1447 -1818 0
-1448 -1819 0
-1442 -1820 0
-1445 -1822 0
-1446 -1823 0
-1447 -1824 0
-1448 -1825 0
-1446 -1882 0
-1447 -1883 0
-1448 -1884 0
-1443 -1887 0
-1444 -1888 0
-1445 -1889 0
-1446 -1890 0
-1448 -1891 0
-1443 -1893 0
-1445 -1895 0
-1446 -1896 0
-1447 -1897 0
-1448 -1898 0
-1443 -1901 0
-1445 -1902 0
-1447 -1903 0
-1448 -1904 0
-1444 -1907 0
-1445 -1909 0
-1447 -1910 0
-1448 -1911 0
-1443 -1913 0
-1444 -1914 0
-1446 -1915 0
-1447 -1916 0
-1448 -1917 0
-1444 -1919 0
-1445 -1921 0
-1446 -1922 0
-1448 -1923 0
-1452 -1459 0
-1453 -1460 0
-1454 -1462 0
-1455 -1463 0
-1451 -1474 0
-1452 -1476 0
-1453 -1477 0
-1455 -1479 0
-1451 -1482 0
-1452 -1483 0
-1453 -1484 0
-1454 -1485 0
-1455 -1486 0
-1452 -1495 0
-1453 -1496 0
-1454 -1497 0
-1455 -1498 0
-1450 -1501 0
-1451 -1502 0
-1452 -1503 0
-1453 -1504 0
-1454 -1506 0
-1455 -1507 0
-1451 -1517 0
-1452 -1519 0
-1455 -1521 0
-1449 -1528 0
-1452 -1531 0
-1453 -1532 0
-1455 -1534 0
-1450 -1537 0
-1452 -1538 0
-1453 -1539 0
-1455 -1541 0
-1449 -1575 0
-1451 -1578 0
-1452 -1580 0
-1453 -1581 0
-1454 -1583 0
-1455 -1584 0
-1451 -1599 0
-1452 -1600 0
-1455 -1602 0
-1450 -1631 0
-1452 -1633 0
-1453 -1634 0
-1455 -1635 0
-1451 -1655 0
-1452 -1656 0
-1454 -1658 0
-1455 -1659 0
-1450 -1661 0
-1451 -1662 0
-1452 -1664 0
-1453 -1665 0
-1454 -1667 0
-1455 -1668 0
-1452 -1684 0
-1454 -1686 0
-1455 -1687 0
-1450 -1689 0
-1451 -1690 0
-1452 -1692 0
-1453 -1693 0
-1455 -1694 0
-1450 -1696 0
-1451 -1697 0
-1452 -1698 0
-1454 -1699 0
-1455 -1700 0
-1449 -1708 0
-1450 -1710 0
-1452 -1712 0
-1453 -1713 0
-1454 -1715 0
-1455 -1716 0
-1449 -1723 0
-1450 -1724 0
-1451 -1725 0
-1452 -1726 0
-1453 -1727 0
-1454 -1728 0
-1455 -1729 0
-1449 -1736 0
-1451 -1738 0
-1452 -1740 0
-1455 -1741 0
-1449 -1742 0
-1451 -1743 0
-1452 -1744 0
-1453 -1745 0
-1455 -1747 0
-1450 -1748 0
-1451 -1749 0
-1452 -1751 0
-1455 -1753 0
-1451 -1762 0
-1452 -1763 0
-1453 -1764 0
-1454 -1766 0
-1455 -1767 0
-1449 -1774 0
-1451 -1775 0
-1452 -1777 0
-1454 -1779 0
-1455 -1780 0
-1450 -1808 0
-1451 -1809 0
-1453 -1810 0
-1455 -1812 0
-1450 -1813 0
-1451 -1814 0
-1453 -1816 0
-1454 -1818 0
-1455 -1819 0
-1451 -1827 0
-1454 -1830 0
-1455 -1831 0
-1449 -1832 0
-1453 -1834 0
-1454 -1836 0
-1455 -1837 0
-1451 -1853 0
-1453 -1855 0
-1454 -1856 0
-1455 -1857 0
-1453 -1868 0
-1454 -1870 0
-1455 -1871 0
-1450 -1873 0
-1453 -1875 0
-1454 -1876 0
-1455 -1877 0
-1449 -1885 0
-1451 -1887 0
-1453 -1889 0
-1455 -1891 0
-1449 -1899 0
-1451 -1901 0
-1453 -1902 0
-1454 -1903 0
-1455 -1904 0
-1451 -1913 0
-1454 -1916 0
-1455 -1917 0
-1458 -1572 0
-1460 -1573 0
-1463 -1574 0
-1459 -1698 0
-1462 -1699 0
-1463 -1700 0
-1460 -1720 0
-1461 -1721 0
-1463 -1722 0
-1458 -1739 0
-1459 -1740 0
-1463 -1741 0
-1459 -1763 0
-1460 -1764 0
-1461 -1765 0
-1462 -1766 0
-1463 -1767 0
-1458 -1770 0
-1461 -1771 0
-1462 -1772 0
-1463 -1773 0
-1458 -1783 0
-1459 -1784 0
-1460 -1785 0
-1462 -1786 0
-1463 -1787 0
-1458 -1828 0
-1461 -1829 0
-1462 -1830 0
-1463 -1831 0
-1459 -1894 0
-1460 -1895 0
-1461 -1896 0
-1462 -1897 0
-1463 -1898 0
-1464 -1549 0
-1465 -1550 0
-1467 -1552 0
-1470 -1554 0
-1466 -1616 0
-1467 -1619 0
-1468 -1621 0
-1470 -1622 0
-1464 -1717 0
-1468 -1721 0
-1470 -1722 0
-1470 -1735 0
-1468 -1758 0
-1469 -1759 0
-1470 -1760 0
-1464 -1768 0
-1468 -1771 0
-1469 -1772 0
-1470 -1773 0
-1467 -1821 0
-1468 -1823 0
-1469 -1824 0
-1470 -1825 0
-1464 -1892 0
-1467 -1894 0
-1468 -1896 0
-1469 -1897 0
-1470 -1898 0
-1464 -1906 0
-1467 -1908 0
-1469 -1910 0
-1470 -1911 0
-1464 -1918 0
-1467 -1920 0
-1468 -1922 0
-1470 -1923 0
-1471 -1542 0
-1472 -1543 0
-1474 -1544 0
-1475 -1545 0
-1477 -1546 0
-1479 -1548 0
-1473 -1610 0
-1474 -1611 0
-1477 -1612 0
-1478 -1613 0
-1479 -1615 0
-1472 -1654 0
-1474 -1655 0
-1476 -1656 0
-1478 -1657 0
-1479 -1659 0
-1471 -1717 0
-1474 -1719 0
-1477 -1720 0
-1478 -1721 0
-1479 -1722 0
-1474 -1725 0
-1476 -1726 0
-1477 -1727 0
-1479 -1729 0
-1471 -1737 0
-1474 -1738 0
-1475 -1739 0
-1476 -1740 0
-1479 -1741 0
-1474 -1749 0
-1475 -1750 0
-1476 -1751 0
-1478 -1752 0
-1479 -1753 0
-1471 -1761 0
-1474 -1762 0
-1476 -1763 0
-1477 -1764 0
-1478 -1765 0
-1479 -1767 0
-1474 -1782 0
-1475 -1783 0
-1476 -1784 0
-1477 -1785 0
-1479 -1787 0
-1474 -1814 0
-1475 -1815 0
-1477 -1816 0
-1478 -1817 0
-1479 -1819 0
-1471 -1826 0
-1474 -1827 0
-1475 -1828 0
-1478 -1829 0
-1479 -1831 0
-1471 -1892 0
-1474 -1893 0
-1476 -1894 0
-1477 -1895 0
-1478 -1896 0
-1479 -1898 0
-1471 -1900 0
-1474 -1901 0
-1477 -1902 0
-1479 -1904 0
-1471 -1912 0
-1474 -1913 0
-1475 -1914 0
-1478 -1915 0
-1479 -1917 0
-1474 -1939 0
-1475 -1940 0
-1476 -1941 0
-1478 -1942 0
-1479 -1944 0
-1474 -1945 0
-1475 -1946 0
-1476 -1947 0
-1477 -1948 0
-1479 -1950 0
-1480 -1523 0
-1484 -1524 0
-1485 -1526 0
-1486 -1527 0
-1481 -1604 0
-1484 -1606 0
-1485 -1608 0
-1486 -1609 0
-1481 -1682 0
-1483 -1684 0
-1485 -1686 0
-1486 -1687 0
-1482 -1697 0
-1483 -1698 0
-1485 -1699 0
-1486 -1700 0
-1483 -1712 0
-1484 -1713 0
-1485 -1715 0
-1486 -1716 0
-1482 -1755 0
-1484 -1757 0
-1485 -1759 0
-1486 -1760 0
-1482 -1762 0
-1483 -1763 0
-1484 -1764 0
-1485 -1766 0
-1486 -1767 0
-1482 -1775 0
-1483 -1777 0
-1485 -1779 0
-1486 -1780 0
-1482 -1782 0
-1483 -1784 0
-1484 -1785 0
-1485 -1786 0
-1486 -1787 0
-1482 -1809 0
-1484 -1810 0
-1486 -1812 0
-1482 -1887 0
-1484 -1889 0
-1486 -1891 0
-1483 -1920 0
-1484 -1921 0
-1486 -1923 0
-1487 -1516 0
-1489 -1518 0
-1492 -1521 0
-1488 -1598 0
-1492 -1602 0
-1487 -1637 0
-1490 -1640 0
-1492 -1641 0
-1488 -1675 0
-1489 -1677 0
-1490 -1679 0
-1492 -1681 0
-1491 -1699 0
-1492 -1700 0
-1492 -1707 0
-1489 -1739 0
-1492 -1741 0
-1489 -1750 0
-1492 -1753 0
-1489 -1770 0
-1491 -1772 0
-1492 -1773 0
-1489 -1776 0
-1491 -1779 0
-1492 -1780 0
-1489 -1802 0
-1491 -1805 0
-1492 -1806 0
-1489 -1828 0
-1491 -1830 0
-1492 -1831 0
-1490 -1841 0
-1491 -1843 0
-1492 -1844 0
-1491 -1883 0
-1492 -1884 0
-1489 -1914 0
-1491 -1916 0
-1492 -1917 0
-1489 -1933 0
-1490 -1935 0
-1491 -1936 0
-1492 -1937 0
-1489 -1946 0
-1490 -1948 0
-1491 -1949 0
-1492 -1950 0
-1490 -1955 0
-1491 -1957 0
-1492 -1958 0
-1496 -1594 0
-1498 -1596 0
-1495 -1751 0
-1498 -1753 0
-1496 -1757 0
-1497 -1759 0
-1498 -1760 0
-1493 -1761 0
-1495 -1763 0
-1496 -1764 0
-1497 -1766 0
-1498 -1767 0
-1493 -1768 0
-1497 -1772 0
-1498 -1773 0
-1495 -1777 0
-1497 -1779 0
-1498 -1780 0
-1495 -1784 0
-1496 -1785 0
-1497 -1786 0
-1498 -1787 0
-1493 -1912 0
-1497 -1916 0
-1498 -1917 0
-1493 -1918 0
-1495 -1920 0
-1496 -1921 0
-1498 -1923 0
-1495 -1947 0
-1496 -1948 0
-1497 -1949 0
-1498 -1950 0
-1503 -1684 0
-1505 -1685 0
-1506 -1686 0
-1507 -1687 0
-1499 -1768 0
-1502 -1769 0
-1505 -1771 0
-1506 -1772 0
-1507 -1773 0
-1502 -1782 0
-1503 -1784 0
-1504 -1785 0
-1506 -1786 0
-1507 -1787 0
-1508 -1636 0
-1509 -1637 0
-1512 -1640 0
-1514 -1641 0
-1509 -1654 0
-1513 -1657 0
-1514 -1659 0
-1514 -1674 0
-1511 -1677 0
-1512 -1679 0
-1513 -1680 0
-1514 -1681 0
-1508 -1737 0
-1511 -1739 0
-1514 -1741 0
-1508 -1761 0
-1512 -1764 0
-1513 -1765 0
-1514 -1767 0
-1511 -1795 0
-1513 -1797 0
-1514 -1799 0
-1508 -1826 0
-1511 -1828 0
-1513 -1829 0
-1514 -1831 0
-1510 -1839 0
-1512 -1841 0
-1513 -1842 0
-1514 -1844 0
-1508 -1932 0
-1511 -1933 0
-1512 -1935 0
-1514 -1937 0
-1511 -1940 0
-1513 -1942 0
-1514 -1944 0
-1511 -1946 0
-1512 -1948 0
-1514 -1950 0
-1508 -1952 0
-1512 -1955 0
-1513 -1956 0
-1514 -1958 0
-1517 -1617 0
-1518 -1618 0
-1519 -1619 0
-1520 -1621 0
-1521 -1622 0
-1516 -1630 0
-1518 -1632 0
-1519 -1633 0
-1521 -1635 0
-1517 -1662 0
-1518 -1663 0
-1519 -1664 0
-1520 -1666 0
-1521 -1668 0
-1518 -1683 0
-1519 -1684 0
-1520 -1685 0
-1521 -1687 0
-1517 -1732 0
-1518 -1733 0
-1521 -1735 0
-1517 -1755 0
-1518 -1756 0
-1520 -1758 0
-1521 -1760 0
-1517 -1782 0
-1518 -1783 0
-1519 -1784 0
-1521 -1787 0
-1519 -1821 0
-1520 -1823 0
-1521 -1825 0
-1515 -1851 0
-1516 -1852 0
-1517 -1853 0
-1518 -1854 0
-1521 -1857 0
-1515 -1865 0
-1518 -1867 0
-1520 -1869 0
-1521 -1871 0
-1515 -1906 0
-1518 -1907 0
-1519 -1908 0
-1521 -1911 0
-1515 -1918 0
-1518 -1919 0
-1519 -1920 0
-1520 -1922 0
-1521 -1923 0
-1515 -1924 0
-1518 -1926 0
-1519 -1927 0
-1520 -1928 0
-1521 -1930 0
-1517 -1939 0
-1518 -1940 0
-1519 -1941 0
-1520 -1942 0
-1521 -1944 0
-1517 -1945 0
-1518 -1946 0
-1519 -1947 0
-1521 -1950 0
-1524 -1612 0
-1525 -1613 0
-1526 -1614 0
-1527 -1615 0
-1523 -1623 0
-1526 -1628 0
-1527 -1629 0
-1523 -1654 0
-1525 -1657 0
-1526 -1658 0
-1527 -1659 0
-1524 -1665 0
-1525 -1666 0
-1526 -1667 0
-1527 -1668 0
-1526 -1673 0
-1527 -1674 0
-1524 -1679 0
-1525 -1680 0
-1527 -1681 0
-1524 -1727 0
-1526 -1728 0
-1527 -1729 0
-1525 -1752 0
-1527 -1753 0
-1525 -1797 0
-1526 -1798 0
-1527 -1799 0
-1524 -1816 0
-1525 -1817 0
-1526 -1818 0
-1527 -1819 0
-1524 -1841 0
-1525 -1842 0
-1526 -1843 0
-1527 -1844 0
-1522 -1845 0
-1523 -1846 0
-1526 -1849 0
-1527 -1850 0
-1522 -1865 0
-1524 -1868 0
-1525 -1869 0
-1526 -1870 0
-1527 -1871 0
-1522 -1900 0
-1524 -1902 0
-1526 -1903 0
-1527 -1904 0
-1522 -1912 0
-1525 -1915 0
-1526 -1916 0
-1527 -1917 0
-1522 -1924 0
-1525 -1928 0
-1526 -1929 0
-1527 -1930 0
-1522 -1932 0
-1524 -1935 0
-1526 -1936 0
-1527 -1937 0
-1522 -1952 0
-1524 -1955 0
-1525 -1956 0
-1526 -1957 0
-1527 -1958 0
-1530 -1654 0
-1531 -1656 0
-1533 -1657 0
-1534 -1659 0
-1531 -1664 0
-1532 -1665 0
-1533 -1666 0
-1534 -1668 0
-1529 -1717 0
-1532 -1720 0
-1533 -1721 0
-1534 -1722 0
-1531 -1784 0
-1532 -1785 0
-1534 -1787 0
-1529 -1865 0
-1532 -1868 0
-1533 -1869 0
-1534 -1871 0
-1529 -1892 0
-1531 -1894 0
-1532 -1895 0
-1533 -1896 0
-1534 -1898 0
-1529 -1924 0
-1531 -1927 0
-1533 -1928 0
-1534 -1930 0
-1528 -1938 0
-1531 -1941 0
-1533 -1942 0
-1534 -1944 0
-1531 -1947 0
-1532 -1948 0
-1534 -1950 0
-1538 -1656 0
-1540 -1657 0
-1541 -1659 0
-1538 -1784 0
-1539 -1785 0
-1541 -1787 0
-1538 -1941 0
-1540 -1942 0
-1541 -1944 0
-1538 -1947 0
-1539 -1948 0
-1541 -1950 0
-1542 -1603 0
-1545 -1605 0
-1546 -1606 0
-1547 -1608 0
-1548 -1609 0
-1543 -1630 0
-1545 -1632 0
-1546 -1634 0
-1548 -1635 0
-1543 -1643 0
-1545 -1644 0
-1548 -1647 0
-1542 -1648 0
-1545 -1651 0
-1548 -1653 0
-1544 -1676 0
-1545 -1677 0
-1546 -1679 0
-1548 -1681 0
-1542 -1709 0
-1545 -1711 0
-1546 -1713 0
-1547 -1715 0
-1548 -1716 0
-1544 -1755 0
-1545 -1756 0
-1546 -1757 0
-1547 -1759 0
-1548 -1760 0
-1542 -1768 0
-1544 -1769 0
-1545 -1770 0
-1547 -1772 0
-1548 -1773 0
-1544 -1775 0
-1545 -1776 0
-1547 -1779 0
-1548 -1780 0
-1543 -1788 0
-1544 -1789 0
-1547 -1792 0
-1548 -1793 0
-1542 -1807 0
-1544 -1809 0
-1546 -1810 0
-1548 -1812 0
-1546 -1841 0
-1547 -1843 0
-1548 -1844 0
-1542 -1851 0
-1543 -1852 0
-1544 -1853 0
-1545 -1854 0
-1546 -1855 0
-1547 -1856 0
-1548 -1857 0
-1542 -1858 0
-1544 -1860 0
-1545 -1861 0
-1547 -1863 0
-1548 -1864 0
-1542 -1886 0
-1544 -1887 0
-1545 -1888 0
-1546 -1889 0
-1548 -1891 0
-1542 -1918 0
-1545 -1919 0
-1546 -1921 0
-1548 -1923 0
-1542 -1924 0
-1545 -1926 0
-1547 -1929 0
-1548 -1930 0
-1542 -1932 0
-1545 -1933 0
-1546 -1935 0
-1547 -1936 0
-1548 -1937 0
-1544 -1945 0
-1545 -1946 0
-1546 -1948 0
-1547 -1949 0
-1548 -1950 0
-1542 -1952 0
-1544 -1953 0
-1546 -1955 0
-1547 -1957 0
-1548 -1958 0
-1549 -1597 0
-1551 -1599 0
-1552 -1600 0
-1554 -1602 0
-1550 -1623 0
-1551 -1625 0
-1552 -1627 0
-1554 -1629 0
-1549 -1636 0
-1550 -1637 0
-1551 -1638 0
-1552 -1639 0
-1553 -1640 0
-1554 -1641 0
-1550 -1643 0
-1552 -1645 0
-1554 -1647 0
-1549 -1648 0
-1552 -1652 0
-1554 -1653 0
-1551 -1671 0
-1552 -1672 0
-1554 -1674 0
-1552 -1684 0
-1554 -1687 0
-1549 -1702 0
-1551 -1704 0
-1552 -1705 0
-1554 -1707 0
-1551 -1749 0
-1552 -1751 0
-1554 -1753 0
-1549 -1761 0
-1551 -1762 0
-1552 -1763 0
-1553 -1764 0
-1554 -1767 0
-1551 -1775 0
-1552 -1777 0
-1554 -1780 0
-1550 -1788 0
-1551 -1789 0
-1552 -1790 0
-1554 -1793 0
-1552 -1796 0
-1554 -1799 0
-1549 -1800 0
-1552 -1803 0
-1554 -1806 0
-1549 -1845 0
-1550 -1846 0
-1552 -1848 0
-1554 -1850 0
-1549 -1858 0
-1551 -1860 0
-1552 -1862 0
-1554 -1864 0
-1549 -1880 0
-1552 -1881 0
-1554 -1884 0
-1549 -1912 0
-1551 -1913 0
-1554 -1917 0
-1549 -1924 0
-1552 -1927 0
-1554 -1930 0
-1551 -1939 0
-1552 -1941 0
-1554 -1944 0
-1556 -1637 0
-1557 -1638 0
-1558 -1640 0
-1561 -1641 0
-1561 -1653 0
-1557 -1676 0
-1558 -1679 0
-1559 -1680 0
-1561 -1681 0
-1559 -1685 0
-1560 -1686 0
-1561 -1687 0
-1557 -1697 0
-1560 -1699 0
-1561 -1700 0
-1557 -1762 0
-1558 -1764 0
-1559 -1765 0
-1560 -1766 0
-1561 -1767 0
-1557 -1769 0
-1559 -1771 0
-1560 -1772 0
-1561 -1773 0
-1558 -1841 0
-1559 -1842 0
-1560 -1843 0
-1561 -1844 0
-1557 -1860 0
-1560 -1863 0
-1561 -1864 0
-1559 -1928 0
-1560 -1929 0
-1561 -1930 0
-1555 -1931 0
-1558 -1935 0
-1560 -1936 0
-1561 -1937 0
-1557 -1945 0
-1558 -1948 0
-1560 -1949 0
-1561 -1950 0
-1557 -1953 0
-1558 -1955 0
-1559 -1956 0
-1560 -1957 0
-1561 -1958 0
-1562 -1636 0
-1565 -1638 0
-1566 -1640 0
-1568 -1641 0
-1568 -1647 0
-1563 -1675 0
-1565 -1676 0
-1566 -1679 0
-1568 -1681 0
-1563 -1682 0
-1567 -1686 0
-1568 -1687 0
-1562 -1761 0
-1565 -1762 0
-1566 -1764 0
-1567 -1766 0
-1568 -1767 0
-1562 -1768 0
-1565 -1769 0
-1567 -1772 0
-1568 -1773 0
-1565 -1775 0
-1567 -1779 0
-1568 -1780 0
-1565 -1789 0
-1567 -1792 0
-1568 -1793 0
-1564 -1839 0
-1566 -1841 0
-1567 -1843 0
-1568 -1844 0
-1562 -1932 0
-1566 -1935 0
-1567 -1936 0
-1568 -1937 0
-1565 -1945 0
-1566 -1948 0
-1567 -1949 0
-1568 -1950 0
-1562 -1952 0
-1565 -1953 0
-1566 -1955 0
-1567 -1957 0
-1568 -1958 0
-1571 -1592 0
-1572 -1593 0
-1573 -1594 0
-1574 -1596 0
-1571 -1625 0
-1572 -1626 0
-1574 -1629 0
-1572 -1632 0
-1573 -1634 0
-1574 -1635 0
-1572 -1644 0
-1574 -1647 0
-1570 -1675 0
-1571 -1676 0
-1572 -1677 0
-1573 -1679 0
-1574 -1681 0
-1570 -1682 0
-1572 -1683 0
-1574 -1687 0
-1571 -1749 0
-1572 -1750 0
-1574 -1753 0
-1571 -1755 0
-1572 -1756 0
-1573 -1757 0
-1574 -1760 0
-1571 -1775 0
-1572 -1776 0
-1574 -1780 0
-1571 -1789 0
-1574 -1793 0
-1573 -1841 0
-1574 -1844 0
-1569 -1845 0
-1572 -1847 0
-1574 -1850 0
-1569 -1851 0
-1571 -1853 0
-1572 -1854 0
-1573 -1855 0
-1574 -1857 0
-1569 -1912 0
-1571 -1913 0
-1572 -1914 0
-1574 -1917 0
-1569 -1918 0
-1572 -1919 0
-1573 -1921 0
-1574 -1923 0
-1569 -1924 0
-1572 -1926 0
-1574 -1930 0
-1569 -1932 0
-1572 -1933 0
-1573 -1935 0
-1574 -1937 0
-1571 -1939 0
-1572 -1940 0
-1574 -1944 0
-1569 -1952 0
-1571 -1953 0
-1573 -1955 0
-1574 -1958 0
-1579 -1632 0
-1580 -1633 0
-1581 -1634 0
-1584 -1635 0
-1577 -1682 0
-1579 -1683 0
-1580 -1684 0
-1582 -1685 0
-1583 -1686 0
-1584 -1687 0
-1578 -1755 0
-1579 -1756 0
-1581 -1757 0
-1582 -1758 0
-1583 -1759 0
-1584 -1760 0
-1576 -1768 0
-1578 -1769 0
-1579 -1770 0
-1582 -1771 0
-1583 -1772 0
-1584 -1773 0
-1578 -1782 0
-1579 -1783 0
-1580 -1784 0
-1581 -1785 0
-1583 -1786 0
-1584 -1787 0
-1576 -1851 0
-1578 -1853 0
-1579 -1854 0
-1581 -1855 0
-1583 -1856 0
-1584 -1857 0
-1576 -1918 0
-1579 -1919 0
-1580 -1920 0
-1581 -1921 0
-1582 -1922 0
-1584 -1923 0
-1576 -1924 0
-1579 -1926 0
-1580 -1927 0
-1582 -1928 0
-1583 -1929 0
-1584 -1930 0
-1578 -1945 0
-1579 -1946 0
-1580 -1947 0
-1581 -1948 0
-1583 -1949 0
-1584 -1950 0
-1590 -1629 0
-1586 -1636 0
-1588 -1640 0
-1590 -1641 0
-1589 -1657 0
-1590 -1659 0
-1587 -1675 0
-1588 -1679 0
-1589 -1680 0
-1590 -1681 0
-1589 -1752 0
-1590 -1753 0
-1586 -1761 0
-1588 -1764 0
-1589 -1765 0
-1590 -1767 0
-1588 -1841 0
-1589 -1842 0
-1590 -1844 0
-1586 -1845 0
-1590 -1850 0
-1586 -1912 0
-1589 -1915 0
-1590 -1917 0
-1586 -1924 0
-1589 -1928 0
-1590 -1930 0
-1585 -1931 0
-1586 -1932 0
-1588 -1935 0
-1590 -1937 0
-1585 -1938 0
-1589 -1942 0
-1590 -1944 0
-1586 -1952 0
-1588 -1955 0
-1589 -1956 0
-1590 -1958 0
-1591 -1637 0
-1592 -1638 0
-1594 -1640 0
-1596 -1641 0
-1593 -1651 0
-1596 -1653 0
-1591 -1654 0
-1592 -1655 0
-1595 -1657 0
-1596 -1659 0
-1592 -1662 0
-1593 -1663 0
-1594 -1665 0
-1595 -1666 0
-1596 -1668 0
-1592 -1671 0
-1596 -1674 0
-1592 -1697 0
-1596 -1700 0
-1592 -1719 0
-1594 -1720 0
-1595 -1721 0
-1596 -1722 0
-1592 -1738 0
-1593 -1739 0
-1596 -1741 0
-1593 -1795 0
-1595 -1797 0
-1596 -1799 0
-1592 -1827 0
-1593 -1828 0
-1595 -1829 0
-1596 -1831 0
-1594 -1841 0
-1595 -1842 0
-1596 -1844 0
-1592 -1860 0
-1593 -1861 0
-1596 -1864 0
-1593 -1867 0
-1594 -1868 0
-1595 -1869 0
-1596 -1871 0
-1592 -1893 0
-1594 -1895 0
-1595 -1896 0
-1596 -1898 0
-1593 -1926 0
-1595 -1928 0
-1596 -1930 0
-1593 -1933 0
-1594 -1935 0
-1596 -1937 0
-1592 -1939 0
-1593 -1940 0
-1595 -1942 0
-1596 -1944 0
-1592 -1953 0
-1594 -1955 0
-1595 -1956 0
-1596 -1958 0
-1600 -1633 0
-1602 -1635 0
-1599 -1655 0
-1600 -1656 0
-1601 -1657 0
-1602 -1659 0
-1598 -1660 0
-1599 -1662 0
-1600 -1664 0
-1601 -1666 0
-1602 -1668 0
-1597 -1717 0
-1599 -1719 0
-1601 -1721 0
-1602 -1722 0
-1599 -1732 0
-1602 -1735 0
-1599 -1782 0
-1600 -1784 0
-1602 -1787 0
-1600 -1821 0
-1601 -1823 0
-1602 -1825 0
-1597 -1851 0
-1599 -1853 0
-1602 -1857 0
-1597 -1865 0
-1598 -1866 0
-1601 -1869 0
-1602 -1871 0
-1597 -1892 0
-1599 -1893 0
-1600 -1894 0
-1601 -1896 0
-1602 -1898 0
-1597 -1906 0
-1600 -1908 0
-1602 -1911 0
-1597 -1924 0
-1600 -1927 0
-1601 -1928 0
-1602 -1930 0
-1599 -1939 0
-1600 -1941 0
-1601 -1942 0
-1602 -1944 0
-1605 -1626 0
-1608 -1628 0
-1609 -1629 0
-1603 -1636 0
-1606 -1640 0
-1609 -1641 0
-1604 -1660 0
-1605 -1663 0
-1606 -1665 0
-1607 -1666 0
-1608 -1667 0
-1609 -1668 0
-1604 -1670 0
-1608 -1673 0
-1609 -1674 0
-1603 -1717 0
-1606 -1720 0
-1607 -1721 0
-1609 -1722 0
-1606 -1727 0
-1608 -1728 0
-1609 -1729 0
-1603 -1737 0
-1605 -1739 0
-1609 -1741 0
-1604 -1794 0
-1605 -1795 0
-1607 -1797 0
-1608 -1798 0
-1609 -1799 0
-1605 -1815 0
-1606 -1816 0
-1607 -1817 0
-1608 -1818 0
-1609 -1819 0
-1603 -1826 0
-1605 -1828 0
-1607 -1829 0
-1608 -1830 0
-1609 -1831 0
-1606 -1841 0
-1607 -1842 0
-1608 -1843 0
-1609 -1844 0
-1603 -1845 0
-1605 -1847 0
-1608 -1849 0
-1609 -1850 0
-1603 -1865 0
-1604 -1866 0
-1605 -1867 0
-1606 -1868 0
-1607 -1869 0
-1608 -1870 0
-1609 -1871 0
-1603 -1892 0
-1606 -1895 0
-1607 -1896 0
-1608 -1897 0
-1609 -1898 0
-1603 -1900 0
-1606 -1902 0
-1608 -1903 0
-1609 -1904 0
-1603 -1924 0
-1605 -1926 0
-1607 -1928 0
-1608 -1929 0
-1609 -1930 0
-1603 -1932 0
-1605 -1933 0
-1606 -1935 0
-1608 -1936 0
-1609 -1937 0
-1605 -1946 0
-1606 -1948 0
-1608 -1949 0
-1609 -1950 0
-1603 -1952 0
-1606 -1955 0
-1607 -1956 0
-1608 -1957 0
-1609 -1958 0
-1612 -1634 0
-1615 -1635 0
-1611 -1638 0
-1612 -1640 0
-1615 -1641 0
-1613 -1646 0
-1615 -1647 0
-1610 -1649 0
-1615 -1653 0
-1610 -1682 0
-1613 -1685 0
-1614 -1686 0
-1615 -1687 0
-1611 -1697 0
-1614 -1699 0
-1615 -1700 0
-1612 -1713 0
-1613 -1714 0
-1614 -1715 0
-1615 -1716 0
-1611 -1769 0
-1613 -1771 0
-1614 -1772 0
-1615 -1773 0
-1611 -1789 0
-1613 -1791 0
-1614 -1792 0
-1615 -1793 0
-1611 -1809 0
-1612 -1810 0
-1613 -1811 0
-1615 -1812 0
-1612 -1841 0
-1613 -1842 0
-1614 -1843 0
-1615 -1844 0
-1611 -1853 0
-1612 -1855 0
-1614 -1856 0
-1615 -1857 0
-1610 -1859 0
-1611 -1860 0
-1614 -1863 0
-1615 -1864 0
-1611 -1887 0
-1612 -1889 0
-1613 -1890 0
-1615 -1891 0
-1613 -1928 0
-1614 -1929 0
-1615 -1930 0
-1612 -1935 0
-1614 -1936 0
-1615 -1937 0
-1611 -1953 0
-1612 -1955 0
-1613 -1956 0
-1614 -1957 0
-1615 -1958 0
-1617 -1625 0
-1618 -1626 0
-1619 -1627 0
-1622 -1629 0
-1618 -1644 0
-1619 -1645 0
-1621 -1646 0
-1622 -1647 0
-1616 -1649 0
-1618 -1651 0
-1619 -1652 0
-1622 -1653 0
-1617 -1655 0
-1619 -1656 0
-1621 -1657 0
-1622 -1659 0
-1616 -1670 0
-1617 -1671 0
-1619 -1672 0
-1622 -1674 0
-1616 -1675 0
-1617 -1676 0
-1618 -1677 0
-1619 -1678 0
-1620 -1679 0
-1621 -1680 0
-1622 -1681 0
-1617 -1697 0
-1619 -1698 0
-1622 -1700 0
-1617 -1704 0
-1619 -1705 0
-1621 -1706 0
-1622 -1707 0
-1617 -1738 0
-1618 -1739 0
-1619 -1740 0
-1622 -1741 0
-1617 -1762 0
-1619 -1763 0
-1620 -1764 0
-1621 -1765 0
-1622 -1767 0
-1617 -1789 0
-1619 -1790 0
-1621 -1791 0
-1622 -1793 0
-1616 -1794 0
-1618 -1795 0
-1619 -1796 0
-1621 -1797 0
-1622 -1799 0
-1618 -1802 0
-1619 -1803 0
-1621 -1804 0
-1622 -1806 0
-1617 -1827 0
-1618 -1828 0
-1621 -1829 0
-1622 -1831 0
-1618 -1847 0
-1619 -1848 0
-1622 -1850 0
-1616 -1859 0
-1617 -1860 0
-1618 -1861 0
-1619 -1862 0
-1622 -1864 0
-1619 -1881 0
-1621 -1882 0
-1622 -1884 0
-1618 -1926 0
-1619 -1927 0
-1621 -1928 0
-1622 -1930 0
-1617 -1939 0
-1618 -1940 0
-1619 -1941 0
-1621 -1942 0
-1622 -1944 0
-1617 -1945 0
-1618 -1946 0
-1619 -1947 0
-1620 -1948 0
-1622 -1950 0
-1625 -1769 0
-1626 -1770 0
-1628 -1772 0
-1629 -1773 0
-1625 -1782 0
-1626 -1783 0
-1627 -1784 0
-1628 -1786 0
-1629 -1787 0
-1624 -1808 0
-1625 -1809 0
-1629 -1812 0
-1624 -1820 0
-1627 -1821 0
-1628 -1824 0
-1629 -1825 0
-1625 -1827 0
-1626 -1828 0
-1628 -1830 0
-1629 -1831 0
-1626 -1833 0
-1628 -1836 0
-1629 -1837 0
-1625 -1887 0
-1626 -1888 0
-1629 -1891 0
-1625 -1893 0
-1627 -1894 0
-1628 -1897 0
-1629 -1898 0
-1626 -1907 0
-1627 -1908 0
-1628 -1910 0
-1629 -1911 0
-1626 -1919 0
-1627 -1920 0
-1629 -1923 0
-1632 -1739 0
-1633 -1740 0
-1635 -1741 0
-1633 -1763 0
-1634 -1764 0
-1635 -1767 0
-1632 -1795 0
-1633 -1796 0
-1635 -1799 0
-1631 -1801 0
-1632 -1802 0
-1633 -1803 0
-1635 -1806 0
-1631 -1813 0
-1632 -1815 0
-1634 -1816 0
-1635 -1819 0
-1632 -1833 0
-1634 -1834 0
-1635 -1837 0
-1633 -1881 0
-1635 -1884 0
-1633 -1894 0
-1634 -1895 0
-1635 -1898 0
-1634 -1902 0
-1635 -1904 0
-1632 -1914 0
-1635 -1917 0
-1633 -1954 0
-1634 -1955 0
-1635 -1958 0
-1638 -1732 0
-1640 -1734 0
-1641 -1735 0
-1638 -1755 0
-1640 -1757 0
-1641 -1760 0
-1638 -1782 0
-1639 -1784 0
-1640 -1785 0
-1641 -1787 0
-1636 -1807 0
-1638 -1809 0
-1640 -1810 0
-1641 -1812 0
-1638 -1814 0
-1640 -1816 0
-1641 -1819 0
-1640 -1834 0
-1641 -1837 0
-1636 -1851 0
-1637 -1852 0
-1638 -1853 0
-1640 -1855 0
-1641 -1857 0
-1636 -1865 0
-1640 -1868 0
-1641 -1871 0
-1636 -1872 0
-1640 -1875 0
-1641 -1877 0
-1636 -1886 0
-1638 -1887 0
-1640 -1889 0
-1641 -1891 0
-1636 -1892 0
-1638 -1893 0
-1639 -1894 0
-1640 -1895 0
-1641 -1898 0
-1636 -1900 0
-1638 -1901 0
-1640 -1902 0
-1641 -1904 0
-1636 -1912 0
-1638 -1913 0
-1641 -1917 0
-1646 -1721 0
-1647 -1722 0
-1644 -1783 0
-1645 -1784 0
-1647 -1787 0
-1644 -1815 0
-1646 -1817 0
-1647 -1819 0
-1645 -1821 0
-1646 -1823 0
-1647 -1825 0
-1644 -1828 0
-1646 -1829 0
-1647 -1831 0
-1644 -1867 0
-1646 -1869 0
-1647 -1871 0
-1644 -1874 0
-1647 -1877 0
-1642 -1899 0
-1647 -1904 0
-1642 -1905 0
-1644 -1907 0
-1645 -1908 0
-1647 -1911 0
-1644 -1914 0
-1646 -1915 0
-1647 -1917 0
-1644 -1919 0
-1645 -1920 0
-1646 -1922 0
-1647 -1923 0
-1651 -1783 0
-1652 -1784 0
-1653 -1787 0
-1650 -1813 0
-1651 -1815 0
-1653 -1819 0
-1650 -1820 0
-1652 -1821 0
-1653 -1825 0
-1648 -1826 0
-1651 -1828 0
-1653 -1831 0
-1651 -1833 0
-1653 -1837 0
-1648 -1892 0
-1652 -1894 0
-1653 -1898 0
-1648 -1900 0
-1653 -1904 0
-1648 -1906 0
-1651 -1907 0
-1652 -1908 0
-1653 -1911 0
-1648 -1912 0
-1651 -1914 0
-1653 -1917 0
-1648 -1918 0
-1651 -1919 0
-1652 -1920 0
-1653 -1923 0
-1656 -1684 0
-1657 -1685 0
-1658 -1686 0
-1659 -1687 0
-1656 -1712 0
-1657 -1714 0
-1658 -1715 0
-1659 -1716 0
-1655 -1755 0
-1657 -1758 0
-1658 -1759 0
-1659 -1760 0
-1655 -1769 0
-1657 -1771 0
-1658 -1772 0
-1659 -1773 0
-1655 -1775 0
-1656 -1777 0
-1657 -1778 0
-1658 -1779 0
-1659 -1780 0
-1654 -1788 0
-1655 -1789 0
-1656 -1790 0
-1657 -1791 0
-1658 -1792 0
-1659 -1793 0
-1656 -1803 0
-1657 -1804 0
-1658 -1805 0
-1659 -1806 0
-1656 -1821 0
-1657 -1823 0
-1658 -1824 0
-1659 -1825 0
-1657 -1835 0
-1658 -1836 0
-1659 -1837 0
-1654 -1852 0
-1655 -1853 0
-1658 -1856 0
-1659 -1857 0
-1655 -1860 0
-1656 -1862 0
-1658 -1863 0
-1659 -1864 0
-1658 -1876 0
-1659 -1877 0
-1656 -1881 0
-1657 -1882 0
-1658 -1883 0
-1659 -1884 0
-1656 -1908 0
-1658 -1910 0
-1659 -1911 0
-1655 -1913 0
-1657 -1915 0
-1658 -1916 0
-1659 -1917 0
-1655 -1953 0
-1656 -1954 0
-1657 -1956 0
-1658 -1957 0
-1659 -1958 0
-1662 -1762 0
-1664 -1763 0
-1665 -1764 0
-1666 -1765 0
-1667 -1766 0
-1668 -1767 0
-1662 -1769 0
-1663 -1770 0
-1666 -1771 0
-1667 -1772 0
-1668 -1773 0
-1662 -1775 0
-1663 -1776 0
-1664 -1777 0
-1666 -1778 0
-1667 -1779 0
-1668 -1780 0
-1662 -1789 0
-1664 -1790 0
-1666 -1791 0
-1667 -1792 0
-1668 -1793 0
-1661 -1801 0
-1663 -1802 0
-1664 -1803 0
-1666 -1804 0
-1667 -1805 0
-1668 -1806 0
-1661 -1808 0
-1662 -1809 0
-1665 -1810 0
-1666 -1811 0
-1668 -1812 0
-1662 -1827 0
-1663 -1828 0
-1666 -1829 0
-1667 -1830 0
-1668 -1831 0
-1663 -1833 0
-1665 -1834 0
-1666 -1835 0
-1667 -1836 0
-1668 -1837 0
-1664 -1881 0
-1666 -1882 0
-1667 -1883 0
-1668 -1884 0
-1662 -1887 0
-1663 -1888 0
-1665 -1889 0
-1666 -1890 0
-1668 -1891 0
-1662 -1913 0
-1663 -1914 0
-1666 -1915 0
-1667 -1916 0
-1668 -1917 0
-1663 -1919 0
-1664 -1920 0
-1665 -1921 0
-1666 -1922 0
-1668 -1923 0
-1662 -1953 0
-1664 -1954 0
-1665 -1955 0
-1666 -1956 0
-1667 -1957 0
-1668 -1958 0
-1671 -1755 0
-1673 -1759 0
-1674 -1760 0
-1671 -1769 0
-1673 -1772 0
-1674 -1773 0
-1671 -1782 0
-1672 -1784 0
-1673 -1786 0
-1674 -1787 0
-1671 -1809 0
-1674 -1812 0
-1672 -1821 0
-1673 -1824 0
-1674 -1825 0
-1671 -1853 0
-1673 -1856 0
-1674 -1857 0
-1673 -1876 0
-1674 -1877 0
-1669 -1885 0
-1671 -1887 0
-1674 -1891 0
-1671 -1893 0
-1672 -1894 0
-1673 -1897 0
-1674 -1898 0
-1669 -1905 0
-1672 -1908 0
-1673 -1910 0
-1674 -1911 0
-1671 -1913 0
-1673 -1916 0
-1674 -1917 0
-1676 -1719 0
-1679 -1720 0
-1680 -1721 0
-1681 -1722 0
-1676 -1732 0
-1677 -1733 0
-1679 -1734 0
-1681 -1735 0
-1676 -1782 0
-1677 -1783 0
-1678 -1784 0
-1679 -1785 0
-1681 -1787 0
-1676 -1809 0
-1679 -1810 0
-1680 -1811 0
-1681 -1812 0
-1676 -1814 0
-1677 -1815 0
-1679 -1816 0
-1680 -1817 0
-1681 -1819 0
-1676 -1827 0
-1677 -1828 0
-1680 -1829 0
-1681 -1831 0
-1677 -1833 0
-1679 -1834 0
-1680 -1835 0
-1681 -1837 0
-1676 -1853 0
-1677 -1854 0
-1679 -1855 0
-1681 -1857 0
-1675 -1866 0
-1677 -1867 0
-1679 -1868 0
-1680 -1869 0
-1681 -1871 0
-1677 -1874 0
-1679 -1875 0
-1681 -1877 0
-1676 -1887 0
-1677 -1888 0
-1679 -1889 0
-1680 -1890 0
-1681 -1891 0
-1676 -1901 0
-1679 -1902 0
-1681 -1904 0
-1677 -1919 0
-1678 -1920 0
-1679 -1921 0
-1680 -1922 0
-1681 -1923 0
-1685 -1721 0
-1687 -1722 0
-1684 -1726 0
-1686 -1728 0
-1687 -1729 0
-1683 -1739 0
-1684 -1740 0
-1687 -1741 0
-1682 -1794 0
-1683 -1795 0
-1684 -1796 0
-1685 -1797 0
-1686 -1798 0
-1687 -1799 0
-1683 -1802 0
-1684 -1803 0
-1685 -1804 0
-1686 -1805 0
-1687 -1806 0
-1684 -1821 0
-1685 -1823 0
-1686 -1824 0
-1687 -1825 0
-1683 -1833 0
-1685 -1835 0
-1686 -1836 0
-1687 -1837 0
-1683 -1847 0
-1684 -1848 0
-1686 -1849 0
-1687 -1850 0
-1682 -1866 0
-1683 -1867 0
-1685 -1869 0
-1686 -1870 0
-1687 -1871 0
-1683 -1874 0
-1686 -1876 0
-1687 -1877 0
-1684 -1881 0
-1685 -1882 0
-1686 -1883 0
-1687 -1884 0
-1683 -1907 0
-1684 -1908 0
-1686 -1910 0
-1687 -1911 0
-1683 -1914 0
-1685 -1915 0
-1686 -1916 0
-1687 -1917 0
-1683 -1940 0
-1684 -1941 0
-1685 -1942 0
-1686 -1943 0
-1687 -1944 0
-1684 -1954 0
-1685 -1956 0
-1686 -1957 0
-1687 -1958 0
-1690 -1789 0
-1692 -1790 0
-1694 -1793 0
-1691 -1795 0
-1692 -1796 0
-1694 -1799 0
-1688 -1826 0
-1690 -1827 0
-1691 -1828 0
-1694 -1831 0
-1691 -1833 0
-1693 -1834 0
-1694 -1837 0
-1688 -1952 0
-1690 -1953 0
-1692 -1954 0
-1693 -1955 0
-1694 -1958 0
-1697 -1789 0
-1698 -1790 0
-1699 -1792 0
-1700 -1793 0
-1698 -1796 0
-1699 -1798 0
-1700 -1799 0
-1696 -1813 0
-1697 -1814 0
-1699 -1818 0
-1700 -1819 0
-1696 -1820 0
-1698 -1821 0
-1699 -1824 0
-1700 -1825 0
-1699 -1836 0
-1700 -1837 0
-1695 -1845 0
-1698 -1848 0
-1699 -1849 0
-1700 -1850 0
-1695 -1851 0
-1697 -1853 0
-1699 -1856 0
-1700 -1857 0
-1695 -1865 0
-1699 -1870 0
-1700 -1871 0
-1695 -1900 0
-1697 -1901 0
-1699 -1903 0
-1700 -1904 0
-1695 -1906 0
-1698 -1908 0
-1699 -1910 0
-1700 -1911 0
-1695 -1912 0
-1697 -1913 0
-1699 -1916 0
-1700 -1917 0
-1695 -1918 0
-1698 -1920 0
-1700 -1923 0
-1697 -1939 0
-1698 -1941 0
-1699 -1943 0
-1700 -1944 0
-1697 -1945 0
-1698 -1947 0
-1699 -1949 0
-1700 -1950 0
-1695 -1952 0
-1697 -1953 0
-1698 -1954 0
-1699 -1957 0
-1700 -1958 0
-1704 -1782 0
-1705 -1784 0
-1707 -1787 0
-1703 -1820 0
-1705 -1821 0
-1706 -1823 0
-1707 -1825 0
-1702 -1851 0
-1704 -1853 0
-1707 -1857 0
-1702 -1865 0
-1706 -1869 0
-1707 -1871 0
-1702 -1892 0
-1704 -1893 0
-1705 -1894 0
-1706 -1896 0
-1707 -1898 0
-1701 -1905 0
-1702 -1906 0
-1705 -1908 0
-1707 -1911 0
-1702 -1918 0
-1705 -1920 0
-1706 -1922 0
-1707 -1923 0
-1711 -1795 0
-1712 -1796 0
-1714 -1797 0
-1715 -1798 0
-1716 -1799 0
-1710 -1813 0
-1711 -1815 0
-1713 -1816 0
-1714 -1817 0
-1715 -1818 0
-1716 -1819 0
-1709 -1826 0
-1711 -1828 0
-1714 -1829 0
-1715 -1830 0
-1716 -1831 0
-1709 -1845 0
-1711 -1847 0
-1712 -1848 0
-1715 -1849 0
-1716 -1850 0
-1709 -1865 0
-1711 -1867 0
-1713 -1868 0
-1714 -1869 0
-1715 -1870 0
-1716 -1871 0
-1709 -1892 0
-1712 -1894 0
-1713 -1895 0
-1714 -1896 0
-1715 -1897 0
-1716 -1898 0
-1708 -1899 0
-1709 -1900 0
-1713 -1902 0
-1715 -1903 0
-1716 -1904 0
-1709 -1912 0
-1711 -1914 0
-1714 -1915 0
-1715 -1916 0
-1716 -1917 0
-1708 -1938 0
-1711 -1940 0
-1712 -1941 0
-1714 -1942 0
-1715 -1943 0
-1716 -1944 0
-1711 -1946 0
-1712 -1947 0
-1713 -1948 0
-1715 -1949 0
-1716 -1950 0
-1709 -1952 0
-1712 -1954 0
-1713 -1955 0
-1714 -1956 0
-1715 -1957 0
-1716 -1958 0
-1719 -1775 0
-1721 -1778 0
-1722 -1780 0
-1721 -1797 0
-1722 -1799 0
-1717 -1800 0
-1718 -1801 0
-1721 -1804 0
-1722 -1806 0
-1717 -1807 0
-1718 -1808 0
-1719 -1809 0
-1720 -1810 0
-1721 -1811 0
-1722 -1812 0
-1720 -1834 0
-1721 -1835 0
-1722 -1837 0
-1718 -1839 0
-1720 -1841 0
-1721 -1842 0
-1722 -1844 0
-1717 -1845 0
-1722 -1850 0
-1717 -1851 0
-1719 -1853 0
-1720 -1855 0
-1722 -1857 0
-1717 -1858 0
-1719 -1860 0
-1722 -1864 0
-1717 -1880 0
-1721 -1882 0
-1722 -1884 0
-1717 -1886 0
-1719 -1887 0
-1720 -1889 0
-1721 -1890 0
-1722 -1891 0
-1717 -1912 0
-1719 -1913 0
-1721 -1915 0
-1722 -1917 0
-1717 -1918 0
-1720 -1921 0
-1721 -1922 0
-1722 -1923 0
-1717 -1932 0
-1720 -1935 0
-1722 -1937 0
-1719 -1945 0
-1720 -1948 0
-1722 -1950 0
-1725 -1769 0
-1728 -1772 0
-1729 -1773 0
-1725 -1789 0
-1726 -1790 0
-1728 -1792 0
-1729 -1793 0
-1724 -1808 0
-1725 -1809 0
-1727 -1810 0
-1729 -1812 0
-1725 -1853 0
-1727 -1855 0
-1728 -1856 0
-1729 -1857 0
-1725 -1860 0
-1726 -1862 0
-1728 -1863 0
-1729 -1864 0
-1723 -1885 0
-1725 -1887 0
-1727 -1889 0
-1729 -1891 0
-1726 -1920 0
-1727 -1921 0
-1729 -1923 0
-1725 -1953 0
-1726 -1954 0
-1727 -1955 0
-1728 -1957 0
-1729 -1958 0
-1732 -1762 0
-1734 -1764 0
-1735 -1767 0
-1732 -1789 0
-1735 -1793 0
-1733 -1795 0
-1735 -1799 0
-1731 -1801 0
-1733 -1802 0
-1735 -1806 0
-1732 -1827 0
-1733 -1828 0
-1735 -1831 0
-1731 -1839 0
-1734 -1841 0
-1735 -1844 0
-1733 -1847 0
-1735 -1850 0
-1732 -1860 0
-1733 -1861 0
-1735 -1864 0
-1730 -1879 0
-1735 -1884 0
-1732 -1913 0
-1733 -1914 0
-1735 -1917 0
-1730 -1931 0
-1733 -1933 0
-1734 -1935 0
-1735 -1937 0
-1732 -1945 0
-1733 -1946 0
-1734 -1948 0
-1735 -1950 0
-1738 -1755 0
-1739 -1756 0
-1741 -1760 0
-1738 -1789 0
-1740 -1790 0
-1741 -1793 0
-1737 -1807 0
-1738 -1809 0
-1741 -1812 0
-1740 -1821 0
-1741 -1825 0
-1737 -1845 0
-1739 -1847 0
-1740 -1848 0
-1741 -1850 0
-1737 -1858 0
-1738 -1860 0
-1739 -1861 0
-1740 -1862 0
-1741 -1864 0
-1737 -1865 0
-1739 -1867 0
-1741 -1871 0
-1737 -1872 0
-1739 -1874 0
-1741 -1877 0
-1736 -1885 0
-1737 -1886 0
-1738 -1887 0
-1739 -1888 0
-1741 -1891 0
-1736 -1905 0
-1737 -1906 0
-1739 -1907 0
-1740 -1908 0
-1741 -1911 0
-1737 -1912 0
-1738 -1913 0
-1739 -1914 0
-1741 -1917 0
-1737 -1924 0
-1739 -1926 0
-1740 -1927 0
-1741 -1930 0
-1738 -1945 0
-1739 -1946 0
-1740 -1947 0
-1741 -1950 0
-1737 -1952 0
-1738 -1953 0
-1740 -1954 0
-1741 -1958 0
-1744 -1848 0
-1747 -1850 0
-1743 -1853 0
-1745 -1855 0
-1747 -1857 0
-1743 -1860 0
-1744 -1862 0
-1747 -1864 0
-1745 -1868 0
-1746 -1869 0
-1747 -1871 0
-1745 -1875 0
-1747 -1877 0
-1743 -1893 0
-1744 -1894 0
-1745 -1895 0
-1746 -1896 0
-1747 -1898 0
-1743 -1913 0
-1746 -1915 0
-1747 -1917 0
-1744 -1920 0
-1745 -1921 0
-1746 -1922 0
-1747 -1923 0
-1744 -1927 0
-1746 -1928 0
-1747 -1930 0
-1743 -1945 0
-1744 -1947 0
-1745 -1948 0
-1747 -1950 0
-1743 -1953 0
-1744 -1954 0
-1745 -1955 0
-1746 -1956 0
-1747 -1958 0
-1749 -1789 0
-1751 -1790 0
-1752 -1791 0
-1753 -1793 0
-1750 -1795 0
-1751 -1796 0
-1752 -1797 0
-1753 -1799 0
-1748 -1808 0
-1749 -1809 0
-1752 -1811 0
-1753 -1812 0
-1748 -1820 0
-1751 -1821 0
-1752 -1823 0
-1753 -1825 0
-1749 -1827 0
-1750 -1828 0
-1752 -1829 0
-1753 -1831 0
-1750 -1833 0
-1752 -1835 0
-1753 -1837 0
-1749 -1853 0
-1750 -1854 0
-1753 -1857 0
-1749 -1860 0
-1750 -1861 0
-1751 -1862 0
-1753 -1864 0
-1750 -1867 0
-1752 -1869 0
-1753 -1871 0
-1749 -1887 0
-1750 -1888 0
-1752 -1890 0
-1753 -1891 0
-1749 -1893 0
-1751 -1894 0
-1752 -1896 0
-1753 -1898 0
-1750 -1907 0
-1751 -1908 0
-1753 -1911 0
-1749 -1953 0
-1751 -1954 0
-1752 -1956 0
-1753 -1958 0
-1755 -1789 0
-1758 -1791 0
-1759 -1792 0
-1760 -1793 0
-1754 -1801 0
-1756 -1802 0
-1758 -1804 0
-1759 -1805 0
-1760 -1806 0
-1754 -1813 0
-1755 -1814 0
-1756 -1815 0
-1757 -1816 0
-1758 -1817 0
-1759 -1818 0
-1760 -1819 0
-1756 -1833 0
-1757 -1834 0
-1758 -1835 0
-1759 -1836 0
-1760 -1837 0
-1754 -1839 0
-1757 -1841 0
-1758 -1842 0
-1759 -1843 0
-1760 -1844 0
-1756 -1847 0
-1759 -1849 0
-1760 -1850 0
-1755 -1860 0
-1756 -1861 0
-1759 -1863 0
-1760 -1864 0
-1756 -1867 0
-1757 -1868 0
-1758 -1869 0
-1759 -1870 0
-1760 -1871 0
-1758 -1882 0
-1759 -1883 0
-1760 -1884 0
-1755 -1893 0
-1757 -1895 0
-1758 -1896 0
-1759 -1897 0
-1760 -1898 0
-1755 -1901 0
-1757 -1902 0
-1759 -1903 0
-1760 -1904 0
-1756 -1933 0
-1757 -1935 0
-1759 -1936 0
-1760 -1937 0
-1755 -1939 0
-1756 -1940 0
-1758 -1942 0
-1759 -1943 0
-1760 -1944 0
-1762 -1789 0
-1763 -1790 0
-1765 -1791 0
-1766 -1792 0
-1767 -1793 0
-1763 -1796 0
-1765 -1797 0
-1766 -1798 0
-1767 -1799 0
-1761 -1807 0
-1762 -1809 0
-1764 -1810 0
-1765 -1811 0
-1767 -1812 0
-1762 -1814 0
-1764 -1816 0
-1765 -1817 0
-1766 -1818 0
-1767 -1819 0
-1764 -1834 0
-1765 -1835 0
-1766 -1836 0
-1767 -1837 0
-1761 -1845 0
-1763 -1848 0
-1766 -1849 0
-1767 -1850 0
-1761 -1858 0
-1762 -1860 0
-1763 -1862 0
-1766 -1863 0
-1767 -1864 0
-1761 -1872 0
-1764 -1875 0
-1766 -1876 0
-1767 -1877 0
-1761 -1886 0
-1762 -1887 0
-1764 -1889 0
-1765 -1890 0
-1767 -1891 0
-1761 -1892 0
-1762 -1893 0
-1763 -1894 0
-1764 -1895 0
-1765 -1896 0
-1766 -1897 0
-1767 -1898 0
-1761 -1900 0
-1762 -1901 0
-1764 -1902 0
-1766 -1903 0
-1767 -1904 0
-1761 -1918 0
-1763 -1920 0
-1764 -1921 0
-1765 -1922 0
-1767 -1923 0
-1761 -1924 0
-1763 -1927 0
-1765 -1928 0
-1766 -1929 0
-1767 -1930 0
-1762 -1939 0
-1763 -1941 0
-1765 -1942 0
-1766 -1943 0
-1767 -1944 0
-1761 -1952 0
-1762 -1953 0
-1763 -1954 0
-1764 -1955 0
-1765 -1956 0
-1766 -1957 0
-1767 -1958 0
-1769 -1789 0
-1771 -1791 0
-1772 -1792 0
-1773 -1793 0
-1768 -1800 0
-1770 -1802 0
-1771 -1804 0
-1772 -1805 0
-1773 -1806 0
-1771 -1823 0
-1772 -1824 0
-1773 -1825 0
-1768 -1826 0
-1769 -1827 0
-1770 -1828 0
-1771 -1829 0
-1772 -1830 0
-1773 -1831 0
-1770 -1833 0
-1771 -1835 0
-1772 -1836 0
-1773 -1837 0
-1771 -1842 0
-1772 -1843 0
-1773 -1844 0
-1768 -1851 0
-1769 -1853 0
-1770 -1854 0
-1772 -1856 0
-1773 -1857 0
-1768 -1858 0
-1769 -1860 0
-1770 -1861 0
-1772 -1863 0
-1773 -1864 0
-1768 -1872 0
-1770 -1874 0
-1772 -1876 0
-1773 -1877 0
-1768 -1880 0
-1771 -1882 0
-1772 -1883 0
-1773 -1884 0
-1768 -1892 0
-1769 -1893 0
-1771 -1896 0
-1772 -1897 0
-1773 -1898 0
-1768 -1906 0
-1770 -1907 0
-1772 -1910 0
-1773 -1911 0
-1768 -1912 0
-1769 -1913 0
-1770 -1914 0
-1771 -1915 0
-1772 -1916 0
-1773 -1917 0
-1768 -1924 0
-1770 -1926 0
-1771 -1928 0
-1772 -1929 0
-1773 -1930 0
-1768 -1932 0
-1770 -1933 0
-1772 -1936 0
-1773 -1937 0
-1769 -1945 0
-1770 -1946 0
-1772 -1949 0
-1773 -1950 0
-1776 -1795 0
-1777 -1796 0
-1778 -1797 0
-1779 -1798 0
-1780 -1799 0
-1775 -1814 0
-1776 -1815 0
-1778 -1817 0
-1779 -1818 0
-1780 -1819 0
-1777 -1821 0
-1778 -1823 0
-1779 -1824 0
-1780 -1825 0
-1775 -1827 0
-1776 -1828 0
-1778 -1829 0
-1779 -1830 0
-1780 -1831 0
-1776 -1847 0
-1777 -1848 0
-1779 -1849 0
-1780 -1850 0
-1775 -1853 0
-1776 -1854 0
-1779 -1856 0
-1780 -1857 0
-1775 -1860 0
-1776 -1861 0
-1777 -1862 0
-1779 -1863 0
-1780 -1864 0
-1776 -1874 0
-1779 -1876 0
-1780 -1877 0
-1774 -1899 0
-1775 -1901 0
-1779 -1903 0
-1780 -1904 0
-1774 -1905 0
-1776 -1907 0
-1777 -1908 0
-1779 -1910 0
-1780 -1911 0
-1776 -1926 0
-1777 -1927 0
-1778 -1928 0
-1779 -1929 0
-1780 -1930 0
-1774 -1938 0
-1775 -1939 0
-1776 -1940 0
-1777 -1941 0
-1778 -1942 0
-1779 -1943 0
-1780 -1944 0
-1775 -1953 0
-1777 -1954 0
-1778 -1956 0
-1779 -1957 0
-1780 -1958 0
-1782 -1809 0
-1785 -1810 0
-1787 -1812 0
-1782 -1814 0
-1783 -1815 0
-1785 -1816 0
-1786 -1818 0
-1787 -1819 0
-1782 -1827 0
-1783 -1828 0
-1786 -1830 0
-1787 -1831 0
-1783 -1833 0
-1785 -1834 0
-1786 -1836 0
-1787 -1837 0
-1782 -1853 0
-1783 -1854 0
-1785 -1855 0
-1786 -1856 0
-1787 -1857 0
-1783 -1867 0
-1785 -1868 0
-1786 -1870 0
-1787 -1871 0
-1783 -1874 0
-1785 -1875 0
-1786 -1876 0
-1787 -1877 0
-1782 -1887 0
-1783 -1888 0
-1785 -1889 0
-1787 -1891 0
-1782 -1901 0
-1785 -1902 0
-1786 -1903 0
-1787 -1904 0
-1782 -1913 0
-1783 -1914 0
-1786 -1916 0
-1787 -1917 0
-1783 -1926 0
-1784 -1927 0
-1786 -1929 0
-1787 -1930 0
-1782 -1939 0
-1783 -1940 0
-1784 -1941 0
-1786 -1943 0
-1787 -1944 0
-1782 -1945 0
-1783 -1946 0
-1784 -1947 0
-1785 -1948 0
-1786 -1949 0
-1787 -1950 0
-1791 -1869 0
-1792 -1870 0
-1793 -1871 0
-1792 -1876 0
-1793 -1877 0
-1789 -1901 0
-1792 -1903 0
-1793 -1904 0
-1790 -1908 0
-1792 -1910 0
-1793 -1911 0
-1789 -1913 0
-1791 -1915 0
-1792 -1916 0
-1793 -1917 0
-1790 -1920 0
-1791 -1922 0
-1793 -1923 0
-1790 -1927 0
-1791 -1928 0
-1792 -1929 0
-1793 -1930 0
-1789 -1939 0
-1790 -1941 0
-1791 -1942 0
-1792 -1943 0
-1793 -1944 0
-1789 -1945 0
-1790 -1947 0
-1792 -1949 0
-1793 -1950 0
-1795 -1854 0
-1798 -1856 0
-1799 -1857 0
-1795 -1874 0
-1798 -1876 0
-1799 -1877 0
-1795 -1888 0
-1797 -1890 0
-1799 -1891 0
-1796 -1894 0
-1797 -1896 0
-1798 -1897 0
-1799 -1898 0
-1795 -1907 0
-1796 -1908 0
-1798 -1910 0
-1799 -1911 0
-1795 -1914 0
-1797 -1915 0
-1798 -1916 0
-1799 -1917 0
-1795 -1926 0
-1796 -1927 0
-1797 -1928 0
-1798 -1929 0
-1799 -1930 0
-1795 -1946 0
-1796 -1947 0
-1798 -1949 0
-1799 -1950 0
-1800 -1851 0
-1802 -1854 0
-1805 -1856 0
-1806 -1857 0
-1800 -1865 0
-1802 -1867 0
-1804 -1869 0
-1805 -1870 0
-1806 -1871 0
-1800 -1892 0
-1803 -1894 0
-1804 -1896 0
-1805 -1897 0
-1806 -1898 0
-1800 -1906 0
-1802 -1907 0
-1803 -1908 0
-1805 -1910 0
-1806 -1911 0
-1800 -1918 0
-1802 -1919 0
-1803 -1920 0
-1804 -1922 0
-1806 -1923 0
-1800 -1924 0
-1801 -1925 0
-1802 -1926 0
-1803 -1927 0
-1804 -1928 0
-1805 -1929 0
-1806 -1930 0
-1802 -1940 0
-1803 -1941 0
-1804 -1942 0
-1805 -1943 0
-1806 -1944 0
-1802 -1946 0
-1803 -1947 0
-1805 -1949 0
-1806 -1950 0
-1807 -1845 0
-1812 -1850 0
-1807 -1865 0
-1810 -1868 0
-1811 -1869 0
-1812 -1871 0
-1807 -1892 0
-1809 -1893 0
-1810 -1895 0
-1811 -1896 0
-1812 -1898 0
-1807 -1900 0
-1809 -1901 0
-1810 -1902 0
-1812 -1904 0
-1807 -1912 0
-1809 -1913 0
-1811 -1915 0
-1812 -1917 0
-1807 -1924 0
-1808 -1925 0
-1811 -1928 0
-1812 -1930 0
-1807 -1932 0
-1810 -1935 0
-1812 -1937 0
-1814 -1853 0
-1815 -1854 0
-1816 -1855 0
-1818 -1856 0
-1819 -1857 0
-1814 -1860 0
-1815 -1861 0
-1818 -1863 0
-1819 -1864 0
-1814 -1887 0
-1815 -1888 0
-1816 -1889 0
-1817 -1890 0
-1819 -1891 0
-1815 -1919 0
-1816 -1921 0
-1817 -1922 0
-1819 -1923 0
-1813 -1925 0
-1815 -1926 0
-1817 -1928 0
-1818 -1929 0
-1819 -1930 0
-1815 -1933 0
-1816 -1935 0
-1818 -1936 0
-1819 -1937 0
-1814 -1945 0
-1815 -1946 0
-1816 -1948 0
-1818 -1949 0
-1819 -1950 0
-1820 -1839 0
-1821 -1840 0
-1822 -1841 0
-1823 -1842 0
-1824 -1843 0
-1825 -1844 0
-1821 -1848 0
-1824 -1849 0
-1825 -1850 0
-1821 -1862 0
-1824 -1863 0
-1825 -1864 0
-1821 -1881 0
-1823 -1882 0
-1824 -1883 0
-1825 -1884 0
-1823 -1915 0
-1824 -1916 0
-1825 -1917 0
-1820 -1925 0
-1821 -1927 0
-1823 -1928 0
-1824 -1929 0
-1825 -1930 0
-1821 -1941 0
-1823 -1942 0
-1824 -1943 0
-1825 -1944 0
-1821 -1954 0
-1822 -1955 0
-1823 -1956 0
-1824 -1957 0
-1825 -1958 0
-1826 -1845 0
-1828 -1847 0
-1830 -1849 0
-1831 -1850 0
-1826 -1858 0
-1827 -1860 0
-1828 -1861 0
-1830 -1863 0
-1831 -1864 0
-1826 -1865 0
-1828 -1867 0
-1829 -1869 0
-1830 -1870 0
-1831 -1871 0
-1826 -1872 0
-1828 -1874 0
-1830 -1876 0
-1831 -1877 0
-1826 -1886 0
-1827 -1887 0
-1828 -1888 0
-1829 -1890 0
-1831 -1891 0
-1826 -1906 0
-1828 -1907 0
-1830 -1910 0
-1831 -1911 0
-1826 -1912 0
-1827 -1913 0
-1828 -1914 0
-1829 -1915 0
-1830 -1916 0
-1831 -1917 0
-1826 -1932 0
-1828 -1933 0
-1830 -1936 0
-1831 -1937 0
-1827 -1939 0
-1828 -1940 0
-1829 -1942 0
-1830 -1943 0
-1831 -1944 0
-1833 -1847 0
-1836 -1849 0
-1837 -1850 0
-1833 -1854 0
-1834 -1855 0
-1836 -1856 0
-1837 -1857 0
-1833 -1861 0
-1836 -1863 0
-1837 -1864 0
-1833 -1867 0
-1834 -1868 0
-1835 -1869 0
-1836 -1870 0
-1837 -1871 0
-1833 -1874 0
-1834 -1875 0
-1836 -1876 0
-1837 -1877 0
-1834 -1895 0
-1835 -1896 0
-1836 -1897 0
-1837 -1898 0
-1833 -1914 0
-1835 -1915 0
-1836 -1916 0
-1837 -1917 0
-1833 -1919 0
-1834 -1921 0
-1835 -1922 0
-1837 -1923 0
-1832 -1931 0
-1833 -1933 0
-1834 -1935 0
-1836 -1936 0
-1837 -1937 0
-1832 -1938 0
-1833 -1940 0
-1835 -1942 0
-1836 -1943 0
-1837 -1944 0
-1841 -1855 0
-1843 -1856 0
-1844 -1857 0
-1841 -1868 0
-1842 -1869 0
-1843 -1870 0
-1844 -1871 0
-1839 -1873 0
-1841 -1875 0
-1843 -1876 0
-1844 -1877 0
-1841 -1889 0
-1842 -1890 0
-1844 -1891 0
-1841 -1902 0
-1843 -1903 0
-1844 -1904 0
-1842 -1915 0
-1843 -1916 0
-1844 -1917 0
-1885 -1938 0
-1887 -1939 0
-1888 -1940 0
-1890 -1942 0
-1891 -1944 0
-1887 -1945 0
-1888 -1946 0
-1889 -1948 0
-1891 -1950 0
-1892 -1932 0
-1894 -1934 0
-1895 -1935 0
-1897 -1936 0
-1898 -1937 0
-1893 -1945 0
-1894 -1947 0
-1895 -1948 0
-1897 -1949 0
-1898 -1950 0
-1892 -1952 0
-1893 -1953 0
-1894 -1954 0
-1895 -1955 0
-1896 -1956 0
-1897 -1957 0
-1898 -1958 0
-1905 -1931 0
-1906 -1932 0
-1907 -1933 0
-1908 -1934 0
-1909 -1935 0
-1910 -1936 0
-1911 -1937 0
-1907 -1946 0
-1908 -1947 0
-1909 -1948 0
-1910 -1949 0
-1911 -1950 0
-1906 -1952 0
-1908 -1954 0
-1909 -1955 0
-1910 -1957 0
-1911 -1958 0
-1918 -1932 0
-1919 -1933 0
-1920 -1934 0
-1921 -1935 0
-1923 -1937 0
-1919 -1940 0
-1920 -1941 0
-1922 -1942 0
-1923 -1944 0
-1918 -1952 0
-1920 -1954 0
-1921 -1955 0
-1922 -1956 0
-1923 -1958 0
